li2 ni4 o8                              
1.0
        5.7859640121         0.0000000000         0.0000000000
        2.8936822883         5.0078967082         0.0000000000
        2.8929039595         1.6629831155         4.7241199097
   Li  Mn    O   
   2 4    8    
Direct
     0.374999918         0.375000007         0.375000018
     0.624999956         0.625000019         0.625000056
     0.000002441         0.999987153         0.000002101
     0.999992870         0.999990513         0.500018597
     0.000000013         0.500027038         0.000012398
     0.500002772         0.000000000         0.999988138
     0.792612979         0.235922543         0.235847347
     0.235613245         0.235848432         0.235928879
     0.207380230         0.764069079         0.764162266
     0.764104901         0.764494797         0.207370512
     0.764401518         0.764153237         0.764063095
     0.764020727         0.207414638         0.764473201
     0.235895974         0.235514274         0.792620818
     0.236001087         0.792577498         0.235512641
