Li Mn O 
 1.0000000000000000
    11.9316582149689250    0.1963225397377704   -0.3409303259751706
     6.1353694848192930   10.2350369863556860   -0.3312761245859504
     5.7442618927504654    3.3069166805648766    9.3889857524300577
 Li  Na Mn  O  
  16 3  29  64
Direct
  0.1819534594300158  0.1819364374029427  0.1932336481983974
  0.3180492266060855  0.3180646989031146  0.3067657466365963
  0.1819534594300158  0.1819364374029428  0.6932336481983972
  0.3180492266060854  0.3180646989031146  0.8067657466365963
  0.1819534594300159  0.6819364374029426  0.1932336481983974
  0.3180492266060854  0.8180646989031145  0.3067657466365963
  0.1819534594300159  0.6819364374029429  0.6932336481983972
  0.3180492266060855  0.8180646989031145  0.8067657466365962
  0.6819534594300156  0.1819364374029428  0.1932336481983974
  0.8180492266060853  0.3180646989031147  0.3067657466365963
  0.6819534594300160  0.1819364374029427  0.6932336481983972
  0.8180492266060854  0.3180646989031146  0.8067657466365963
  0.6819534594300160  0.6819364374029425  0.1932336481983974
  0.8180492266060854  0.8180646989031144  0.3067657466365963
  0.6819534594300160  0.6819364374029429  0.6932336481983972
  0.8180492266060857  0.8180646989031145  0.8067657466365962
  0.4999970043100249  0.4999898387633407  0.0000175621598401
  0.0000155841918748  0.0000090920953895  0.2499761164293446
  0.0000026953966064  0.2499891021881454  0.5000036891889115
  0.0000026953966063  0.2499891021881454  0.0000036891889117
  0.2499885725476716  0.0000001938794654  0.0000057286044246
  0.4999970043100248  0.4999898387633408  0.5000175621598402
  0.0000155841918747  0.0000090920953895  0.7499761164293445
  0.2499885725476717  0.0000001938794654  0.5000057286044244
  0.4999970043100249  0.9999898387633407  0.0000175621598401
  0.0000155841918747  0.5000090920953895  0.2499761164293446
  0.0000026953966064  0.7499891021881451  0.0000036891889117
  0.2499885725476716  0.5000001938794654  0.0000057286044246
  0.4999970043100247  0.9999898387633409  0.5000175621598399
  0.0000155841918747  0.5000090920953895  0.7499761164293446
  0.0000026953966066  0.7499891021881451  0.5000036891889114
  0.2499885725476716  0.5000001938794654  0.5000057286044244
  0.9999970043100247  0.4999898387633410  0.0000175621598402
  0.5000155841918748  0.0000090920953895  0.2499761164293446
  0.5000026953966062  0.2499891021881454  0.0000036891889117
  0.7499885725476715  0.0000001938794654  0.0000057286044246
  0.9999970043100247  0.4999898387633408  0.5000175621598402
  0.5000155841918749  0.0000090920953895  0.7499761164293444
  0.5000026953966065  0.2499891021881452  0.5000036891889115
  0.7499885725476715  0.0000001938794654  0.5000057286044244
  0.9999970043100253  0.9999898387633405  0.0000175621598402
  0.5000155841918748  0.5000090920953895  0.2499761164293446
  0.5000026953966065  0.7499891021881451  0.0000036891889117
  0.7499885725476715  0.5000001938794653  0.0000057286044246
  0.9999970043100248  0.9999898387633409  0.5000175621598399
  0.5000155841918748  0.5000090920953895  0.7499761164293445
  0.5000026953966064  0.7499891021881455  0.5000036891889114
  0.7499885725476716  0.5000001938794653  0.5000057286044243
  0.3878202114031913  0.1098824624059276  0.1261876790903748
  0.1119584746348466  0.1119980703787640  0.1269152534051301
  0.1121897125848151  0.3901121824790826  0.3738104033228600
  0.3879723521916141  0.3879890381388726  0.1006794094847443
  0.3880442675642112  0.3880042101089530  0.3730864240963143
  0.3901141974658202  0.1121882325365035  0.3738170050599903
  0.1120317448866537  0.1120110904448773  0.3993185792489092
  0.1098768122865721  0.3878249642746319  0.1261827885741660
  0.3878202114031913  0.1098824624059276  0.6261876790903746
  0.1119584746348466  0.1119980703787640  0.6269152534051299
  0.1121897125848151  0.3901121824790828  0.8738104033228599
  0.3879723521916143  0.3879890381388726  0.6006794094847442
  0.3880442675642116  0.3880042101089530  0.8730864240963139
  0.3901141974658202  0.1121882325365037  0.8738170050599902
  0.1120317448866538  0.1120110904448774  0.8993185792489090
  0.1098768122865721  0.3878249642746320  0.6261827885741659
  0.3878202114031913  0.6098824624059275  0.1261876790903748
  0.1119584746348466  0.6119980703787640  0.1269152534051301
  0.1121897125848150  0.8901121824790829  0.3738104033228600
  0.3879723521916141  0.8879890381388726  0.1006794094847443
  0.3880442675642116  0.8880042101089526  0.3730864240963143
  0.3901141974658202  0.6121882325365037  0.3738170050599903
  0.1120317448866537  0.6120110904448772  0.3993185792489092
  0.1098768122865721  0.8878249642746319  0.1261827885741660
  0.3878202114031915  0.6098824624059274  0.6261876790903746
  0.1119584746348467  0.6119980703787637  0.6269152534051300
  0.1121897125848151  0.8901121824790827  0.8738104033228599
  0.3879723521916141  0.8879890381388726  0.6006794094847441
  0.3880442675642116  0.8880042101089528  0.8730864240963141
  0.3901141974658204  0.6121882325365036  0.8738170050599902
  0.1120317448866538  0.6120110904448774  0.8993185792489090
  0.1098768122865722  0.8878249642746318  0.6261827885741659
  0.8878202114031912  0.1098824624059276  0.1261876790903748
  0.6119584746348466  0.1119980703787640  0.1269152534051301
  0.6121897125848151  0.3901121824790829  0.3738104033228600
  0.8879723521916139  0.3879890381388728  0.1006794094847443
  0.8880442675642113  0.3880042101089530  0.3730864240963143
  0.8901141974658203  0.1121882325365035  0.3738170050599903
  0.6120317448866537  0.1120110904448773  0.3993185792489092
  0.6098768122865719  0.3878249642746320  0.1261827885741660
  0.8878202114031912  0.1098824624059276  0.6261876790903746
  0.6119584746348466  0.1119980703787640  0.6269152534051299
  0.6121897125848150  0.3901121824790830  0.8738104033228599
  0.8879723521916140  0.3879890381388725  0.6006794094847441
  0.8880442675642113  0.3880042101089529  0.8730864240963141
  0.8901141974658203  0.1121882325365038  0.8738170050599902
  0.6120317448866538  0.1120110904448773  0.8993185792489092
  0.6098768122865722  0.3878249642746318  0.6261827885741659
  0.8878202114031912  0.6098824624059277  0.1261876790903748
  0.6119584746348466  0.6119980703787640  0.1269152534051301
  0.6121897125848148  0.8901121824790829  0.3738104033228600
  0.8879723521916143  0.8879890381388726  0.1006794094847443
  0.8880442675642114  0.8880042101089530  0.3730864240963143
  0.8901141974658202  0.6121882325365036  0.3738170050599903
  0.6120317448866538  0.6120110904448771  0.3993185792489092
  0.6098768122865720  0.8878249642746319  0.1261827885741660
  0.8878202114031916  0.6098824624059274  0.6261876790903746
  0.6119584746348464  0.6119980703787642  0.6269152534051299
  0.6121897125848151  0.8901121824790827  0.8738104033228599
  0.8879723521916143  0.8879890381388726  0.6006794094847442
  0.8880442675642113  0.8880042101089531  0.8730864240963141
  0.8901141974658203  0.6121882325365037  0.8738170050599900
  0.6120317448866539  0.6120110904448771  0.8993185792489092
  0.6098768122865719  0.8878249642746318  0.6261827885741659
