Li Mn Na Ni O  P 
 1.0000000000000000
    11.5719280242000000    0.0000000000000000    0.0000000000000000
     5.7873645765999999   10.0157934163999993    0.0000000000000000
     5.7858079189999998    3.3259662310000002    9.4482398193999995
 Li  Mn  Na  Ni  O   P  
  15  14   1  17  64   1
Direct
  0.3124999780000000  0.3125000095000001  0.3125000280000000
  0.1874999590000000  0.1875000035000000  0.6875000090000000
  0.3124999780000000  0.3125000095000001  0.8125000279999999
  0.1874999590000000  0.6875000035000000  0.1875000090000000
  0.3124999780000001  0.8125000095000000  0.3125000280000000
  0.1874999590000000  0.6875000035000000  0.6875000090000000
  0.3124999780000000  0.8125000095000002  0.8125000279999999
  0.6874999590000000  0.1875000035000000  0.1875000090000000
  0.8124999780000001  0.3125000095000001  0.3125000280000000
  0.6874999589999999  0.1875000035000000  0.6875000090000000
  0.8124999780000000  0.3125000095000001  0.8125000279999999
  0.6874999590000000  0.6875000035000000  0.1875000090000000
  0.8124999780000000  0.8125000095000000  0.3125000280000000
  0.6874999590000000  0.6875000035000000  0.6875000090000000
  0.8124999780000000  0.8125000095000002  0.8125000279999999
  0.4999964350000002  0.4999952565000000  0.2500092985000000
  0.0000012204999999  0.4999935765000001  0.5000010505000000
  0.4999964350000004  0.4999952565000000  0.7500092985000000
  0.0000012204999999 -0.0000064234999999  0.0000010505000000
  0.4999964350000005 -0.0000047434999999  0.7500092985000000
  0.0000000065000001  0.7500135189999999  0.5000061990000000
  0.5000012205000000  0.4999935765000000  0.0000010505000000
  0.7500013860000000  0.0000000000000000  0.4999940690000000
  0.5000012204999997  0.4999935765000001  0.5000010505000000
 -0.0000035649999999  0.4999952565000000  0.7500092985000000
  0.5000000065000001  0.7500135190000000  0.0000061990000000
  0.5000012205000001 -0.0000064234999999  0.5000010505000000
 -0.0000035649999997 -0.0000047434999999  0.7500092985000000
  0.7500013860000000  0.4999999999999999 -0.0000059310000000
 -0.0000035649999997 -0.0000047434999999  0.2500092985000000
  0.0000012205000000  0.4999935765000000  0.0000010505000000
  0.0000000065000000  0.2500135190000000  0.0000061990000000
  0.2500013860000000  0.0000000000000000  0.4999940690000000
  0.0000000065000001  0.2500135189999999  0.5000061990000000
  0.2500013860000000  0.0000000000000000 -0.0000059310000000
  0.4999964350000002 -0.0000047434999999  0.2500092985000000
  0.0000000065000000  0.7500135190000000  0.0000061990000000
  0.2500013860000002  0.5000000000000000  0.4999940690000000
  0.0000012204999999 -0.0000064234999999  0.5000010505000000
  0.2500013860000001  0.4999999999999999 -0.0000059310000000
 -0.0000035649999996  0.4999952565000000  0.2500092985000000
  0.5000000065000000  0.2500135190000000  0.0000061990000000
  0.5000000065000000  0.2500135189999999  0.5000061990000000
  0.7500013860000000  0.0000000000000000 -0.0000059310000000
  0.5000012205000000 -0.0000064234999999  0.0000010505000000
  0.7500013860000000  0.5000000000000000  0.4999940690000000
  0.5000000065000001  0.7500135189999999  0.5000061990000000
  0.3963064895000001  0.1179612715000000  0.1179236735000000
  0.1178066225000000  0.1179242160000000  0.1179644395000000
  0.1036901150000000  0.3820345394999999  0.3820811330000000
  0.3820524505000000  0.3822473985000000  0.1036852560000000
  0.3822007590000002  0.3820766185000000  0.3820315475000000
  0.3820103635000000  0.1037073190000000  0.3822366005000000
  0.1179479870000000  0.1177571370000000  0.3963104090000000
  0.1180005435000001  0.3962887489999999  0.1177563205000000
  0.3963064895000001  0.1179612715000000  0.6179236735000000
  0.1178066225000000  0.1179242160000000  0.6179644395000000
  0.1036901150000000  0.3820345395000000  0.8820811329999999
  0.3820524505000000  0.3822473985000000  0.6036852560000000
  0.3822007590000002  0.3820766185000000  0.8820315475000000
  0.3820103635000001  0.1037073190000000  0.8822366005000000
  0.1179479870000000  0.1177571370000000  0.8963104090000000
  0.1180005435000000  0.3962887490000000  0.6177563205000000
  0.3963064895000001  0.6179612715000000  0.1179236735000000
  0.1178066225000000  0.6179242160000000  0.1179644395000000
  0.1036901149999999  0.8820345395000000  0.3820811330000000
  0.3820524505000001  0.8822473984999999  0.1036852560000000
  0.3822007589999999  0.8820766184999999  0.3820315475000000
  0.3820103635000000  0.6037073190000000  0.3822366005000000
  0.1179479870000000  0.6177571370000000  0.3963104090000000
  0.1180005435000000  0.8962887489999999  0.1177563205000000
  0.3963064895000001  0.6179612714999998  0.6179236735000000
  0.1178066225000000  0.6179242160000000  0.6179644395000000
  0.1036901149999999  0.8820345395000000  0.8820811329999999
  0.3820524505000001  0.8822473985000000  0.6036852560000000
  0.3822007589999999  0.8820766185000000  0.8820315475000000
  0.3820103634999999  0.6037073190000001  0.8822366005000000
  0.1179479870000000  0.6177571369999999  0.8963104090000000
  0.1180005435000000  0.8962887490000000  0.6177563205000000
  0.8963064895000000  0.1179612715000000  0.1179236735000000
  0.6178066225000000  0.1179242160000000  0.1179644395000000
  0.6036901149999999  0.3820345394999999  0.3820811330000000
  0.8820524505000000  0.3822473985000000  0.1036852560000000
  0.8822007590000002  0.3820766185000000  0.3820315475000000
  0.8820103635000002  0.1037073190000000  0.3822366005000000
  0.6179479870000001  0.1177571370000000  0.3963104090000000
  0.6180005435000000  0.3962887489999999  0.1177563205000000
  0.8963064895000000  0.1179612715000000  0.6179236735000000
  0.6178066225000000  0.1179242160000000  0.6179644395000000
  0.6036901149999999  0.3820345395000000  0.8820811329999999
  0.8820524505000000  0.3822473985000000  0.6036852560000000
  0.8822007589999999  0.3820766185000000  0.8820315475000000
  0.8820103635000002  0.1037073190000000  0.8822366005000000
  0.6179479869999999  0.1177571370000000  0.8963104090000000
  0.6180005435000000  0.3962887490000000  0.6177563205000000
  0.8963064895000000  0.6179612715000000  0.1179236735000000
  0.6178066224999998  0.6179242160000000  0.1179644395000000
  0.6036901150000000  0.8820345395000000  0.3820811330000000
  0.8820524505000000  0.8822473984999999  0.1036852560000000
  0.8822007590000002  0.8820766184999999  0.3820315475000000
  0.8820103635000002  0.6037073190000000  0.3822366005000000
  0.6179479870000003  0.6177571370000000  0.3963104090000000
  0.6180005435000000  0.8962887489999999  0.1177563205000000
  0.8963064895000000  0.6179612714999998  0.6179236735000000
  0.6178066225000000  0.6179242160000000  0.6179644395000000
  0.6036901149999999  0.8820345395000000  0.8820811329999999
  0.8820524505000000  0.8822473985000000  0.6036852560000000
  0.8822007589999999  0.8820766185000000  0.8820315475000000
  0.8820103634999998  0.6037073190000001  0.8822366005000000
  0.6179479870000000  0.6177571369999999  0.8963104090000000
  0.6180005435000001  0.8962887490000000  0.6177563205000000
  0.1874999589999999  0.1875000035000000  0.1875000090000000
