Cl Mn O  P 
 1.0000000000000000
    65.0000000000000000    0.0000000000000000    0.0000000000000000
     0.0000000000000000   65.0000000000000000    0.0000000000000000
     0.0000000000000000    0.0000000000000000   65.0000000000000000
 Cl  Mn  O   P  
 321 3195 6297 119
Direct
  0.1464715816517781  0.3959975795304932  0.3717844210111230
  0.1661878841078765  0.3618316902708172  0.3717600949914538
  0.1019869140363937  0.5245023533904932  0.2991056531695845
  0.4135042330294534  0.2193667466230778  0.1921381872056441
  0.4332217840972974  0.2535281206275946  0.1921679932044087
  0.4135089030933168  0.2421999479197238  0.1537481174865075
  0.2997332277605809  0.4619625220974187  0.1215349594841056
  0.3194586239344220  0.5019567032758068  0.1194666269901914
  0.2800189773794701  0.4733336421443394  0.1537481174865075
  0.2997450190317619  0.5133286999145634  0.1516784562066809
  0.3194529005638441  0.4733300182382842  0.1537540431318072
  0.2997547749067350  0.6160516515804957  0.1215349594841056
  0.3194744477099977  0.6274191477213612  0.1537540431318072
  0.2800405245256242  0.6274227716274161  0.1537481174865075
  0.3887718242763771  0.5647889090330251  0.0789996883651424
  0.4332802741309536  0.5676725267446634  0.0810450236252999
  0.4135639716748550  0.6018384160043392  0.0810693496449691
  0.3194801710805761  0.6560458327588835  0.1194666269901914
  0.2997665661779155  0.6674178293976405  0.1516784562066809
  0.3244654534956073  0.1164463283861547  0.3374957228887210
  0.2996778098217223  0.1306979960462018  0.3717600949914538
  0.3193954305499981  0.1648602613998228  0.3717903466564226
  0.2996757577467349  0.1534927652589573  0.3395712630087210
  0.3441830045634512  0.1506077023906715  0.3375255288874855
  0.2749045120159608  0.2705315111788836  0.3375029305148066
  0.2748987886453825  0.2419048261413614  0.3717903466564226
  0.2354648654610090  0.2419084500474163  0.3717844210111230
  0.2551791158421198  0.2305373300004957  0.3395712630087210
  0.4331964541063376  0.2074510629154326  0.5897963985160694
  0.4134801516502395  0.2416169521751085  0.5898207245357382
  0.4331944020313507  0.2302458321281881  0.5576075665333362
  0.2354888140394704  0.3448288682843395  0.2264268853280461
  0.2749227372238439  0.3448252443782843  0.2264328109733457
  0.2552051164955685  0.3106629790246631  0.2264025593083769
  0.2749164863051913  0.3219917202973452  0.2648241626732682
  0.2552016950434506  0.3561570409922098  0.2648467610459470
  0.2997402161671464  0.6156661224068711  0.4423935275728348
  0.4332515226878758  0.5670895310000480  0.5171176306745305
  0.4135352202317777  0.6012554202597240  0.5171419566941998
  0.4332481012357588  0.6125835929675945  0.5555618324121008
  0.3887275107526819  0.5867077394722099  0.7009193680951779
  0.3690146297487012  0.5753795667643392  0.6624994923772766
  0.4084485529330747  0.5753759428582844  0.6625054180225762
  0.3887309322047993  0.5412136775046632  0.6624751663576077
  0.4084423020144221  0.5525424187773452  0.7008967697224989
  0.4777172109286850  0.2048589430761020  0.3697147597312961
  0.4777160245696048  0.2276522671322101  0.3375255288874855
  0.5025093583271629  0.2419084500474163  0.3717844210111230
  0.5915217878502399  0.2930771612935701  0.5171419566941998
  0.6112478295025312  0.3330722190637943  0.5150722954143732
  0.5915290920756076  0.3217041691153855  0.4828532585717981
  0.5025238339771460  0.4243330894800009  0.5555320264133365
  0.4777361903032605  0.4385847571400481  0.5897963985160694
  0.4777341382282736  0.4613795263528034  0.5576075665333362
  0.5222413850449900  0.4584944634845177  0.5555618324121008
  0.5222425714040696  0.4357011394284098  0.5877510632559115
  0.7250597106494537  0.4499174451030779  0.6282107942548749
  0.7447784480763775  0.4612854950514866  0.6604298310974501
  0.7448012102957583  0.5869992373445176  0.4828830645705623
  0.4974538110315363  0.4727470224936689  0.5898266501810381
  0.4529691434161516  0.6012517963536689  0.5171478823394995
  0.4529628924974991  0.5784182722727298  0.5555392340394220
  0.5667725684047993  0.5926738866231248  0.5897963985160694
  0.4777555023563773  0.6153746245345638  0.6604298310974501
  0.5864839382144221  0.6040026278958066  0.6282180018809606
  0.7002720669755688  0.4641691127631248  0.6624751663576077
  0.7448023966548389  0.5642059132884099  0.5150722954143732
  0.7250716849386847  0.5013776542215395  0.5555320264133365
  0.7447892360065278  0.5355390282260560  0.5555618324121008
  0.7002819891898119  0.5384240910943419  0.5576075665333362
  0.7447904223656080  0.5127457041699482  0.5877510632559115
  0.7200016619930750  0.5497915872352075  0.5898266501810381
  0.7695945440533168  0.6012554202597240  0.5171419566941998
  0.7447772617172977  0.4840788191075945  0.6282406002536391
  0.7199896877038441  0.4983313781167458  0.6625054180225762
  0.2997510040972972  0.6899196555814405  0.3375255288874855
  0.2552458093555686  0.6700099492369711  0.3717600949914538
  0.3245323635656243  0.6527156293781854  0.4444631888526615
  0.2749634300838439  0.7041722145905921  0.3717903466564226
  0.2552437572805808  0.6928047184497266  0.3395712630087210
  0.3442608066502233  0.6415419759022558  0.2970359918897577
  0.3442596202911432  0.6643352999583637  0.2648467610459470
  0.3887672044298121  0.6672203628266496  0.2668924951671827
  0.3442466139467356  0.6413445093312649  0.4122500308502595
  0.3442486660217220  0.6185497401185094  0.4444388628329923
  0.4974993067561518  0.7297565702136690  0.4444691144979609
  0.4580653835717783  0.7297601941197238  0.4444631888526615
  0.4777796339528886  0.7183890740728034  0.4122500308502595
  0.4580726877971459  0.7583872019415393  0.4101744907302595
  0.2997355963205813  0.7180975762004960  0.6302863343748750
  0.3194552691238440  0.7294650723413616  0.6625054180225762
  0.2800213459394705  0.7294686962474158  0.6624994923772766
  0.2107445309256080  0.8209239631361018  0.5877510632559115
  0.1910257934986847  0.8095559131876933  0.5555320264133365
  0.2107433445665283  0.8437172871922098  0.5555618324121008
  0.1910138192094534  0.7580957040692314  0.6282107942548749
  0.2107313702772974  0.7922570780737483  0.6282406002536391
  0.2107325566363775  0.7694637540176406  0.6604298310974501
  0.1662261755355688  0.7723473717292789  0.6624751663576077
  0.2800286501648386  0.7580957040692314  0.6282107942548749
  0.3194609924944224  0.7580917573788835  0.6282180018809606
  0.2997473875917618  0.7694637540176406  0.6604298310974501
  0.4135567673779318  0.7553445497428009  0.5171419566941998
  0.4332710177590426  0.7439734296958803  0.4849287986917978
  0.4529906905623057  0.7553409258367459  0.5171478823394995
  0.3690361768948549  0.7294686962474158  0.6624994923772766
  0.5025476497548552  0.6524241315058777  0.6624994923772766
  0.4135640716032999  0.7839715575646162  0.4828532585717981
  0.4580629821394706  0.7809289053658776  0.5898207245357382
  0.4777772325205809  0.7695577853189572  0.5576075665333362
  0.4975026286944224  0.8095519664973453  0.5555392340394220
  0.3690434811202229  0.7580957040692314  0.6282107942548749
  0.4084758234498067  0.7580917573788835  0.6282180018809606
  0.3887622185471462  0.7694637540176406  0.6604298310974501
  0.4974969053238441  0.7809252814598228  0.5898266501810381
  0.5025691969010093  0.8065132609889545  0.6624994923772766
  0.5668324398509531  0.8499749322154324  0.2264025593083769
  0.5865438096605758  0.8613036734881145  0.2648241626732682
  0.5471114673309920  0.8613076201784625  0.2648169550471826
  0.5864901891330747  0.6268361519767458  0.5898266501810381
  0.5470562659487013  0.6268397758828009  0.5898207245357382
  0.5222619001359655  0.6410530114589573  0.6302863343748750
  0.5222639522109533  0.6182582422462017  0.6624751663576077
  0.6310021272651913  0.6810471926373450  0.6282180018809606
  0.6112767310913503  0.6410530114589573  0.6302863343748750
  0.6112885223625308  0.6924191892761019  0.6604298310974501
  0.5915624807102395  0.6524241315058777  0.6624994923772766
  0.6309964038946134  0.6524205075998227  0.6625054180225762
  0.5420112448882685  0.7839676108742685  0.4828604661978836
  0.5222976399856079  0.7953396075130249  0.5150722954143732
  0.5668040377651966  0.8210179944374191  0.4849287986917978
  0.5470897873840859  0.8323891144843393  0.5171419566941998
  0.5222834472821196  0.7951421409420341  0.6302863343748750
  0.5222974736463379  0.8238075808477404  0.5897963985160694
  0.5222940521942200  0.8693016428152868  0.6282406002536391
  0.5420150943746133  0.8579698462013614  0.5898266501810381
  0.5025811711902398  0.8579734701074162  0.5898207245357382
  0.5420031200853823  0.8065096370828997  0.6625054180225762
  0.5222952385533002  0.8465083187591789  0.6604298310974501
  0.1909635534925306  0.2961198134923086  0.4101744907302595
  0.2106704996482733  0.2561216856235726  0.4122500308502595
  0.1909562492671630  0.2674928056704933  0.4444631888526615
  0.2303901724515365  0.2674891817644382  0.4444691144979609
  0.2551767144098121  0.2817060412466496  0.4849287986917978
  0.2303662238730751  0.1645687635275152  0.5898266501810381
  0.2106451816926822  0.1759005601414408  0.6282406002536391
  0.2354624640287013  0.2930771612935701  0.5171419566941998
  0.2749021105836531  0.3217002224250374  0.4828604661978836
  0.2748963872130748  0.2930735373875153  0.5171478823394995
  0.3689692668248383  0.1931993952553855  0.5555320264133365
  0.4084016091544221  0.1931954485650375  0.5555392340394220
  0.3441816231509532  0.2074510629154326  0.5897963985160694
  0.3441795710759659  0.2302458321281881  0.5576075665333362
  0.3638992438792291  0.2416133282690537  0.5898266501810381
  0.3244702234879150  0.3214126712430780  0.7008895620964134
  0.3441771696436582  0.2814145433743419  0.7029651022164134
  0.3639025658174992  0.3214087245527300  0.7008967697224989
  0.1216782478942205  0.3817413966152869  0.3375255288874855
  0.1413930391559607  0.3475760759204222  0.3375029305148066
  0.1661844626557586  0.4073257522383638  0.4102042967290240
  0.1216792679140300  0.3874160458938940  0.4444388628329923
  0.1216772158390427  0.4102108151066496  0.4122500308502595
  0.1413968886423058  0.4215783112475150  0.4444691144979609
  0.1859159981990375  0.6295869835188835  0.7008967697224989
  0.1464836558694539  0.6295909302092315  0.7008895620964134
  0.1662012069372972  0.6637523042137483  0.7009193680951779
  0.2107087910759661  0.6666373670820342  0.7029651022164134
  0.8089805700807675  0.3954109598798229  0.8078629537056534
  0.8783113017432610  0.5667980331277402  0.7351539341991462
  0.3689906811702398  0.4724591485274163  0.8078570280603536
  0.4777291523456081  0.5636229175437945  0.9511449024636039
  0.4135088702210090  0.5495037132689548  0.8078570280603536
  0.4580223892079158  0.6037150767138472  0.8462470977794904
  0.4332217512249892  0.5608318859768252  0.8462769037782548
  0.4580150849825473  0.5750880688920317  0.8805357959018922
  0.3689644639602233  0.2955368177476932  0.8462470977794904
  0.3886832013871465  0.3069048676961020  0.8784661346220655
  0.3244629192625474  0.2927856634212624  0.7351782602188154
  0.3441889609148387  0.3327807211914867  0.7331085989389885
  0.4084303277251917  0.5010822096588837  0.7735755375640375
  0.3887049315513506  0.4610880284804957  0.7756438700579520
  0.4084246043546133  0.4724555246213614  0.8078629537056534
  0.4529365424867295  0.5266665652819607  0.8462543054055761
  0.4332251726771071  0.5153378240092787  0.8078327020406846
  0.4974427572482687  0.5522509209050375  0.9189330732471145
  0.5222376022001841  0.5665065352554326  0.9531902377237615
  0.4529427934053825  0.5495000893628997  0.8078629537056534
  0.4974547315374991  0.6037111300234991  0.8462543054055761
  0.4777293353636581  0.5637169488451110  0.8483226378994904
  0.5419609462990379  0.6292954856465760  0.9189330732471145
  0.3886736285302234  0.2042759473314867  0.8057873667805271
  0.3886724421711436  0.2270692713875946  0.7735981359367164
  0.4134657759287013  0.2413254543028009  0.8078570280603536
  0.4083968062898071  0.2955328710573452  0.8462543054055761
  0.3886714101159656  0.2555386898789573  0.8483226378994904
  0.3638968424469213  0.2927820395152075  0.7351841858641148
  0.5024901797410087  0.3439543746674164  0.8805357959018922
  0.5470083687917779  0.4209989394089547  0.8805357959018922
  0.4083872334328839  0.1929039506927298  0.7735755375640375
  0.4331820783847993  0.2071595650431249  0.8078327020406846
  0.5419298262959606  0.3725774357988837  0.8462543054055761
  0.5222044301221196  0.3325832546204958  0.8483226378994904
  0.5419241029253827  0.3439507507613614  0.8805417215471920
  0.5864360410574994  0.3981617914219606  0.9189330732471145
  0.5667246712478761  0.3868330501492787  0.8805114698822230
  0.5864422919761515  0.4209953155028997  0.8805417215471920
  0.7695419768325307  0.3725813824892317  0.8462470977794904
  0.7447413388496046  0.3296981917522098  0.8462769037782548
  0.7695466468963935  0.3954145837858778  0.8078570280603536
  0.7892595279003742  0.4067427564937484  0.8462769037782548
  0.1662023932963774  0.6409589801576404  0.7331085989389885
  0.1909945406948553  0.6780084871289545  0.7351782602188154
  0.2107108431509534  0.6438425978692787  0.7351539341991462
  0.5025332740333166  0.6521326336335700  0.8805357959018922
  0.5222461550372972  0.6634608063414408  0.9189556716197932
  0.5025452483225470  0.7035928427520317  0.8078570280603536
  0.5419671972176900  0.6521290097275153  0.8805417215471920
  0.5419848948774993  0.7322159038834990  0.7735755375640375
  0.5222594987036583  0.6922217227051112  0.7756438700579520
  0.5419791715069210  0.7035892188459765  0.8078629537056534
  0.6360855725540691  0.8092644153153854  0.7735683299379518
  0.6805629359440857  0.6521326336335700  0.8805357959018922
  0.6557815764757590  0.6893366598368251  0.7735981359367164
  0.6805749102333166  0.7035928427520317  0.8078570280603536
  0.6755179148836529  0.8092604686250374  0.7735755375640375
  0.6755121915130750  0.7806337835875151  0.8078629537056534
  0.6754963677374992  0.6551713391419607  0.7735755375640375
  0.7200025824990375  0.6807556947650376  0.8462543054055761
  0.7002891606144274  0.6922217227051112  0.7756438700579520
  0.4777196123609931  0.1536902318299481  0.2243572240482193
  0.4529365753590377  0.2193627999327298  0.1921453948317297
  0.4332252055494149  0.2080340586600480  0.1537237914668385
  0.4529428262776903  0.2421963240136690  0.1537540431318072
  0.5667559904625311  0.3077793613130251  0.2243572240482193
  0.5667428298142205  0.2791124762506714  0.2648467610459470
  0.5667548041034510  0.3305726853691329  0.1921679932044087
  0.5915481378610091  0.3448288682843395  0.2264268853280461
  0.5915338949402230  0.2193667466230778  0.1921381872056441
  0.5864576210759608  0.2449471555558067  0.2648241626732682
  0.6112526323671467  0.2307347965714865  0.2243572240482193
  0.5864695953651917  0.2964073646742683  0.1921453948317297
  0.6112514460080666  0.2535281206275946  0.1921679932044087
  0.5667441991913507  0.2564131834958804  0.1942137273256442
  0.6112623882421199  0.3334577482374187  0.1942137273256442
  0.6805367516063768  0.1679065375046163  0.2648169550471826
  0.6558161508032609  0.5932568823677403  0.1537237914668385
  0.7003223655647998  0.6188412379908173  0.2264025593083769
  0.7003213455449900  0.6131665887122097  0.1194892253628700
  0.6755337715315368  0.6274191477213612  0.1537540431318072
  0.7448275603065283  0.6387509443352868  0.1921679932044087
  0.7003203134898119  0.6416360072035727  0.1942137273256442
  0.7200399862930751  0.6530035033444381  0.2264328109733457
  0.7696066511432998  0.5275450055892316  0.1921381872056441
  0.7893253885702236  0.5389130555376402  0.2243572240482193
  0.7695897740610091  0.3962890774028007  0.1537481174865075
  0.7893158157133005  0.4362841351730249  0.1516784562066809
  0.7893135972990430  0.4875468777204957  0.1942137273256442
  0.8090332701023057  0.4989143738613612  0.2264328109733457
  0.6359944811763937  0.1131121783151085  0.6624994923772766
  0.6557073621803743  0.1244403510229792  0.7009193680951779
  0.5915075449294539  0.1676150396323086  0.4828532585717981
  0.4974308158313455  0.1934869464373453  0.3375029305148066
  0.5915195192186843  0.2190752487507702  0.4101744907302595
  0.5222256607832610  0.2077425607877403  0.3717600949914538
  0.6112382566456085  0.2304432986991790  0.4423935275728348
  0.6112250959972974  0.2017764136368255  0.4828830645705623
  0.5667440161733003  0.2563191521945635  0.2970359918897577
  0.6112360382313503  0.2817060412466496  0.4849287986917978
  0.6805366188056243  0.2930771612935701  0.5171419566941998
  0.6309557110346135  0.2930735373875153  0.5171478823394995
  0.7002626604579155  0.3330722190637943  0.5150722954143732
  0.5915361635717782  0.2933686591658777  0.2991056531695845
  0.6805485930948552  0.3445373704120315  0.4444631888526615
  0.9030989454171461  0.5525463654676932  0.7008895620964134
  0.6309398872590377  0.1676110929419606  0.4828604661978836
  0.6112285174494144  0.1562823516692787  0.4444388628329923
  0.6360281354125308  0.1934908931276932  0.3374957228887210
  0.6309518615482685  0.2190713020604221  0.4101816983563453
  0.6112264653744276  0.1790771208820342  0.4122500308502595
  0.7695467796971461  0.2702439599969241  0.5555320264133365
  0.6360328054763937  0.2163240944243393  0.2991056531695845
  0.6557456864803743  0.2276522671322101  0.3375255288874855
  0.6112524660278763  0.2592027699062018  0.2990813271499153
  0.7002508691867351  0.2817060412466496  0.4849287986917978
  0.7002648955509533  0.3103714811523556  0.4444388628329923
  0.7695514497610091  0.2930771612935701  0.5171419566941998
  0.7199705419899982  0.2930735373875153  0.5171478823394995
  0.7892643307649897  0.3044053340014406  0.5555618324121008
  0.8585711835094537  0.3728728803615394  0.6282107942548749
  0.8585638792840861  0.3442458725397238  0.6624994923772766
  0.7199825162792287  0.3445337465059768  0.4444691144979609
  0.7250691835779322  0.3704132239074163  0.2991056531695845
  0.7447820645819128  0.3817413966152869  0.3375255288874855
  0.6805247773171463  0.1164463283861547  0.3374957228887210
  0.6557371336432609  0.1306979960462018  0.3717600949914538
  0.7250356621425476  0.1648638853058778  0.3717844210111230
  0.6754547543715362  0.1648602613998228  0.3717903466564226
  0.8089791220267299  0.2702400133065759  0.5555392340394220
  0.6754667286607672  0.2163204705182844  0.2991115788148840
  0.8782781296651965  0.3328747524928035  0.6302863343748750
  0.8979978024684595  0.3442422486336690  0.6625054180225762
  0.7644968558436530  0.3475760759204222  0.3375029305148066
  0.7447854860340303  0.3362473346477400  0.2990813271499153
  0.7645031067623060  0.3704096000013611  0.2991115788148840
  0.7447519645986457  0.1306979960462018  0.3717600949914538
  0.7447499125236580  0.1534927652589573  0.3395712630087210
  0.7645160015574994  0.5528339166496529  0.4828604661978836
  0.7893108465094150  0.5670895310000480  0.5171176306745305
  0.8783092496682737  0.5895928023404958  0.7029651022164134
  0.8141224387617614  0.6557582815769241  0.3374957228887210
  0.7893347950878763  0.6700099492369711  0.3717600949914538
  0.8338399898296054  0.6899196555814405  0.3375255288874855
  0.7893327430128890  0.6928047184497266  0.3395712630087210
  0.8090524158161522  0.7041722145905921  0.3717903466564226
  0.8140935873902396  0.4730421442720316  0.3717844210111230
  0.9228428464957588  0.6384594464629790  0.4102042967290240
  0.8535332339451915  0.5016652054034991  0.3375029305148066
  0.8338078377713509  0.4616710242251110  0.3395712630087210
  0.8535275105746132  0.4730385203659768  0.3717903466564226
  0.9031203926348549  0.5245023533904932  0.2991056531695845
  0.9228462679478766  0.5929653844954327  0.3717600949914538
  0.4110103383904245  0.5773354300566805  0.2819647112890201
  0.4332714506762627  0.6158610487920242  0.2819654596622923
  0.5222783085212641  0.5901282887774867  0.3183052941187435
  0.5000000000000000  0.5000000000000000  0.5000000000000000
  0.5000239485784619  0.6029204182369231  0.3546424643169230
  0.5000119742892309  0.5514602091184616  0.4273212321584612
  0.5000107936242706  0.5770439321843727  0.5000010148136353
  0.4777537168593396  0.5385249861781780  0.5000017631869077
  0.5222599316208784  0.5641093418012550  0.5726805310284461
  0.5445170083858089  0.6026282878074496  0.5726797826551737
  0.5667661463824166  0.5896936974243321  0.6453592988699849
  0.6112787637551107  0.5898367909051790  0.5363415976433590
  0.6335186442846158  0.5767530668692308  0.7180363035246153
  0.5000227679135006  0.6285041413028343  0.4273222469720970
  0.5222838801993397  0.6670297600381780  0.4273229953453694
  0.5445409569642699  0.7055487060443728  0.4273222469720970
  0.6113027123335721  0.6927572091421021  0.3909840619602819
  0.5890363781015384  0.6540891294830770  0.5000000000000000
  0.5890471717258090  0.7311330616674496  0.5000010148136353
  0.5667781206716471  0.6411539065427935  0.5726805310284461
  0.5890351974365777  0.6796728525489882  0.5726797826551737
  0.6112907380443416  0.6412970000236404  0.4636628298018202
  0.5890232231473468  0.6282126434305266  0.6453585504967121
  0.6780368333353850  0.6537976316107691  0.7180363035246153
  0.6780488076246155  0.7052578407292307  0.6453575356830770
  0.6558025244839550  0.7437828269074089  0.6453592988699849
  0.6780596012488856  0.7823017729136033  0.6453585504967121
  0.7003031675674178  0.6924657112697945  0.6090203654848974
  0.7003151418566491  0.7439259203882560  0.5363415976433590
  0.7002911932781878  0.6410055021513330  0.6816991333264355
  0.7893275713797262  0.7950946316344097  0.6816991333264355
  0.4110522119153844  0.9110986772030769  0.3546424643169230
  0.5000670428707692  0.9110986772030769  0.3546424643169230
  0.5890818738261540  0.9110986772030769  0.3546424643169230
  0.5445732576323079  0.9366830328261537  0.4273212321584612
  0.1216752473239552  0.3332671454489473  0.3546442275038309
  0.1216672742135726  0.3075343854344097  0.3909840619602819
  0.1216552999243417  0.2560741763159482  0.4636628298018202
  0.1216632730347245  0.2818069363304858  0.4273229953453694
  0.0994129142707694  0.3203265148938463  0.4273212321584612
  0.0771586580197261  0.3331187410574866  0.4636628298018202
  0.0993997593165779  0.2944500288412958  0.5726797826551737
  0.1216608716024168  0.3329756475766397  0.5726805310284461
  0.1216528984920339  0.3072428875621022  0.6090203654848974
  0.1216488973131859  0.2815154384581781  0.6453592988699849
  0.3219176709400004  0.0891928206692308  0.4273212321584612
  0.3664251064688857  0.0891921881120650  0.4273222469720970
  0.3886742444654938  0.0762575977289474  0.5000017631869077
  0.4776811023104953  0.0505248377144098  0.5363415976433590
  0.3664107307473470  0.0889006902397573  0.6453585504967121
  0.5221873170720336  0.0761091933374867  0.6090203654848974
  0.4331724861166493  0.0761091933374867  0.6090203654848974
  0.4109193469411930  0.0633163346166804  0.5726797826551737
  0.4554267423676925  0.0633169671738462  0.5726787678415384
  0.4109181261738465  0.0889013227969230  0.6453575356830770
  0.4554255617027318  0.0889006902397573  0.6453585504967121
  0.4999329571292313  0.0889013227969230  0.6453575356830770
  0.2106685311331856  0.1791780159658703  0.3546442275038309
  0.1884050174150393  0.1918211084766805  0.5000010148136353
  0.2551627716054939  0.1533021624704858  0.5000017631869077
  0.2551667727843415  0.1790296115744099  0.4636628298018202
  0.2329124128415388  0.1918217410338462  0.5000000000000000
  0.2329136336088853  0.1662367528536036  0.4273222469720970
  0.2106725323120342  0.2049054650697944  0.3183052941187435
  0.2329256078981163  0.2176969619720650  0.3546434791305583
  0.1884181723692310  0.2176975945292307  0.3546424643169230
  0.1661639161181877  0.2304898206928713  0.3909840619602819
  0.2329243871307693  0.2432819501523076  0.4273212321584612
  0.1884289659935011  0.2947415267136033  0.3546434791305583
  0.1439215304646157  0.2947421592707692  0.3546424643169230
  0.1661758904074186  0.2819500298113328  0.3183052941187435
  0.1661718892285705  0.2562225807074089  0.3546442275038309
  0.2106821051689569  0.3075343854344097  0.3909840619602819
  0.1439095561753852  0.2432819501523076  0.4273212321584612
  0.1884277452261542  0.3203265148938463  0.4273212321584612
  0.1661599149393392  0.2047623715889473  0.4273229953453694
  0.1884169917042702  0.2432813175951419  0.4273222469720970
  0.2106661297008779  0.2303467272120242  0.5000017631869077
  0.2551747458947239  0.2047623715889473  0.4273229953453694
  0.2106701308797260  0.2560741763159482  0.4636628298018202
  0.1439083755104240  0.2688656732182189  0.5000010148136353
  0.1439203497996549  0.3203258823366804  0.4273222469720970
  0.1661734889751109  0.3331187410574866  0.4636628298018202
  0.1661694877962628  0.3073912919535627  0.5000017631869077
  0.1884157709369233  0.2688663057753846  0.5000000000000000
  0.2329232064658085  0.2688656732182189  0.5000010148136353
  0.2329351807550394  0.3203258823366804  0.4273222469720970
  0.2551547984951111  0.1275694024559483  0.5363415976433590
  0.2329004385523079  0.1403615319153846  0.5726787678415384
  0.1438964012211935  0.2174054640997573  0.5726797826551737
  0.1884037966476932  0.2174060966569231  0.5726787678415384
  0.2106541554116474  0.1788865180935627  0.5726805310284461
  0.2106581565904955  0.2046139671974868  0.5363415976433590
  0.2329112321765780  0.2174054640997573  0.5726797826551737
  0.2328992578873471  0.1659452549812959  0.6453585504967121
  0.2551603701731857  0.2044708737166397  0.6453592988699849
  0.2551523970628029  0.1787381137021022  0.6816991333264355
  0.1661495403966490  0.2301983228205637  0.6090203654848974
  0.1661575135070319  0.2559310828351013  0.5726805310284461
  0.2551723444624167  0.2559310828351013  0.5726805310284461
  0.2551643713520338  0.2301983228205637  0.6090203654848974
  0.1661615146858800  0.2816585319390252  0.5363415976433590
  0.1884145902719625  0.2944500288412958  0.5726797826551737
  0.1439071547430772  0.2944506613984615  0.5726787678415384
  0.2106677294474183  0.3072428875621022  0.6090203654848974
  0.2106757025578011  0.3329756475766397  0.5726805310284461
  0.2329219856984625  0.2944506613984615  0.5726787678415384
  0.2551763456412647  0.2816585319390252  0.5363415976433590
  0.1884026159827316  0.2429898197228342  0.6453585504967121
  0.1884013952153850  0.2685748079030769  0.7180363035246153
  0.1661591132535722  0.3328272431851790  0.6816991333264355
  0.1884133695046155  0.3200350170215385  0.6453575356830770
  0.1439059740781164  0.3200343844643729  0.6453585504967121
  0.2106557551581878  0.2557826784436406  0.6816991333264355
  0.2329100114092311  0.2429904522800000  0.6453575356830770
  0.2106637282685706  0.2815154384581781  0.6453592988699849
  0.2551739442089570  0.3328272431851790  0.6816991333264355
  0.2329208050335012  0.3200343844643729  0.6453585504967121
  0.2774210290353853  0.1662373854107692  0.4273212321584612
  0.2996753889781876  0.1534452559513330  0.3909840619602819
  0.3219284645642701  0.1662367528536036  0.4273222469720970
  0.2774222498027318  0.1406523972305266  0.3546434791305583
  0.2996713877993395  0.1277178068474089  0.4273229953453694
  0.2996634146889571  0.1019850468328713  0.4636628298018202
  0.3886782456443414  0.1019850468328713  0.4636628298018202
  0.3219164902750396  0.1147765437351420  0.5000010148136353
  0.2774090547461540  0.1147771762923077  0.5000000000000000
  0.4109313212304244  0.1147765437351420  0.5000010148136353
  0.3664238857015387  0.1147771762923077  0.5000000000000000
  0.3441776025608787  0.1533021624704858  0.5000017631869077
  0.3441816037397263  0.1790296115744099  0.4636628298018202
  0.2774198483704240  0.1918211084766805  0.5000010148136353
  0.3664346793258089  0.1918211084766805  0.5000010148136353
  0.3219272437969232  0.1918217410338462  0.5000000000000000
  0.2774318226596545  0.2432813175951419  0.4273222469720970
  0.2551787470735725  0.2304898206928713  0.3909840619602819
  0.2996849618351108  0.2560741763159482  0.4636628298018202
  0.2551883199304952  0.3331187410574866  0.4636628298018202
  0.3219380374211933  0.2688656732182189  0.5000010148136353
  0.2774306018923081  0.2688663057753846  0.5000000000000000
  0.2996809606562627  0.2303467272120242  0.5000017631869077
  0.3441696294504954  0.1275694024559483  0.5363415976433590
  0.3441656282716473  0.1018419533520244  0.5726805310284461
  0.2774078740811932  0.1403608993582189  0.5726797826551737
  0.3219152695076927  0.1403615319153846  0.5726787678415384
  0.2996610132566489  0.1531537580790254  0.6090203654848974
  0.2996689863670318  0.1788865180935627  0.5726805310284461
  0.3664227050365779  0.1403608993582189  0.5726797826551737
  0.3886838173224165  0.1788865180935627  0.5726805310284461
  0.3886758442120337  0.1531537580790254  0.6090203654848974
  0.4109301004630770  0.1403615319153846  0.5726787678415384
  0.4776906751674185  0.1531537580790254  0.6090203654848974
  0.4331844604058802  0.1275694024559483  0.5363415976433590
  0.4554375359919627  0.1403608993582189  0.5726797826551737
  0.4331804592270321  0.1018419533520244  0.5726805310284461
  0.3219260631319624  0.2174054640997573  0.5726797826551737
  0.2996729875458803  0.2046139671974868  0.5363415976433590
  0.2774186276030776  0.2174060966569231  0.5726787678415384
  0.2774294212273473  0.2944500288412958  0.5726797826551737
  0.2996905335131859  0.3329756475766397  0.5726805310284461
  0.2996825604028031  0.3072428875621022  0.6090203654848974
  0.3219368166538463  0.2944506613984615  0.5726787678415384
  0.3441871754178014  0.2559310828351013  0.5726805310284461
  0.3441792023074186  0.2301983228205637  0.6090203654848974
  0.3441911765966495  0.2816585319390252  0.5363415976433590
  0.3664442521827316  0.2944500288412958  0.5726797826551737
  0.4331940332628029  0.2301983228205637  0.6090203654848974
  0.3886973913581878  0.3072428875621022  0.6090203654848974
  0.3886878185012646  0.2046139671974868  0.5363415976433590
  0.2996570120778013  0.1274263089751012  0.6453592988699849
  0.3886638699228028  0.1016935489605636  0.6816991333264355
  0.3219140888427314  0.1659452549812959  0.6453585504967121
  0.2774066533138466  0.1659458875384615  0.6453575356830770
  0.3219128680753849  0.1915302431615384  0.7180363035246153
  0.3441672280181877  0.1787381137021022  0.6816991333264355
  0.3441752011285705  0.2044708737166397  0.6453592988699849
  0.3664214842692310  0.1659458875384615  0.6453575356830770
  0.2774174469381163  0.2429898197228342  0.6453585504967121
  0.2996705861135730  0.2557826784436406  0.6816991333264355
  0.3219248423646154  0.2429904522800000  0.6453575356830770
  0.3664322778935011  0.2429898197228342  0.6453585504967121
  0.3664310571261541  0.2685748079030769  0.7180363035246153
  0.2774162261707694  0.2685748079030769  0.7180363035246153
  0.2774282004600003  0.3200350170215385  0.6453575356830770
  0.2996785592239550  0.2815154384581781  0.6453592988699849
  0.3219356359888856  0.3200343844643729  0.6453585504967121
  0.3664430314153846  0.3200350170215385  0.6453575356830770
  0.3441887751643422  0.3328272431851790  0.6816991333264355
  0.4109289197981162  0.1659452549812959  0.6453585504967121
  0.4554363152246158  0.1659458875384615  0.6453575356830770
  0.3886718430331856  0.1274263089751012  0.6453592988699849
  0.4331820589735724  0.1787381137021022  0.6816991333264355
  0.4554243409353848  0.1144856784199999  0.7180363035246153
  0.4776787008781875  0.1016935489605636  0.6816991333264355
  0.4776866739885704  0.1274263089751012  0.6453592988699849
  0.4999437507535010  0.1659452549812959  0.6453585504967121
  0.5666935318335723  0.1016935489605636  0.6816991333264355
  0.5221968899289572  0.1787381137021022  0.6816991333264355
  0.5444391718907692  0.1144856784199999  0.7180363035246153
  0.4109396733200002  0.2429904522800000  0.6453575356830770
  0.4109276990307697  0.1915302431615384  0.7180363035246153
  0.4331900320839548  0.2044708737166397  0.6453592988699849
  0.4554471088488855  0.2429898197228342  0.6453585504967121
  0.4999425299861540  0.1915302431615384  0.7180363035246153
  0.3886933901793397  0.2815154384581781  0.6453592988699849
  0.4109504669442703  0.3200343844643729  0.6453585504967121
  0.4777002480243416  0.2557826784436406  0.6816991333264355
  0.4332036061197261  0.3328272431851790  0.6816991333264355
  0.4554458880815389  0.2685748079030769  0.7180363035246153
  0.3886854170689569  0.2557826784436406  0.6816991333264355
  0.1216792485028033  0.3589945945528715  0.3183052941187435
  0.0771706323089570  0.3845789501759484  0.3909840619602819
  0.0771786054193397  0.4103117101904857  0.3546442275038309
  0.0994248885599999  0.3717867240123076  0.3546424643169230
  0.1661854632643418  0.3845789501759484  0.3909840619602819
  0.0994356821842700  0.4488306561966802  0.3546434791305583
  0.1216888213597263  0.4616235149174868  0.3909840619602819
  0.0771921794551111  0.5386680796590251  0.3909840619602819
  0.0771666311301090  0.3588515010720241  0.4273229953453694
  0.0994237078950396  0.3973704470782190  0.4273222469720970
  0.1216768470704953  0.4101633057990252  0.4636628298018202
  0.0994117336058088  0.3459102379597575  0.5000010148136353
  0.0549150917011931  0.4229548027012959  0.5000010148136353
  0.0994224871276926  0.4229554352584615  0.5000000000000000
  0.1216728458916473  0.3844358566951011  0.5000017631869077
  0.1216648727812646  0.3587030966805638  0.5363415976433590
  0.0771881782762628  0.5129406305551011  0.4273229953453694
  0.0549270659904242  0.4744150118197574  0.4273222469720970
  0.1216848201808782  0.4358960658135627  0.4273229953453694
  0.0994344614169237  0.4744156443769230  0.4273212321584612
  0.0771802051658800  0.4872078705405636  0.4636628298018202
  0.0771762039870319  0.4614804214366396  0.5000017631869077
  0.0549258452230768  0.5000000000000000  0.5000000000000000
  0.0771682308766491  0.4357476614221023  0.5363415976433590
  0.0994332807519625  0.4999993674428342  0.5000010148136353
  0.1216864199274183  0.5127922261636406  0.5363415976433590
  0.0994105128384617  0.3714952261400000  0.5726787678415384
  0.0771642296978012  0.4100202123181780  0.5726805310284461
  0.0771562565874184  0.3842874523036408  0.6090203654848974
  0.1439167276000002  0.3970795817630769  0.6453575356830770
  0.0994093321735009  0.3970789492059112  0.6453585504967121
  0.1216624713489569  0.4098718079267176  0.6816991333264355
  0.1439047533107695  0.3456193726446152  0.7180363035246153
  0.0994213064627320  0.4485391583243727  0.5726797826551737
  0.1216824187485704  0.4870647770597167  0.5726805310284461
  0.0549138709338461  0.4485397908815383  0.5726787678415384
  0.1216744456381876  0.4613320170451792  0.6090203654848974
  0.0994200856953846  0.4741241465046153  0.6453575356830770
  0.1216704444593397  0.4356045679412550  0.6453592988699849
  0.0771738025547240  0.5126491326827936  0.6453592988699849
  0.0771658294443416  0.4869163726682560  0.6816991333264355
  0.1216943930378011  0.5385249861781780  0.5000017631869077
  0.0549378195123080  0.5514602091184616  0.4273212321584612
  0.0994452550411932  0.5514595765612959  0.4273222469720970
  0.1216983942166494  0.5642524352821020  0.4636628298018202
  0.0549366388473472  0.5770439321843727  0.5000010148136353
  0.0994440342738463  0.5770445647415384  0.5000000000000000
  0.0771977511331858  0.6155695509197164  0.5000017631869077
  0.0994548278981166  0.6540884969259113  0.5000010148136353
  0.0772017523120341  0.6412970000236404  0.4636628298018202
  0.0549246645581167  0.5255837230659112  0.5726797826551737
  0.0771857768439551  0.5641093418012550  0.5726805310284461
  0.0771897780228034  0.5898367909051790  0.5363415976433590
  0.0994428536088857  0.6026282878074496  0.5726797826551737
  0.0994320599846156  0.5255843556230769  0.5726787678415384
  0.0994536071307695  0.6796734851061539  0.5726787678415384
  0.1217039658947241  0.6411539065427935  0.5726805310284461
  0.1217079670735722  0.6668813556467176  0.5363415976433590
  0.0771778037335723  0.5383765817867175  0.6090203654848974
  0.0994308793196546  0.5511680786889882  0.6453585504967121
  0.1216919916054936  0.5896936974243321  0.6453592988699849
  0.1216840184951108  0.5639609374097944  0.6816991333264355
  0.1216959927843417  0.6154211465282561  0.6090203654848974
  0.0994416328415388  0.6282132759876922  0.6453575356830770
  0.1439191290323082  0.3459108705169231  0.5000000000000000
  0.1884373180830769  0.4229554352584615  0.5000000000000000
  0.1661814620854933  0.3588515010720241  0.4273229953453694
  0.1884385388504239  0.3973704470782190  0.4273222469720970
  0.1439299226565779  0.4229548027012959  0.5000010148136353
  0.1884265645611934  0.3459102379597575  0.5000010148136353
  0.2106797037366492  0.3587030966805638  0.5363415976433590
  0.1439179483673474  0.3714945935828344  0.5726797826551737
  0.1884253437938465  0.3714952261400000  0.5726787678415384
  0.1661790606531856  0.4100202123181780  0.5726805310284461
  0.1439287018892307  0.4485397908815383  0.5726787678415384
  0.1661830618320336  0.4357476614221023  0.5363415976433590
  0.1884361374181162  0.4485391583243727  0.5726797826551737
  0.2774413955165782  0.3459102379597575  0.5000010148136353
  0.2329447536119626  0.4229548027012959  0.5000010148136353
  0.2329339599876925  0.3459108705169231  0.5000000000000000
  0.2106916780258797  0.4101633057990252  0.4636628298018202
  0.2106876768470320  0.3844358566951011  0.5000017631869077
  0.2551978927874184  0.4357476614221023  0.5363415976433590
  0.2996945346920339  0.3587030966805638  0.5363415976433590
  0.2551938916085703  0.4100202123181780  0.5726805310284461
  0.2329435328446157  0.4485397908815383  0.5726787678415384
  0.2329327793227322  0.3714945935828344  0.5726797826551737
  0.2774401747492312  0.3714952261400000  0.5726787678415384
  0.2774509683735009  0.4485391583243727  0.5726797826551737
  0.3219476102781169  0.3714945935828344  0.5726797826551737
  0.1661710875428032  0.3842874523036408  0.6090203654848974
  0.1661670863639555  0.3585600031997166  0.6453592988699849
  0.1884241631288857  0.3970789492059112  0.6453585504967121
  0.2106852754147247  0.4356045679412550  0.6453592988699849
  0.2329315585553847  0.3970795817630769  0.6453575356830770
  0.2551819173193399  0.3585600031997166  0.6453592988699849
  0.2551859184981879  0.3842874523036408  0.6090203654848974
  0.1884229423615387  0.4226639373861538  0.7180363035246153
  0.2106773023043415  0.4098718079267176  0.6816991333264355
  0.2329195842661543  0.3456193726446152  0.7180363035246153
  0.2774389940842700  0.3970789492059112  0.6453585504967121
  0.3219344152215386  0.3456193726446152  0.7180363035246153
  0.3219463895107695  0.3970795817630769  0.6453575356830770
  0.2996921332597262  0.4098718079267176  0.6816991333264355
  0.2774377733169230  0.4226639373861538  0.7180363035246153
  0.2997001063701091  0.4356045679412550  0.6453592988699849
  0.3887069642151114  0.4098718079267176  0.6816991333264355
  0.3664538250396548  0.3970789492059112  0.6453585504967121
  0.3441967482747246  0.3585600031997166  0.6453592988699849
  0.3442007494535723  0.3842874523036408  0.6090203654848974
  0.3664526042723078  0.4226639373861538  0.7180363035246153
  0.4109492461769234  0.3456193726446152  0.7180363035246153
  0.1884468909400001  0.5255843556230769  0.5726787678415384
  0.1661950361212645  0.4872078705405636  0.4636628298018202
  0.1884481117073471  0.4999993674428342  0.5000010148136353
  0.1661910349424165  0.4614804214366396  0.5000017631869077
  0.2107012508828028  0.5127922261636406  0.5363415976433590
  0.1439406761784618  0.5000000000000000  0.5000000000000000
  0.1439418969458088  0.4744150118197574  0.4273222469720970
  0.1439394955135013  0.5255837230659112  0.5726797826551737
  0.1884349166507696  0.4741241465046153  0.6453575356830770
  0.2106892765935724  0.4613320170451792  0.6090203654848974
  0.2106972497039548  0.4870647770597167  0.5726805310284461
  0.2329543264688854  0.5255837230659112  0.5726797826551737
  0.2774497476061540  0.4741241465046153  0.6453575356830770
  0.2997041075489572  0.4613320170451792  0.6090203654848974
  0.1439514698027322  0.5770439321843727  0.5000010148136353
  0.1662006077993397  0.5641093418012550  0.5726805310284461
  0.1661926346889568  0.5383765817867175  0.6090203654848974
  0.2552074656443416  0.5383765817867175  0.6090203654848974
  0.2329531057015388  0.5511687112461540  0.6453575356830770
  0.1439382747461536  0.5511687112461540  0.6453575356830770
  0.1662046089781877  0.5898367909051790  0.5363415976433590
  0.1439502490353852  0.6026289203646152  0.5726787678415384
  0.1884576845642707  0.6026282878074496  0.5726797826551737
  0.2107108237397260  0.6154211465282561  0.6090203654848974
  0.1439598218923080  0.7052578407292307  0.6453575356830770
  0.1884564637969233  0.6282132759876922  0.6453575356830770
  0.1439610426596551  0.6796728525489882  0.5726797826551737
  0.1662141818351105  0.6924657112697945  0.6090203654848974
  0.2329423521796544  0.4741235139474497  0.6453585504967121
  0.1661806603997268  0.4869163726682560  0.6816991333264355
  0.1439275212242699  0.4741235139474497  0.6453585504967121
  0.2329411314123079  0.4997085021276922  0.7180363035246153
  0.1439263004569232  0.4997085021276922  0.7180363035246153
  0.1661886335101087  0.5126491326827936  0.6453592988699849
  0.1884457102750393  0.5511680786889882  0.6453585504967121
  0.2552034644654935  0.5126491326827936  0.6453592988699849
  0.2551954913551115  0.4869163726682560  0.6816991333264355
  0.2774605412304237  0.5511680786889882  0.6453585504967121
  0.3219559623676927  0.4997085021276922  0.7180363035246153
  0.3442103223104954  0.4869163726682560  0.6816991333264355
  0.3219571831350392  0.4741235139474497  0.6453585504967121
  0.2106988494504956  0.5639609374097944  0.6816991333264355
  0.1884444895076928  0.5767530668692308  0.7180363035246153
  0.1439490683704240  0.6282126434305266  0.6453585504967121
  0.1662101806562628  0.6667382621658704  0.6453592988699849
  0.1884672574211934  0.7052572081720651  0.6453585504967121
  0.1662022075458800  0.6410055021513330  0.6816991333264355
  0.2997136804058803  0.5639609374097944  0.6816991333264355
  0.2107068225608780  0.5896936974243321  0.6453592988699849
  0.2774593204630771  0.5767530668692308  0.7180363035246153
  0.2329638993258085  0.6282126434305266  0.6453585504967121
  0.2552170385012648  0.6410055021513330  0.6816991333264355
  0.2329626785584620  0.6537976316107691  0.7180363035246153
  0.1884660366538465  0.7308421963523076  0.7180363035246153
  0.2107203965966492  0.7180500668928713  0.6816991333264355
  0.6334647964704241  0.1915296106043727  0.7180373183382509
  0.6779710112319624  0.2171139662274496  0.7907160861797893
  0.6779829855211933  0.2685741753459112  0.7180373183382509
  0.7002321235178014  0.2556395849627934  0.7907168345530616
  0.8337691447028035  0.3584115988082560  0.7543779011679743
  0.7002440978070319  0.3070997940812550  0.7180380667115233
  0.7670193636227317  0.4226633048289881  0.7180373183382509
  0.8782873337535727  0.4354561635497943  0.7543779011679743
  0.8337986649593395  0.5382334883058703  0.7180380667115233
  0.7669978164765781  0.2685741753459112  0.7180373183382509
  0.7892589287624167  0.3070997940812550  0.7180380667115233
  0.9005523836288857  0.4997078695705267  0.7180373183382509
  0.8782953068639551  0.4611889235643319  0.7180380667115233
  0.1216720442058799  0.5125007282913330  0.7543779011679743
  0.2106964480181878  0.6151296486559483  0.8270566690095129
  0.2106749008720333  0.4610405191728714  0.8270566690095129
  0.0994189050304241  0.4997078695705267  0.7180373183382509
  0.1439251197919624  0.5252922251936035  0.7907160861797893
  0.2551930899228029  0.5380850839144100  0.8270566690095129
  0.3442174937351109  0.6407140042790250  0.8997354368510513
  0.2106653280151110  0.3584115988082560  0.7543779011679743
  0.2996777575381875  0.4095803100544098  0.8997354368510513
  0.1884109680723078  0.3712037282676924  0.7907150713661539
  0.1884217616965779  0.4482476604520649  0.7907160861797893
  0.1661646849316469  0.4097287144458704  0.7907168345530616
  0.2329279764581162  0.4738320160751420  0.8633948540213277
  0.3441959465889568  0.4866248747959482  0.8997354368510513
  0.1884337359858088  0.4997078695705267  0.7180373183382509
  0.1661766592208783  0.4611889235643319  0.7180380667115233
  0.2329291571230770  0.4482482930092307  0.7907150713661539
  0.3442079208781877  0.5380850839144100  0.8270566690095129
  0.2774353718846158  0.4738326486323077  0.8633938392076923
  0.2774461655088855  0.5508765808166805  0.8633948540213277
  0.3442198951674186  0.5895452930328713  0.7543779011679743
  0.2774473461738463  0.5252928577507692  0.7907150713661539
  0.2774581397981164  0.6023367899351419  0.7907160861797893
  0.4332323246904957  0.6407140042790250  0.8997354368510513
  0.2997072777947245  0.5894021995520241  0.8633956023946002
  0.1439370940811933  0.5767524343120650  0.7180373183382509
  0.4999748707565779  0.4226633048289881  0.7180373183382509
  0.6112428408874184  0.4354561635497943  0.7543779011679743
  0.4777177939916473  0.3841443588227934  0.7180380667115233
  0.5444702918938464  0.3712037282676924  0.7907150713661539
  0.5222240087531860  0.4097287144458704  0.7907168345530616
  0.7002552704104954  0.4866248747959482  0.8997354368510513
  0.5667302235147242  0.4353130700689472  0.8633956023946002
  0.5889884809446156  0.4482482930092307  0.7907150713661539
  0.5889992745688858  0.5252922251936035  0.7907160861797893
  0.5667421978039552  0.4867732791874088  0.7907168345530616
  0.5890112488581163  0.5767524343120650  0.7180373183382509
  0.7002792189889573  0.5895452930328713  0.7543779011679743
  0.5667541720931857  0.5382334883058703  0.7180380667115233
  0.6112603868547244  0.5638178439289474  0.7907168345530616
  0.6780236783811933  0.6279211455582189  0.8633948540213277
  0.6557666016162628  0.5894021995520241  0.8633956023946002
  0.4331780577947243  0.1530106645981781  0.7180380667115233
  0.4999413493211933  0.2171139662274496  0.7907160861797893
  0.6112093194520338  0.2299068249482560  0.8270566690095129
  0.4776842725562631  0.1785950202212550  0.7907168345530616
  0.4999533236104242  0.2685741753459112  0.7180373183382509
  0.6112212937412648  0.2813670340667176  0.7543779011679743
  0.5889549595092310  0.2426989544076923  0.8633938392076923
  0.5889657531335007  0.3197428865920651  0.8633948540213277
  0.5667086763685706  0.2812239405858705  0.8633956023946002
  0.5889669337984620  0.2941591635261538  0.7907150713661539
  0.5889777274227317  0.3712030957105266  0.7907160861797893
  0.7002456975535727  0.3839959544313329  0.8270566690095129
  0.5667206506578015  0.3326841497043319  0.7907168345530616
  0.5889897017119626  0.4226633048289881  0.7180373183382509
  0.7002576718428032  0.4354561635497943  0.7543779011679743
  0.5667326249470320  0.3841443588227934  0.7180380667115233
  0.6779913376107695  0.3967880838907691  0.8633938392076923
  0.6780033119000004  0.4482482930092307  0.7907150713661539
  0.7225095266615388  0.4738326486323077  0.8633938392076923
  0.6780260798135010  0.5767524343120650  0.7180373183382509
  0.7892940499443416  0.5895452930328713  0.7543779011679743
  0.6557690030485700  0.5382334883058703  0.7180380667115233
  0.7225215009507696  0.5252928577507692  0.7907150713661539
  0.7002752178101087  0.5638178439289474  0.7907168345530616
  0.7670277157123075  0.5508772133738461  0.8633938392076923
  0.7447814325716471  0.5894021995520241  0.8633956023946002
  0.6557179356458803  0.2043224693251790  0.7543779011679743
  0.5889561802765780  0.2171139662274496  0.7907160861797893
  0.5666991035116474  0.1785950202212550  0.7907168345530616
  0.5889681545658090  0.2685741753459112  0.7180373183382509
  0.7002361246966495  0.2813670340667176  0.7543779011679743
  0.5667110778008784  0.2300552293397166  0.7180380667115233
  0.6779805840888855  0.3197428865920651  0.8633948540213277
  0.6557235073239553  0.2812239405858705  0.8633956023946002
  0.6779817647538467  0.2941591635261538  0.7907150713661539
  0.6779925583781164  0.3712030957105266  0.7907160861797893
  0.6557354816131858  0.3326841497043319  0.7907168345530616
  0.6780045326673474  0.4226633048289881  0.7180373183382509
  0.7892725027981879  0.4354561635497943  0.7543779011679743
  0.6557474559024168  0.3841443588227934  0.7180380667115233
  0.7447598854254934  0.4353130700689472  0.8633956023946002
  0.7670181428553847  0.4482482930092307  0.7907150713661539
  0.7447718597147243  0.4867732791874088  0.7907168345530616
  0.7670409107688858  0.5767524343120650  0.7180373183382509
  0.7447838340039548  0.5382334883058703  0.7180380667115233
  0.5889765066553847  0.3967880838907691  0.8633938392076923
  0.2996681846812648  0.3069513896897945  0.8270566690095129
  0.2996801589704953  0.3584115988082560  0.7543779011679743
  0.2329076099769238  0.2941591635261538  0.7907150713661539
  0.2329184036011930  0.3712030957105266  0.7907160861797893
  0.2106613268362629  0.3326841497043319  0.7907168345530616
  0.2551675415978012  0.3582685053274088  0.8633956023946002
  0.2329303778904240  0.4226633048289881  0.7180373183382509
  0.2106733011254934  0.3841443588227934  0.7180380667115233
  0.3219428074135010  0.4738320160751420  0.8633948540213277
  0.4332107775443416  0.4866248747959482  0.8997354368510513
  0.2774485669411932  0.4997078695705267  0.7180373183382509
  0.4109564176015388  0.4994170042553845  0.9360726070492307
  0.4109672112258090  0.5764609364397574  0.9360736218628662
  0.3887101344608784  0.5379419904335626  0.9360743702361386
  0.4332347261228034  0.5895452930328713  0.7543779011679743
  0.2997096792270318  0.5382334883058703  0.7180380667115233
  0.3664729707535007  0.6023367899351419  0.7907160861797893
  0.4109791855150394  0.6279211455582189  0.8633948540213277
  0.3887221087501084  0.5894021995520241  0.8633956023946002
  0.3441648265858799  0.2299068249482560  0.8270566690095129
  0.3441768008751108  0.2813670340667176  0.7543779011679743
  0.3886830156366491  0.3069513896897945  0.8270566690095129
  0.3886949899258801  0.3584115988082560  0.7543779011679743
  0.3219224409323081  0.2941591635261538  0.7907150713661539
  0.2996761577916472  0.3326841497043319  0.7907168345530616
  0.3664394493181166  0.3967874513336036  0.8633948540213277
  0.3441823725531860  0.3582685053274088  0.8633956023946002
  0.4109456640796549  0.4223718069566806  0.9360736218628662
  0.4332131789766493  0.4354561635497943  0.7543779011679743
  0.2996881320808781  0.3841443588227934  0.7180380667115233
  0.3664514236073471  0.4482476604520649  0.7907160861797893
  0.3887005616039552  0.4353130700689472  0.8633956023946002
  0.4554638531304241  0.4994163716982190  0.9360736218628662
  0.4777313680274185  0.5125007282913330  0.7543779011679743
  0.4109588190338466  0.4482482930092307  0.7907150713661539
  0.5222375827889573  0.5380850839144100  0.8270566690095129
  0.4554650337953848  0.4738326486323077  0.8633938392076923
  0.4554758274196550  0.5508765808166805  0.8633948540213277
  0.4777249654162631  0.5379419904335626  0.9360743702361386
  0.5222495570781878  0.5895452930328713  0.7543779011679743
  0.4554770080846158  0.5252928577507692  0.7907150713661539
  0.4554878017088855  0.6023367899351419  0.7907160861797893
  0.5667557718397260  0.6151296486559483  0.8270566690095129
  0.4332307249439549  0.5638178439289474  0.7907168345530616
  0.6112619866012647  0.6407140042790250  0.8997354368510513
  0.3219116874104241  0.2171139662274496  0.7907160861797893
  0.4331796575412647  0.2299068249482560  0.8270566690095129
  0.3219236616996546  0.2685741753459112  0.7180373183382509
  0.3664190828369236  0.2171145987846154  0.7907150713661539
  0.4109360912227317  0.3197428865920651  0.8633948540213277
  0.5222040613535722  0.3325357453128713  0.8997354368510513
  0.4109372718876929  0.2941591635261538  0.7907150713661539
  0.4109480655119626  0.3712030957105266  0.7907160861797893
  0.4109600398011931  0.4226633048289881  0.7180373183382509
  0.5222280099320341  0.4354561635497943  0.7543779011679743
  0.3887029630362624  0.3841443588227934  0.7180380667115233
  0.4332091777978012  0.4097287144458704  0.7907168345530616
  0.4999724693242701  0.4738320160751420  0.8633948540213277
  0.4777153925593395  0.4353130700689472  0.8633956023946002
  0.4999736499892313  0.4482482930092307  0.7907150713661539
  0.4999844436135010  0.5252922251936035  0.7907160861797893
  0.6557586285058803  0.5636694395374866  0.8997354368510513
  0.5222335816101091  0.5123576348104857  0.8633956023946002
  0.5889968731365781  0.5764609364397574  0.9360736218628662
  0.5667397963716475  0.5379419904335626  0.9360743702361386
  0.6112643880335725  0.5895452930328713  0.7543779011679743
  0.5890088474258085  0.6279211455582189  0.8633948540213277
  0.5221944884966495  0.2299068249482560  0.8270566690095129
  0.3886694416008783  0.1785950202212550  0.7907168345530616
  0.5222064627858799  0.2813670340667176  0.7543779011679743
  0.4554447074165782  0.2941585309689883  0.7907160861797893
  0.4999401285538463  0.2426989544076923  0.8633938392076923
  0.6112188923089570  0.3325357453128713  0.8997354368510513
  0.4999521028430772  0.2941591635261538  0.7907150713661539
  0.6112308665981879  0.3839959544313329  0.8270566690095129
  0.5444583176046155  0.3197435191492308  0.8633938392076923
  0.6557370813597262  0.4095803100544098  0.8997354368510513
  0.8783168540101092  0.6152780530474089  0.7180380667115233
  0.1661982063670319  0.6152780530474089  0.7180380667115233
  0.3442294680243418  0.6921742133974867  0.8270566690095129
  0.2107044211285702  0.6408624086704857  0.7907168345530616
  0.2774569190307690  0.6279217781153847  0.8633938392076923
  0.3442414423135723  0.7436344225159482  0.7543779011679743
  0.2774688933200004  0.6793819872338461  0.7907150713661539
  0.2774916612335009  0.8078861285366803  0.7180373183382509
  0.3219870823707696  0.7564265519753846  0.7907150713661539
  0.2997407992301091  0.7949515381535627  0.7907168345530616
  0.2997527735193396  0.8464117472720242  0.7180380667115233
  0.2552130373224167  0.6152780530474089  0.7180380667115233
  0.4332442989797262  0.6921742133974867  0.8270566690095129
  0.2997192520839550  0.6408624086704857  0.7907168345530616
  0.3664825436104239  0.7049657102997574  0.8633948540213277
  0.4332562732689570  0.7436344225159482  0.7543779011679743
  0.2997312263731859  0.6923226177889472  0.7180380667115233
  0.3664837242753851  0.6793819872338461  0.7907150713661539
  0.4109899390369234  0.7049663428569231  0.8633938392076923
  0.3887436558962630  0.7434913290351012  0.8633956023946002
  0.3665064921888858  0.8078861285366803  0.7180373183382509
  0.4110019133261543  0.7564265519753846  0.7907150713661539
  0.4110127069504240  0.8334704841597572  0.7907160861797893
  0.3887556301854934  0.7949515381535627  0.7907168345530616
  0.3887676044747244  0.8464117472720242  0.7180380667115233
  0.2774701140873473  0.6537969990536033  0.7180373183382509
  0.3664717499861542  0.6279217781153847  0.8633938392076923
  0.2107084223074187  0.6665898577744099  0.7543779011679743
  0.2552146370689570  0.6921742133974867  0.8270566690095129
  0.2552266113581875  0.7436344225159482  0.7543779011679743
  0.4109911598042699  0.6793813546766805  0.7907160861797893
  0.5222591299351109  0.6921742133974867  0.8270566690095129
  0.4554865809415385  0.6279217781153847  0.8633938392076923
  0.5667653446966492  0.7177585690205637  0.8997354368510513
  0.7002871920993397  0.6152780530474089  0.7180380667115233
  0.7670396900015388  0.6023374224923076  0.7907150713661539
  0.7670504836258085  0.6793813546766805  0.7907160861797893
  0.7670624579150395  0.7308415637951420  0.7180373183382509
  0.7893020230547240  0.6152780530474089  0.7180380667115233
  0.8338202121054936  0.6923226177889472  0.7180380667115233
  0.4554973745658087  0.7049657102997574  0.8633948540213277
  0.4110031340935009  0.7308415637951420  0.7180373183382509
  0.5667892932751106  0.8206789872574867  0.7543779011679743
  0.4332642463793395  0.7693671825304859  0.7180380667115233
  0.5000275379058083  0.8334704841597572  0.7907160861797893
  0.4777704611408782  0.7949515381535627  0.7907168345530616
  0.5000395121950393  0.8849306932782189  0.7180373183382509
  0.5445349333323083  0.8334711167169231  0.7907150713661539
  0.4554997759981164  0.6537969990536033  0.7180373183382509
  0.5667677461289570  0.6665898577744099  0.7543779011679743
  0.5445133861861542  0.6793819872338461  0.7907150713661539
  0.5890196009476925  0.7049663428569231  0.8633938392076923
  0.5445361540996548  0.8078861285366803  0.7180373183382509
  0.6558041242304954  0.8206789872574867  0.7543779011679743
  0.5222790773347242  0.7693671825304859  0.7180380667115233
  0.6557825770843417  0.6665898577744099  0.7543779011679743
  0.5890208217150394  0.6793813546766805  0.7907160861797893
  0.5667637449501088  0.6408624086704857  0.7907168345530616
  0.6112819340008780  0.7179069734120244  0.7907168345530616
  0.7447974080397260  0.6665898577744099  0.7543779011679743
  0.7893155970904953  0.7436344225159482  0.7543779011679743
  0.7225538417211934  0.7564259194182191  0.7907160861797893
  0.7002967649562625  0.7179069734120244  0.7907168345530616
  0.7225658160104235  0.8078861285366803  0.7180373183382509
  0.5889466074196549  0.1144850458628342  0.7180373183382509
  0.4331700846843415  0.1272779045836405  0.7543779011679743
  0.5221849156397262  0.1272779045836405  0.7543779011679743
  0.7670385422088855  0.3206173802089881  0.2092859434474814
  0.7447814654439553  0.2820984342027933  0.2092866918207542
  0.8115339633461540  0.2691578036476922  0.2819636964753846
  0.7892996544947245  0.3591429989443318  0.2092866918207542
  0.8560521523969237  0.3462023683892306  0.2819636964753846
  0.5222376156612650  0.2307813185651791  0.1729477584356666
  0.5667558047120342  0.3078258833067176  0.1729477584356666
  0.4332307578162626  0.2565140785797164  0.1366079239792154
  0.4999832557184618  0.2435734480246154  0.2092849286338461
  0.4999940493427316  0.3206173802089881  0.2092859434474814
  0.4777369725778014  0.2820984342027933  0.2092866918207542
  0.5444894704800002  0.2691578036476922  0.2819636964753846
  0.5667677790012647  0.3592860924251791  0.1002689905941280
  0.5000060236319624  0.3720775893274496  0.1366071756059430
  0.6112739937628034  0.3848704480482560  0.1729477584356666
  0.5445014447692310  0.3206180127661538  0.2092849286338461
  0.6557802085243413  0.4104548036713329  0.2456265262772051
  0.5890076595307694  0.3462023683892306  0.2819636964753846
  0.5444679233338464  0.1150686741646153  0.2819636964753846
  0.4999844764858083  0.2179884598443726  0.1366071756059430
  0.6112524466166493  0.2307813185651791  0.1729477584356666
  0.6557706356674186  0.3078258833067176  0.1729477584356666
  0.7002768504289568  0.3334102389297946  0.2456265262772051
  0.5890208545873472  0.3720775893274496  0.1366071756059430
  0.7002888247181878  0.3848704480482560  0.1729477584356666
  0.5667637778224166  0.3335586433212551  0.1366079239792154
  0.6112699925839550  0.3591429989443318  0.2092866918207542
  0.6335055222027314  0.2435728154674496  0.2092859434474814
  0.6780237112535010  0.3206173802089881  0.2092859434474814
  0.7892916813843416  0.3334102389297946  0.2456265262772051
  0.6780248919184618  0.2950336571430769  0.1366061607923078
  0.6780356855427320  0.3720775893274496  0.1366071756059430
  0.7893036556735730  0.3848704480482560  0.1729477584356666
  0.6557786087778014  0.3335586433212551  0.1366079239792154
  0.3442175266074191  0.3334102389297946  0.2456265262772051
  0.2774449776138462  0.2691578036476922  0.2819636964753846
  0.3442295008966491  0.3848704480482560  0.1729477584356666
  0.2774569519030767  0.3206180127661538  0.2092849286338461
  0.2774677455273473  0.3976619449505266  0.2092859434474814
  0.3887357156581879  0.4104548036713329  0.2456265262772051
  0.2552106687624163  0.3591429989443318  0.2092866918207542
  0.3441959794612645  0.1793211094467174  0.2456265262772051
  0.3442079537504955  0.2307813185651791  0.1729477584356666
  0.2774461983811932  0.2435728154674496  0.2092859434474814
  0.2997073106670318  0.2820984342027933  0.2092866918207542
  0.3664598085692310  0.2691578036476922  0.2819636964753846
  0.2997192849562623  0.3335586433212551  0.1366079239792154
  0.3664717828584610  0.3206180127661538  0.2092849286338461
  0.3664825764827316  0.3976619449505266  0.2092859434474814
  0.4777505466135722  0.4104548036713329  0.2456265262772051
  0.4332108104166493  0.1793211094467174  0.2456265262772051
  0.3664610293365775  0.2435728154674496  0.2092859434474814
  0.4332347589951107  0.2822415276836407  0.1002689905941280
  0.3664730036258089  0.2950330245859112  0.1366071756059430
  0.4777409737566494  0.3078258833067176  0.1729477584356666
  0.4109684247630770  0.2435734480246154  0.2092849286338461
  0.3887221416224166  0.2820984342027933  0.2092866918207542
  0.4554746395246158  0.2691578036476922  0.2819636964753846
  0.4777529480458799  0.3592860924251791  0.1002689905941280
  0.4109803990523080  0.2950336571430769  0.1366061607923078
  0.3887341159116471  0.3335586433212551  0.1366079239792154
  0.4554866138138463  0.3206180127661538  0.2092849286338461
  0.4554974074381164  0.3976619449505266  0.2092859434474814
  0.5667653775689578  0.4104548036713329  0.2456265262772051
  0.4332403306731854  0.3591429989443318  0.2092866918207542
  0.4999928285753846  0.3462023683892306  0.2819636964753846
  0.2552146699412643  0.3848704480482560  0.1729477584356666
  0.1884529145719626  0.3976619449505266  0.2092859434474814
  0.6112859680520339  0.4363306571667174  0.1002689905941280
  0.4777609211562628  0.3850188524397166  0.0639291561376770
  0.6557921828135727  0.4619150127897944  0.1729477584356666
  0.5445253933476929  0.4235384310030768  0.0639273929507692
  0.5222791102070320  0.4620634171812550  0.0639291561376770
  0.5890316081092312  0.4491227866261537  0.1366061607923078
  0.5667853249685703  0.4876477728043318  0.1366079239792154
  0.6335486164950397  0.5517510744336036  0.2092859434474814
  0.6112915397301091  0.5132321284274088  0.2092866918207542
  0.6780440376323082  0.5002914978723076  0.2819636964753846
  0.5890543760227318  0.5776269279289881  0.0639284077644045
  0.6335605907842701  0.6032112835520648  0.1366071756059430
  0.6780668055458089  0.6287956391751420  0.2092859434474814
  0.7003279178316475  0.6673212579104858  0.2092866918207542
  0.7448070137689574  0.4619150127897944  0.1729477584356666
  0.6780452583996548  0.4747065096920651  0.2092859434474814
  0.6335510179273469  0.5005823631874498  0.0639284077644045
  0.6112939411624163  0.4620634171812550  0.0639291561376770
  0.6780464390646159  0.4491227866261537  0.1366061607923078
  0.8338314175812650  0.5645439331544098  0.2456265262772051
  0.7225646281153851  0.5261673513676922  0.1366061607923078
  0.8115770576384618  0.5773360626138461  0.2819636964753846
  0.7448365340254935  0.6417369022874089  0.1366079239792154
  0.8115890319276927  0.6287962717323076  0.2092849286338461
  0.7893427487870323  0.6673212579104858  0.2092866918207542
  0.8560952466892310  0.6543806273553845  0.2819636964753846
  0.7670492957307694  0.3976625775076923  0.2092849286338461
  0.8783280594858801  0.4874993684128713  0.2456265262772051
  0.7448030125901089  0.4361875636858704  0.2092866918207542
  0.8115555104923081  0.4232469331307692  0.2819636964753846
  0.7670720636442704  0.5261667188105267  0.1366071756059430
  0.8338393906916474  0.5902766931689474  0.2092866918207542
  0.1884947880969234  0.7314251920969230  0.2819636964753846
  0.4777960423381868  0.6674643513913328  0.1002689905941280
  0.4110234933446157  0.6032119161092306  0.1366061607923078
  0.4110342869688854  0.6802558482936034  0.1366071756059430
  0.3887772102039548  0.6417369022874089  0.1366079239792154
  0.4555297081061541  0.6287962717323076  0.2092849286338461
  0.5668084718612643  0.7186330626374865  0.2456265262772051
  0.4332834249654932  0.6673212579104858  0.2092866918207542
  0.5668204461504952  0.7700932717559482  0.1729477584356666
  0.4332953992547241  0.7187814670289472  0.1366079239792154
  0.5000478971569233  0.7058408364738463  0.2092849286338461
  0.5000586907811930  0.7828847686582189  0.2092859434474814
  0.5000598714461542  0.7573010455923076  0.1366061607923078
  0.5223198030670316  0.8214103873935626  0.2092866918207542
  0.5890723009692308  0.8084697568384615  0.2819636964753846
  0.4777625209028031  0.4619150127897944  0.1729477584356666
  0.3442374740070315  0.4106032080627934  0.1366079239792154
  0.4109899719092308  0.3976625775076923  0.2092849286338461
  0.4554961866707690  0.4232469331307692  0.2819636964753846
  0.4110019461984621  0.4491227866261537  0.1366061607923078
  0.4110127398227313  0.5261667188105267  0.1366071756059430
  0.5222807099535719  0.5389595775313328  0.1729477584356666
  0.5667869247151106  0.5645439331544098  0.2456265262772051
  0.4110139204876921  0.5005829957446153  0.0639273929507692
  0.5222926842428024  0.5904197866497944  0.1002689905941280
  0.5667988990043415  0.6160041422728713  0.1729477584356666
  0.5445325647723075  0.5773360626138461  0.2819636964753846
  0.4555321095384613  0.5776275604861537  0.0639273929507692
  0.5668108732935716  0.6674643513913328  0.1002689905941280
  0.5000383243000001  0.6032119161092306  0.1366061607923078
  0.5000491179242702  0.6802558482936034  0.1366071756059430
  0.6558233028166490  0.7186330626374865  0.2456265262772051
  0.5222982559208780  0.6673212579104858  0.2092866918207542
  0.5890507538230767  0.6543806273553845  0.2819636964753846
  0.6558352771058800  0.7700932717559482  0.1729477584356666
  0.5223102302101092  0.7187814670289472  0.1366079239792154
  0.5890627281123081  0.7058408364738463  0.2092849286338461
  0.5890735217365778  0.7828847686582189  0.2092859434474814
  0.5890747024015385  0.7573010455923076  0.1366061607923078
  0.6113346340224164  0.8214103873935626  0.2092866918207542
  0.4110031669658090  0.4235377984459112  0.0639284077644045
  0.5222711370966492  0.4363306571667174  0.1002689905941280
  0.4332523049624163  0.4106032080627934  0.1366079239792154
  0.5000048028646155  0.3976625775076923  0.2092849286338461
  0.5000155964888852  0.4747065096920651  0.2092859434474814
  0.5445110176261538  0.4232469331307692  0.2819636964753846
  0.5667893261474184  0.5133752219082559  0.1002689905941280
  0.4332642792516472  0.4620634171812550  0.0639291561376770
  0.5000167771538468  0.4491227866261537  0.1366061607923078
  0.5000275707781161  0.5261667188105267  0.1366071756059430
  0.6112955409089562  0.5389595775313328  0.1729477584356666
  0.4777704940131855  0.4876477728043318  0.1366079239792154
  0.5445229919153847  0.4747071422492306  0.2092849286338461
  0.5222767087747242  0.5132321284274088  0.2092866918207542
  0.5890292066769235  0.5002914978723076  0.2819636964753846
  0.5000287514430769  0.5005829957446153  0.0639273929507692
  0.5000395450673470  0.5776269279289881  0.0639284077644045
  0.6113075151981876  0.5904197866497944  0.1002689905941280
  0.4777824683024164  0.5391079819227935  0.0639291561376770
  0.6558137299597263  0.6160041422728713  0.1729477584356666
  0.5890411809661540  0.5517517069907693  0.2092849286338461
  0.5890519745904237  0.6287956391751420  0.2092859434474814
  0.6335473957276927  0.5773360626138461  0.2819636964753846
  0.5445469404938461  0.5776275604861537  0.0639273929507692
  0.5890531552553848  0.6032119161092306  0.1366061607923078
  0.7448381337720339  0.7186330626374865  0.2456265262772051
  0.6113130868762623  0.6673212579104858  0.2092866918207542
  0.6780655847784615  0.6543806273553845  0.2819636964753846
  0.6335713443061537  0.6802564808507695  0.1366061607923078
  0.6113250611654932  0.7187814670289472  0.1366079239792154
  0.6780775590676924  0.7058408364738463  0.2092849286338461
  0.6780883526919630  0.7828847686582189  0.2092859434474814
  0.7225837738292311  0.7314251920969230  0.2819636964753846
  0.4555189545842701  0.5517510744336036  0.2092859434474814
  0.3887676373470321  0.5391079819227935  0.0639291561376770
  0.5445445390615384  0.6287962717323076  0.2092849286338461
  0.5890639488796550  0.6802558482936034  0.1366071756059430
  0.2552457899443412  0.6415884978959482  0.2456265262772051
  0.2552577642335721  0.6930487070144099  0.1729477584356666
  0.1884852152400002  0.6287962717323076  0.2092849286338461
  0.2997639789951104  0.7186330626374865  0.2456265262772051
  0.2329914300015385  0.6543806273553845  0.2819636964753846
  0.2330034042907694  0.7058408364738463  0.2092849286338461
  0.2775096190523077  0.7314251920969230  0.2819636964753846
  0.2107180280366492  0.4619150127897944  0.1729477584356666
  0.1884516938046156  0.4232469331307692  0.2819636964753846
  0.1884636680938461  0.4747071422492306  0.2092849286338461
  0.2997544061381877  0.6160041422728713  0.1729477584356666
  0.2329926507688859  0.6287956391751420  0.2092859434474814
  0.3887788099504952  0.7186330626374865  0.2456265262772051
  0.3887907842397257  0.7700932717559482  0.1729477584356666
  0.3220182352461542  0.7058408364738463  0.2092849286338461
  0.3220290288704243  0.7828847686582189  0.2092859434474814
  0.3665244500076925  0.7314251920969230  0.2819636964753846
  0.3442901411562625  0.8214103873935626  0.2092866918207542
  0.4110426390584612  0.8084697568384615  0.2819636964753846
  0.2997328589920336  0.4619150127897944  0.1729477584356666
  0.3442510480428024  0.5389595775313328  0.1729477584356666
  0.3219847138107696  0.5002914978723076  0.2819636964753846
  0.3442630223320333  0.5904197866497944  0.1002689905941280
  0.3219966881000000  0.5517517069907693  0.2092849286338461
  0.3220074817242702  0.6287956391751420  0.2092859434474814
  0.2997504049593392  0.5902766931689474  0.2092866918207542
  0.3887812113828025  0.6674643513913328  0.1002689905941280
  0.3220086623892310  0.6032119161092306  0.1366061607923078
  0.3220194560135007  0.6802558482936034  0.1366071756059430
  0.4777936409058799  0.7186330626374865  0.2456265262772051
  0.3442685940101084  0.6673212579104858  0.2092866918207542
  0.4778056151951104  0.7700932717559482  0.1729477584356666
  0.3442805682993397  0.7187814670289472  0.1366079239792154
  0.4110330662015385  0.7058408364738463  0.2092849286338461
  0.4110438598258087  0.7828847686582189  0.2092859434474814
  0.4110450404907694  0.7573010455923076  0.1366061607923078
  0.4333049721116473  0.8214103873935626  0.2092866918207542
  0.5000574700138465  0.8084697568384615  0.2819636964753846
  0.3887476899474183  0.4619150127897944  0.1729477584356666
  0.3219751409538464  0.3976625775076923  0.2092849286338461
  0.3219859345781161  0.4747065096920651  0.2092859434474814
  0.3664813557153847  0.4232469331307692  0.2819636964753846
  0.3887596642366488  0.5133752219082559  0.1002689905941280
  0.3219871152430773  0.4491227866261537  0.1366061607923078
  0.3219979088673475  0.5261667188105267  0.1366071756059430
  0.4332658789981871  0.5389595775313328  0.1729477584356666
  0.4777720937597263  0.5645439331544098  0.2456265262772051
  0.4332778532874180  0.5904197866497944  0.1002689905941280
  0.4777840680489568  0.6160041422728713  0.1729477584356666
  0.4555177338169231  0.5773360626138461  0.2819636964753846
  0.4554399374242704  0.0891921881120650  0.4273222469720970
  0.4331828606593398  0.0506732421058704  0.4273229953453694
  0.5444523669473470  0.1403608993582189  0.5726797826551737
  0.6557203370781880  0.1531537580790254  0.6090203654848974
  0.7447694911547244  0.2306382250843319  0.2819654596622923
  0.8115219890569231  0.2176975945292307  0.3546424643169230
  0.7892757059162631  0.2562225807074089  0.3546442275038309
  0.8560282038184618  0.2432819501523076  0.4273212321584612
  0.8560389974427315  0.3203258823366804  0.4273222469720970
  0.9005452122042703  0.3459102379597575  0.5000010148136353
  0.7892876802054936  0.3076827898258703  0.2819654596622923
  0.8560401781076927  0.2947421592707692  0.3546424643169230
  0.8560509717319624  0.3717860914551417  0.3546434791305583
  0.8783001097285705  0.3588515010720241  0.4273229953453694
  0.9228063244901089  0.3844358566951011  0.5000017631869077
  0.8338058692562628  0.3847273545674089  0.2819654596622923
  0.9005691607827316  0.4488306561966802  0.3546434791305583
  0.8783120840178015  0.4103117101904857  0.3546442275038309
  0.9228182987793399  0.4358960658135627  0.4273229953453694
  0.9450634012550395  0.4229548027012959  0.5000010148136353
  0.5221952901824168  0.1018419533520244  0.5726805310284461
  0.5889477880846157  0.0889013227969230  0.6453575356830770
  0.4109456969519626  0.1150680416074497  0.2819647112890201
  0.5222136670828031  0.1278609003282560  0.3183052941187435
  0.4331948349485703  0.1021334512243319  0.3546442275038309
  0.4999473328507695  0.0891928206692308  0.4273212321584612
  0.5444535476123078  0.1147771762923077  0.5000000000000000
  0.5222072644716473  0.1533021624704858  0.5000017631869077
  0.6334659771353849  0.1659458875384615  0.6453575356830770
  0.6334767707596546  0.2429898197228342  0.6453585504967121
  0.7447447408904955  0.2557826784436406  0.6816991333264355
  0.6112196939947244  0.2044708737166397  0.6453592988699849
  0.4332068092378012  0.1535936603427934  0.2819654596622923
  0.4999593071400004  0.1406530297876923  0.3546424643169230
  0.4777130239993395  0.1791780159658703  0.3546442275038309
  0.5889825302873472  0.2688656732182189  0.5000010148136353
  0.7002505004181877  0.2816585319390252  0.5363415976433590
  0.6334779514246157  0.2174060966569231  0.5726787678415384
  0.6334887450488854  0.2944500288412958  0.5726797826551737
  0.6112316682839549  0.2559310828351013  0.5726805310284461
  0.7892629299412648  0.3328272431851790  0.6816991333264355
  0.6112500451843416  0.2819500298113328  0.3183052941187435
  0.5889837109523079  0.2432819501523076  0.4273212321584612
  0.5889945045765781  0.3203258823366804  0.4273222469720970
  0.7447686894689569  0.3587030966805638  0.5363415976433590
  0.6557498573347246  0.3329756475766397  0.5726805310284461
  0.7225131488611934  0.3970789492059112  0.6453585504967121
  0.7002560720962628  0.3585600031997166  0.6453592988699849
  0.5889956852415389  0.2947421592707692  0.3546424643169230
  0.5667494021008780  0.3332671454489473  0.3546442275038309
  0.6335126936273473  0.3973704470782190  0.4273222469720970
  0.6112556168624167  0.3588515010720241  0.4273229953453694
  0.7892868785197261  0.4357476614221023  0.5363415976433590
  0.7225143295261542  0.3714952261400000  0.5726787678415384
  0.7670205442876925  0.3970795817630769  0.6453575356830770
  0.7670313379119622  0.4741235139474497  0.6453585504967121
  0.6335246679165778  0.4488306561966802  0.3546434791305583
  0.7447926380474188  0.4616235149174868  0.3909840619602819
  0.6557738059131859  0.4358960658135627  0.4273229953453694
  0.7225370974396548  0.4999993674428342  0.5000010148136353
  0.7002800206747243  0.4614804214366396  0.5000017631869077
  0.7670325185769234  0.4485397908815383  0.5726787678415384
  0.7670433122011932  0.5255837230659112  0.5726797826551737
  0.8783112823320341  0.5383765817867175  0.6090203654848974
  0.7892924501978013  0.5126491326827936  0.6453592988699849
  0.6557227385104953  0.1019850468328713  0.4636628298018202
  0.5221976916147242  0.0506732421058704  0.4273229953453694
  0.5667039063762629  0.0762575977289474  0.5000017631869077
  0.6334671979027318  0.1403608993582189  0.5726797826551737
  0.7447351680335723  0.1531537580790254  0.6090203654848974
  0.6112101211378012  0.1018419533520244  0.5726805310284461
  0.4999605279073470  0.1150680416074497  0.2819647112890201
  0.6334683785676926  0.1147771762923077  0.5000000000000000
  0.6334791721919623  0.1918211084766805  0.5000010148136353
  0.6112220954270321  0.1533021624704858  0.5000017631869077
  0.5222216401931856  0.1535936603427934  0.2819654596622923
  0.5889849317196549  0.2176969619720650  0.3546434791305583
  0.5667278549547243  0.1791780159658703  0.3546442275038309
  0.7669989971415389  0.2429904522800000  0.6453575356830770
  0.8782777608966496  0.3328272431851790  0.6816991333264355
  0.7447710909012647  0.3075343854344097  0.3909840619602819
  0.6780093355319624  0.3203258823366804  0.4273222469720970
  0.7225047566692310  0.2688663057753846  0.5000000000000000
  0.7670109714307698  0.2944506613984615  0.5726787678415384
  0.7447646882901089  0.3329756475766397  0.5726805310284461
  0.8115171861923081  0.3200350170215385  0.6453575356830770
  0.7892709030516476  0.3585600031997166  0.6453592988699849
  0.8337954947135722  0.4101633057990252  0.4636628298018202
  0.7002704478178010  0.3588515010720241  0.4273229953453694
  0.9228079242366493  0.4613320170451792  0.6090203654848974
  0.7225394988719626  0.4488306561966802  0.3546434791305583
  0.8338074690028031  0.4616235149174868  0.3909840619602819
  0.7002824221070320  0.4103117101904857  0.3546442275038309
  0.7670349200092307  0.3973710796353844  0.4273212321584612
  0.8115519283950392  0.4999993674428342  0.5000010148136353
  0.7892948516301090  0.4614804214366396  0.5000017631869077
  0.9005535642938465  0.4741241465046153  0.6453575356830770
  0.8783072811531860  0.5126491326827936  0.6453592988699849
  0.6334695993350391  0.0891921881120650  0.4273222469720970
  0.6557187373316472  0.0762575977289474  0.5000017631869077
  0.7669882436196549  0.1659452549812959  0.6453585504967121
  0.7892557585166493  0.1790296115744099  0.4636628298018202
  0.7224832095230773  0.1147771762923077  0.5000000000000000
  0.7669894242846161  0.1403615319153846  0.5726787678415384
  0.8115064326704241  0.2429898197228342  0.6453585504967121
  0.6557426859101091  0.1791780159658703  0.3546442275038309
  0.7225059774365780  0.2432813175951419  0.4273222469720970
  0.8337739475674185  0.2560741763159482  0.4636628298018202
  0.7892613301947244  0.2559310828351013  0.5726805310284461
  0.8560246217211933  0.3200343844643729  0.6453585504967121
  0.8337675449562627  0.2815154384581781  0.6453592988699849
  0.8337859218566495  0.3075343854344097  0.3909840619602819
  0.8782921366181877  0.3331187410574866  0.4636628298018202
  0.8337978961458804  0.3589945945528715  0.3183052941187435
  0.7670253471523084  0.2947421592707692  0.3546424643169230
  0.7670361407765777  0.3717860914551417  0.3546434791305583
  0.8115315619138462  0.3203265148938463  0.4273212321584612
  0.7892852787731858  0.3588515010720241  0.4273229953453694
  0.8560485702996548  0.4229548027012959  0.5000010148136353
  0.9228039230578016  0.4356045679412550  0.6453592988699849
  0.7670481150658086  0.4232463005736035  0.2819647112890201
  0.7447910383008780  0.3847273545674089  0.2819654596622923
  0.7892972530624167  0.4103117101904857  0.3546442275038309
  0.8560497509646154  0.3973710796353844  0.4273212321584612
  0.9005559657261543  0.4229554352584615  0.5000000000000000
  0.9450621804876925  0.4485397908815383  0.5726787678415384
  0.8560150488642702  0.2174054640997573  0.5726797826551737
  0.7447575168654934  0.1791780159658703  0.3546442275038309
  0.8115208083919623  0.2432813175951419  0.4273222469720970
  0.7892637316270321  0.2047623715889473  0.4273229953453694
  0.9005332379150389  0.2944500288412958  0.5726797826551737
  0.8782761611501092  0.2559310828351013  0.5726805310284461
  0.2774330033246158  0.2176975945292307  0.3546424643169230
  0.3219392180861541  0.2432819501523076  0.4273212321584612
  0.4332179818412648  0.3331187410574866  0.4636628298018202
  0.3441991497070319  0.3073912919535627  0.5000017631869077
  0.4109624412335012  0.3714945935828344  0.5726797826551737
  0.5222304113643413  0.3842874523036408  0.6090203654848974
  0.3887053644685706  0.3329756475766397  0.5726805310284461
  0.4999640771323081  0.3456193726446152  0.7180363035246153
  0.2774557712381164  0.3462017358320651  0.2819647112890201
  0.2551986944731858  0.3076827898258703  0.2819654596622923
  0.3219511923753850  0.2947421592707692  0.3546424643169230
  0.4332299561304953  0.3845789501759484  0.3909840619602819
  0.2997049092347245  0.3332671454489473  0.3546442275038309
  0.3664574071369233  0.3203265148938463  0.4273212321584612
  0.3664682007611934  0.3973704470782190  0.4273222469720970
  0.3442111239962629  0.3588515010720241  0.4273229953453694
  0.4109744155227317  0.4229548027012959  0.5000010148136353
  0.5222423856535723  0.4357476614221023  0.5363415976433590
  0.4554806302842700  0.4485391583243727  0.5726797826551737
  0.4999760514215386  0.3970795817630769  0.6453575356830770
  0.6112548151766493  0.4869163726682560  0.6816991333264355
  0.4777297682808786  0.4356045679412550  0.6453592988699849
  0.5444822661830774  0.4226639373861538  0.7180363035246153
  0.4332419304197257  0.4360391592944097  0.3183052941187435
  0.3664693814261538  0.3717867240123076  0.3546424643169230
  0.3664801750504239  0.4488306561966802  0.3546434791305583
  0.3442230982854937  0.4103117101904857  0.3546442275038309
  0.5222543599428032  0.4872078705405636  0.4636628298018202
  0.5667605747043415  0.5127922261636406  0.5363415976433590
  0.4999988193350393  0.5255837230659112  0.5726797826551737
  0.4777417425701087  0.4870647770597167  0.5726805310284461
  0.5444942404723079  0.4741241465046153  0.6453575356830770
  0.6557730042274186  0.5639609374097944  0.6816991333264355
  0.3441840051720341  0.1278609003282560  0.3183052941187435
  0.4331964346951107  0.1790296115744099  0.4636628298018202
  0.5222088642181877  0.2301983228205637  0.6090203654848974
  0.4332084089843416  0.2304898206928713  0.3909840619602819
  0.2996833620885704  0.1791780159658703  0.3546442275038309
  0.3664466536150393  0.2432813175951419  0.4273222469720970
  0.4109420747523079  0.1918217410338462  0.5000000000000000
  0.5222208385074186  0.2816585319390252  0.5363415976433590
  0.4554482895138466  0.2174060966569231  0.5726787678415384
  0.4999545042753850  0.2429904522800000  0.6453575356830770
  0.4999652978996547  0.3200343844643729  0.6453585504967121
  0.6112332680304952  0.3328272431851790  0.6816991333264355
  0.4777082211347241  0.2815154384581781  0.6453592988699849
  0.3219524131427319  0.2691571710905264  0.2819647112890201
  0.4332203832735720  0.2819500298113328  0.3183052941187435
  0.2996953363778013  0.2306382250843319  0.2819654596622923
  0.3664478342800001  0.2176975945292307  0.3546424643169230
  0.3664586279042703  0.2947415267136033  0.3546434791305583
  0.5222328127966491  0.3331187410574866  0.4636628298018202
  0.3887077659008780  0.2818069363304858  0.4273229953453694
  0.4554710574273477  0.3459102379597575  0.5000010148136353
  0.4332139806624171  0.3073912919535627  0.5000017631869077
  0.4999664785646159  0.2944506613984615  0.5726787678415384
  0.4999772721888860  0.3714945935828344  0.5726797826551737
  0.6112452423197261  0.3842874523036408  0.6090203654848974
  0.4777201954239550  0.3329756475766397  0.5726805310284461
  0.5889789080876925  0.3456193726446152  0.7180363035246153
  0.3664706021935012  0.3462017358320651  0.2819647112890201
  0.5222447870858800  0.3845789501759484  0.3909840619602819
  0.3887197401901093  0.3332671454489473  0.3546442275038309
  0.4554722380923081  0.3203265148938463  0.4273212321584612
  0.4554830317165778  0.3973704470782190  0.4273222469720970
  0.4999784528538463  0.3459108705169231  0.5000000000000000
  0.4999892464781165  0.4229548027012959  0.5000010148136353
  0.6112572166089570  0.4357476614221023  0.5363415976433590
  0.4777321697131863  0.3844358566951011  0.5000017631869077
  0.5444954612396548  0.4485391583243727  0.5726797826551737
  0.5222383844747241  0.4100202123181780  0.5726805310284461
  0.5889908823769234  0.3970795817630769  0.6453575356830770
  0.7002696461320341  0.4869163726682560  0.6816991333264355
  0.5667445992362630  0.4356045679412550  0.6453592988699849
  0.5222567613751105  0.4360391592944097  0.3183052941187435
  0.3887317144793398  0.3847273545674089  0.2819654596622923
  0.4554842123815381  0.3717867240123076  0.3546424643169230
  0.4554950060058087  0.4488306561966802  0.3546434791305583
  0.5000012207673470  0.4744150118197574  0.4273222469720970
  0.6112691908981880  0.4872078705405636  0.4636628298018202
  0.6557754056597263  0.5127922261636406  0.5363415976433590
  0.5890028566661539  0.4485397908815383  0.5726787678415384
  0.6335090714276926  0.4741241465046153  0.6453575356830770
  0.6335198650519623  0.5511680786889882  0.6453585504967121
  0.5221992913612645  0.1275694024559483  0.5363415976433590
  0.4777050508889572  0.1534452559513330  0.3909840619602819
  0.4109325018953847  0.0891928206692308  0.4273212321584612
  0.4554387166569230  0.1147771762923077  0.5000000000000000
  0.4999449314184617  0.1403615319153846  0.5726787678415384
  0.4999557250427319  0.2174054640997573  0.5726797826551737
  0.6112236951735724  0.2301983228205637  0.6090203654848974
  0.4776986482778013  0.1788865180935627  0.5726805310284461
  0.5889573609415388  0.1915302431615384  0.7180363035246153
  0.4109444761846157  0.1406530297876923  0.3546424643169230
  0.5222232399397263  0.2304898206928713  0.3909840619602819
  0.3886981930439548  0.1791780159658703  0.3546442275038309
  0.4554506909461544  0.1662373854107692  0.4273212321584612
  0.4554614845704241  0.2432813175951419  0.4273222469720970
  0.4999569057076927  0.1918217410338462  0.5000000000000000
  0.4999676993319628  0.2688656732182189  0.5000010148136353
  0.6112356694628029  0.2816585319390252  0.5363415976433590
  0.4777106225670322  0.2303467272120242  0.5000017631869077
  0.6557418842243417  0.3072428875621022  0.6090203654848974
  0.5889693352307698  0.2429904522800000  0.6453575356830770
  0.5889801288550399  0.3200343844643729  0.6453585504967121
  0.7002480989858800  0.3328272431851790  0.6816991333264355
  0.5667230520901089  0.2815154384581781  0.6453592988699849
  0.6334755499923080  0.2685748079030769  0.7180363035246153
  0.4109672440981167  0.2691571710905264  0.2819647112890201
  0.5222352142289568  0.2819500298113328  0.3183052941187435
  0.3887101673331857  0.2306382250843319  0.2819654596622923
  0.4554626652353849  0.2176975945292307  0.3546424643169230
  0.4554734588596550  0.2947415267136033  0.3546434791305583
  0.4999796736211933  0.3203258823366804  0.4273222469720970
  0.6112476437520339  0.3331187410574866  0.4636628298018202
  0.4777225968562627  0.2818069363304858  0.4273229953453694
  0.6557538585135722  0.3587030966805638  0.5363415976433590
  0.5889813095200002  0.2944506613984615  0.5726787678415384
  0.5889921031442708  0.3714945935828344  0.5726797826551737
  0.7002600732751109  0.3842874523036408  0.6090203654848974
  0.5667350263793397  0.3329756475766397  0.5726805310284461
  0.6334875242815385  0.3200350170215385  0.6453575356830770
  0.6779937390430768  0.3456193726446152  0.7180363035246153
  0.5667534032797260  0.3589945945528715  0.3183052941187435
  0.4999808542861541  0.2947421592707692  0.3546424643169230
  0.4777345711454936  0.3332671454489473  0.3546442275038309
  0.5444978626719625  0.3973704470782190  0.4273222469720970
  0.5890040774335012  0.4229548027012959  0.5000010148136353
  0.5667470006685706  0.3844358566951011  0.5000017631869077
  0.6780057133323082  0.3970795817630769  0.6453575356830770
  0.7892844770874189  0.4869163726682560  0.6816991333264355
  0.6557594301916477  0.4356045679412550  0.6453592988699849
  0.6112715923304952  0.4360391592944097  0.3183052941187435
  0.4777465454347246  0.3847273545674089  0.2819654596622923
  0.5444990433369229  0.3717867240123076  0.3546424643169230
  0.5445098369611935  0.4488306561966802  0.3546434791305583
  0.5890160517227317  0.4744150118197574  0.4273222469720970
  0.5667589749578011  0.4358960658135627  0.4273229953453694
  0.7447902366151106  0.5127922261636406  0.5363415976433590
  0.7892964513766494  0.5383765817867175  0.6090203654848974
  0.7225346960073475  0.5511680786889882  0.6453585504967121
  0.3442055523181877  0.2819500298113328  0.3183052941187435
  0.2997168835239550  0.3847273545674089  0.2819654596622923
  0.4554602638030771  0.2688663057753846  0.5000000000000000
  0.4777441440024164  0.4358960658135627  0.4273229953453694
  0.4999688799969232  0.2432819501523076  0.4273212321584612
  0.4554854331488860  0.3462017358320651  0.2819647112890201
  0.5889932838092307  0.3459108705169231  0.5000000000000000
  0.7002720475643418  0.4357476614221023  0.5363415976433590
  0.2552098670766493  0.4872078705405636  0.4636628298018202
  0.3442222965997264  0.5383765817867175  0.6090203654848974
  0.2997065089812644  0.4101633057990252  0.4636628298018202
  0.4332251532658802  0.4869163726682560  0.6816991333264355
  0.1884505131396548  0.4488306561966802  0.3546434791305583
  0.3442246980320336  0.4872078705405636  0.4636628298018202
  0.2774521490384617  0.4229554352584615  0.5000000000000000
  0.3219691574242701  0.5255837230659112  0.5726797826551737
  0.4332371275551107  0.5383765817867175  0.6090203654848974
  0.2997120806593395  0.4870647770597167  0.5726805310284461
  0.4777433423166490  0.5639609374097944  0.6816991333264355
  0.3442031508858800  0.3331187410574866  0.4636628298018202
  0.4332155804089570  0.3842874523036408  0.6090203654848974
  0.1661838635178010  0.3076827898258703  0.2819654596622923
  0.2329471550442704  0.3717860914551417  0.3546434791305583
  0.2106900782793398  0.3332671454489473  0.3546442275038309
  0.3887213399366492  0.4101633057990252  0.4636628298018202
  0.2551962930408780  0.3588515010720241  0.4273229953453694
  0.4332275546981880  0.4357476614221023  0.5363415976433590
  0.4777337694597262  0.4613320170451792  0.6090203654848974
  0.4109612204661543  0.3970795817630769  0.6453575356830770
  0.5222399842212645  0.4869163726682560  0.6816991333264355
  0.2329591293335009  0.4232463005736035  0.2819647112890201
  0.2774545504707690  0.3717867240123076  0.3546424643169230
  0.3219607652323078  0.3973710796353844  0.4273212321584612
  0.3219715588565779  0.4744150118197574  0.4273222469720970
  0.4332395289874184  0.4872078705405636  0.4636628298018202
  0.4109731947553848  0.4485397908815383  0.5726787678415384
  0.4109839883796549  0.5255837230659112  0.5726797826551737
  0.3887269116147243  0.4870647770597167  0.5726805310284461
  0.4554794095169235  0.4741241465046153  0.6453575356830770
  0.4554902031411932  0.5511680786889882  0.6453585504967121
  0.5667581732720337  0.5639609374097944  0.6816991333264355
  0.3441935780289568  0.2304898206928713  0.3909840619602819
  0.5222184370751108  0.3328272431851790  0.6816991333264355
  0.6335366422058087  0.5002908653151419  0.2819647112890201
  0.6112795654408781  0.4617719193089473  0.2819654596622923
  0.6780428569673470  0.5258752209382187  0.3546434791305583
  0.6557857802024164  0.4873562749320242  0.3546442275038309
  0.7670444928661544  0.5000000000000000  0.5000000000000000
  0.8783232566212645  0.5898367909051790  0.5363415976433590
  0.7447982097254939  0.5385249861781780  0.5000017631869077
  0.8115507076276927  0.5255843556230769  0.5726787678415384
  0.8338106392485705  0.5896936974243321  0.6453592988699849
  0.7893228013874185  0.5901282887774867  0.3183052941187435
  0.6557977544916473  0.5388164840504857  0.2819654596622923
  0.7225610460181162  0.6029197856797575  0.3546434791305583
  0.8115734755411933  0.6540884969259113  0.5000010148136353
  0.9228414456720339  0.6668813556467176  0.5363415976433590
  0.8560688966784619  0.6026289203646152  0.5726787678415384
  0.8338226135378010  0.6411539065427935  0.5726805310284461
  0.9005751114400006  0.6282132759876922  0.6453575356830770
  0.8338409904381877  0.6671728535190251  0.3183052941187435
  0.7003159435424166  0.6158610487920242  0.2819654596622923
  0.7670792350688859  0.6799643504212959  0.3546434791305583
  0.8338345878270323  0.6926141156612550  0.5000017631869077
  0.9005870857292311  0.6796734851061539  0.5726787678415384
  0.8783408025885706  0.7181984712843318  0.5726805310284461
  0.7670912093581164  0.7314245595397574  0.2819647112890201
  0.7893403473547240  0.7184899691566395  0.3546442275038309
  0.8561036388811935  0.7825932707859111  0.4273222469720970
  0.8338465621162628  0.7440743247797164  0.4273229953453694
  0.7225514731611931  0.5002908653151419  0.2819647112890201
  0.8560593238215387  0.5000000000000000  0.5000000000000000
  0.8560701174458084  0.5770439321843727  0.5000010148136353
  0.8338130406808782  0.5385249861781780  0.5000017631869077
  0.9228254702039552  0.5896936974243321  0.6453592988699849
  0.7670696622119623  0.5773354300566805  0.2819647112890201
  0.7448125854470321  0.5388164840504857  0.2819654596622923
  0.8115758769735010  0.6029197856797575  0.3546434791305583
  0.7893188002085704  0.5644008396735627  0.3546442275038309
  0.8338489635485705  0.6929056135335628  0.2819654596622923
  0.8783551783101088  0.7184899691566395  0.3546442275038309
  0.9228342742474188  0.5130837240359485  0.3183052941187435
  0.8560617252538464  0.4488312887538461  0.3546424643169230
  0.9005679400153848  0.4744156443769230  0.4273212321584612
  0.9005787336396548  0.5514595765612959  0.4273222469720970
  0.9005907079288857  0.6029197856797575  0.3546434791305583
  0.2107443451751111  0.8209704851297943  0.5363415976433590
  0.2552505599366494  0.8465548407528715  0.6090203654848974
  0.2107227980289565  0.6668813556467176  0.5363415976433590
  0.2997352275520340  0.7180500668928713  0.6816991333264355
  0.0994560085630772  0.6285047738600000  0.4273212321584612
  0.2107347723181879  0.7183415647651791  0.4636628298018202
  0.1439730169488856  0.7311330616674496  0.5000010148136353
  0.2552409870797266  0.7439259203882560  0.5363415976433590
  0.1884684380861542  0.6796734851061539  0.5726787678415384
  0.2997472018412649  0.7695102760113328  0.6090203654848974
  0.1662221549454938  0.7181984712843318  0.5726805310284461
  0.2329854464719627  0.7823017729136033  0.6453585504967121
  0.3442534166028032  0.7950946316344097  0.6816991333264355
  0.2107283697070321  0.7437828269074089  0.6453592988699849
  0.2107467466074184  0.7698017738836406  0.3909840619602819
  0.1439741976138464  0.7055493386015382  0.4273212321584612
  0.2552529613689571  0.7953861295067174  0.4636628298018202
  0.1662341292347242  0.7696586804027935  0.5000017631869077
  0.2329974207611936  0.8337619820320651  0.5726797826551737
  0.3442653908920341  0.8465548407528715  0.6090203654848974
  0.2774928418984613  0.7823024054707691  0.6453575356830770
  0.2775036355227319  0.8593463376551420  0.6453585504967121
  0.3219990566600004  0.8078867610938461  0.7180363035246153
  0.2552649356581876  0.8468463386251791  0.3909840619602819
  0.2329986014261544  0.8081782589661537  0.5000000000000000
  0.3442773651812646  0.8980150498713328  0.5363415976433590
  0.2775048161876931  0.8337626145892306  0.5726787678415384
  0.3220110309492309  0.8593469702123079  0.6453575356830770
  0.2330105757153848  0.8596384680846154  0.4273212321584612
  0.2775167904769236  0.8852228237076923  0.5000000000000000
  0.1217007956489572  0.5130837240359485  0.3183052941187435
  0.2107132251720342  0.5642524352821020  0.4636628298018202
  0.0994464357061542  0.5258758534953845  0.3546424643169230
  0.1439634440919627  0.6285041413028343  0.4273222469720970
  0.1217063673270321  0.5899851952966396  0.4273229953453694
  0.1884696588535012  0.6540884969259113  0.5000010148136353
  0.2997376289843413  0.6668813556467176  0.5363415976433590
  0.1662125820885706  0.6155695509197164  0.5000017631869077
  0.2774820883765778  0.7052572081720651  0.6453585504967121
  0.2552250116116472  0.6667382621658704  0.6453592988699849
  0.1439646247569235  0.6029204182369231  0.3546424643169230
  0.1439754183811934  0.6799643504212959  0.3546434791305583
  0.1217183416162630  0.6414454044151011  0.3546442275038309
  0.1662245563778011  0.6670297600381780  0.4273229953453694
  0.2329878479042704  0.7311330616674496  0.5000010148136353
  0.2774832690415386  0.6796734851061539  0.5726787678415384
  0.2774940626658087  0.7567174172905266  0.5726797826551737
  0.3887620327966492  0.7695102760113328  0.6090203654848974
  0.2552369859008781  0.7181984712843318  0.5726805310284461
  0.3219894838030773  0.7052578407292307  0.6453575356830770
  0.3220002774273470  0.7823017729136033  0.6453585504967121
  0.3664956985646156  0.7308421963523076  0.7180363035246153
  0.1884828138076924  0.6799649829784613  0.3546424643169230
  0.1884936074319626  0.7570089151628343  0.3546434791305583
  0.1662365306670315  0.7184899691566395  0.3546442275038309
  0.2329890285692316  0.7055493386015382  0.4273212321584612
  0.2329998221935009  0.7825932707859111  0.4273222469720970
  0.2775060369550396  0.8081776264089880  0.5000010148136353
  0.4332802218474184  0.8465548407528715  0.6090203654848974
  0.2997551749516473  0.7952430360258704  0.5726805310284461
  0.3665184664781162  0.8593463376551420  0.6453585504967121
  0.4110138876153848  0.8078867610938461  0.7180363035246153
  0.2330010028584616  0.7570095477200002  0.3546424643169230
  0.2330117964827322  0.8340534799043726  0.3546434791305583
  0.2775180112442701  0.8596378355274498  0.4273222469720970
  0.3887859813751111  0.8724306942482558  0.4636628298018202
  0.2997671492408782  0.8467032451443322  0.5000017631869077
  0.3665304407673471  0.9108065467736035  0.5726797826551737
  0.3887795787639552  0.8978719563904857  0.6453592988699849
  0.4555320766661545  0.8849313258353844  0.7180363035246153
  0.3887979556643416  0.9238909033667175  0.3909840619602819
  0.2997791235301092  0.8981634542627935  0.4273229953453694
  0.3665316214323079  0.8852228237076923  0.5000000000000000
  0.1439849912381166  0.7825932707859111  0.4273222469720970
  0.4332682475581880  0.7950946316344097  0.6816991333264355
  0.3442677923243418  0.7953861295067174  0.4636628298018202
  0.4777984108981873  0.9235994054944100  0.6090203654848974
  0.1217199413628031  0.7183415647651791  0.4636628298018202
  0.1662261561243418  0.7439259203882560  0.5363415976433590
  0.2552385856474184  0.7950946316344097  0.6816991333264355
  0.1439538712350392  0.5258752209382187  0.3546434791305583
  0.2552218413658798  0.5386680796590251  0.3909840619602819
  0.1884492923723078  0.4744156443769230  0.4273212321584612
  0.1884600859965776  0.5514595765612959  0.4273222469720970
  0.2774617218953849  0.5255843556230769  0.5726787678415384
  0.2774725155196550  0.6026282878074496  0.5726797826551737
  0.3887404856504956  0.6154211465282561  0.6090203654848974
  0.4777896397270319  0.6929056135335628  0.2819654596622923
  0.5445421376292311  0.6799649829784613  0.3546424643169230
  0.6558209013843413  0.7698017738836406  0.3909840619602819
  0.5890483523907694  0.7055493386015382  0.4273212321584612
  0.6335545671523077  0.7311336942246154  0.5000000000000000
  0.6335653607765779  0.8081776264089880  0.5000010148136353
  0.7448333309074183  0.8209704851297943  0.5363415976433590
  0.7225669966753847  0.7823024054707691  0.6453575356830770
  0.7225777902996549  0.8593463376551420  0.6453585504967121
  0.7003207135347242  0.8208273916489475  0.6453592988699849
  0.6558328756735723  0.8212619830021021  0.3183052941187435
  0.5223078287778011  0.7699501782751010  0.2819654596622923
  0.5890603266800003  0.7570095477200002  0.3546424643169230
  0.5890711203042704  0.8340534799043726  0.3546434791305583
  0.5668140435393398  0.7955345338981781  0.3546442275038309
  0.7448453051966493  0.8724306942482558  0.4636628298018202
  0.7225789709646161  0.8337626145892306  0.5726787678415384
  0.7003326878239552  0.8722876007674087  0.5726805310284461
  0.5890830945935014  0.8855136890228343  0.2819647112890201
  0.6780847304923078  0.8596384680846154  0.4273212321584612
  0.6558384473516473  0.8981634542627935  0.4273229953453694
  0.4555069802950392  0.5002908653151419  0.2819647112890201
  0.5667749504258801  0.5130837240359485  0.3183052941187435
  0.4332499035301090  0.4617719193089473  0.2819654596622923
  0.5000024014323078  0.4488312887538461  0.3546424643169230
  0.5445086161938461  0.4744156443769230  0.4273212321584612
  0.5445194098181162  0.5514595765612959  0.4273222469720970
  0.6557873799489568  0.5642524352821020  0.4636628298018202
  0.5222623330531856  0.5129406305551011  0.4273229953453694
  0.6335210457169231  0.5255843556230769  0.5726787678415384
  0.6335318393411937  0.6026282878074496  0.5726797826551737
  0.7447998094720338  0.6154211465282561  0.6090203654848974
  0.6112747625762627  0.5641093418012550  0.5726805310284461
  0.5445205904830770  0.5258758534953845  0.3546424643169230
  0.5445313841073471  0.6029197856797575  0.3546434791305583
  0.6557993542381872  0.6157126444005636  0.3909840619602819
  0.5222743073424170  0.5644008396735627  0.3546442275038309
  0.6335330200061540  0.5770445647415384  0.5000000000000000
  0.6335438136304241  0.6540884969259113  0.5000010148136353
  0.7448117837612642  0.6668813556467176  0.5363415976433590
  0.6112867368654940  0.6155695509197164  0.5000017631869077
  0.7225454495292311  0.6282132759876922  0.6453575356830770
  0.7225562431535008  0.7052572081720651  0.6453585504967121
  0.8338242132843413  0.7180500668928713  0.6816991333264355
  0.7002991663885701  0.6667382621658704  0.6453592988699849
  0.5445433583965776  0.6543799947982190  0.2819647112890201
  0.6558113285274186  0.6671728535190251  0.3183052941187435
  0.5222862816316475  0.6158610487920242  0.2819654596622923
  0.6335449942953849  0.6285047738600000  0.4273212321584612
  0.6335557879196546  0.7055487060443728  0.4273222469720970
  0.7448237580504956  0.7183415647651791  0.4636628298018202
  0.6112987111547240  0.6670297600381780  0.4273229953453694
  0.7225574238184616  0.6796734851061539  0.5726787678415384
  0.7225682174427317  0.7567174172905266  0.5726797826551737
  0.8338361875735723  0.7695102760113328  0.6090203654848974
  0.7003111406778011  0.7181984712843318  0.5726805310284461
  0.8115698533415385  0.7308421963523076  0.7180363035246153
  0.6335569685846154  0.6799649829784613  0.3546424643169230
  0.6335677622088856  0.7570089151628343  0.3546434791305583
  0.7448357323397261  0.7698017738836406  0.3909840619602819
  0.6113106854439554  0.7184899691566395  0.3546442275038309
  0.7225693981076925  0.7311336942246154  0.5000000000000000
  0.7225801917319626  0.8081776264089880  0.5000010148136353
  0.7003231149670325  0.7696586804027935  0.5000017631869077
  0.8115818276307695  0.7823024054707691  0.6453575356830770
  0.7893355444901086  0.8208273916489475  0.6453592988699849
  0.6335797364981169  0.8084691242812957  0.2819647112890201
  0.7448477066289566  0.8212619830021021  0.3183052941187435
  0.6113226597331859  0.7699501782751010  0.2819654596622923
  0.6780859512596552  0.8340534799043726  0.3546434791305583
  0.7225813723969233  0.7825939033430770  0.4273212321584612
  0.7003350892562625  0.8211188895212548  0.4273229953453694
  0.7003470635454938  0.8725790986397165  0.3546442275038309
  0.7670995614476926  0.8596384680846154  0.4273212321584612
  0.5445218112504244  0.5002908653151419  0.2819647112890201
  0.5222647344854934  0.4617719193089473  0.2819654596622923
  0.7002959961428032  0.5386680796590251  0.3909840619602819
  0.6335234471492308  0.4744156443769230  0.4273212321584612
  0.6335342407735014  0.5514595765612959  0.4273222469720970
  0.6112771640085704  0.5129406305551011  0.4273229953453694
  0.7893084256658798  0.5898367909051790  0.5363415976433590
  0.8338146404274186  0.6154211465282561  0.6090203654848974
  0.7002895935316474  0.5641093418012550  0.5726805310284461
  0.8783208551889569  0.6410055021513330  0.6816991333264355
  0.6335354214384618  0.5258758534953845  0.3546424643169230
  0.6335462150627315  0.6029197856797575  0.3546434791305583
  0.7448141851935720  0.6157126444005636  0.3909840619602819
  0.6112891382978008  0.5644008396735627  0.3546442275038309
  0.7893203999551107  0.6412970000236404  0.4636628298018202
  0.7225478509615388  0.5770445647415384  0.5000000000000000
  0.7225586445858089  0.6540884969259113  0.5000010148136353
  0.8338266147166487  0.6668813556467176  0.5363415976433590
  0.7003015678208784  0.6155695509197164  0.5000017631869077
  0.8115602804846158  0.6282132759876922  0.6453575356830770
  0.8115710741088855  0.7052572081720651  0.6453585504967121
  0.7893139973439549  0.6667382621658704  0.6453592988699849
  0.8560664952461541  0.6537976316107691  0.7180363035246153
  0.6335581893519624  0.6543799947982190  0.2819647112890201
  0.6113011125870318  0.6158610487920242  0.2819654596622923
  0.7225706188750394  0.7055487060443728  0.4273222469720970
  0.8338385890058799  0.7183415647651791  0.4636628298018202
  0.7003135421101088  0.6670297600381780  0.4273229953453694
  0.8783448037674187  0.7439259203882560  0.5363415976433590
  0.8115722547738463  0.6796734851061539  0.5726787678415384
  0.8115830483981165  0.7567174172905266  0.5726797826551737
  0.8560784695353846  0.7052578407292307  0.6453575356830770
  0.7225717995400002  0.6799649829784613  0.3546424643169230
  0.7225825931642703  0.7570089151628343  0.3546434791305583
  0.7003255163993393  0.7184899691566395  0.3546442275038309
  0.8115950226873474  0.8081776264089880  0.5000010148136353
  0.7893379459224168  0.7696586804027935  0.5000017631869077
  0.8560904438246155  0.7567180498476922  0.5726787678415384
  0.7003374906885707  0.7699501782751010  0.2819654596622923
  0.7670899885907694  0.7570095477200002  0.3546424643169230
  0.7671007822150395  0.8340534799043726  0.3546434791305583
  0.8115962033523082  0.7825939033430770  0.4273212321584612
  0.7893499202116473  0.8211188895212548  0.4273229953453694
  0.6335665414415386  0.7825939033430770  0.4273212321584612
  0.7225909452538466  0.8852228237076923  0.5000000000000000
  0.7225466702965780  0.6026282878074496  0.5726797826551737
  0.7225598252507692  0.6285047738600000  0.4273212321584612
  0.7893259716331859  0.7181984712843318  0.5726805310284461
  0.8115842290630768  0.7311336942246154  0.5000000000000000
  0.2552154387547240  0.5641093418012550  0.5726805310284461
  0.3219679366569232  0.5511687112461540  0.6453575356830770
  0.4332467004120339  0.6410055021513330  0.6816991333264355
  0.1217087687593396  0.5388164840504857  0.2819654596622923
  0.1884720602858085  0.6029197856797575  0.3546434791305583
  0.1662149835208779  0.5644008396735627  0.3546442275038309
  0.2329782750473468  0.6285041413028343  0.4273222469720970
  0.3442462451781877  0.6412970000236404  0.4636628298018202
  0.2107211982824166  0.5899851952966396  0.4273229953453694
  0.2774844898088855  0.6540884969259113  0.5000010148136353
  0.3887524599397256  0.6668813556467176  0.5363415976433590
  0.2552274130439549  0.6155695509197164  0.5000017631869077
  0.3664861257076924  0.6282132759876922  0.6453575356830770
  0.3442398425670319  0.6667382621658704  0.6453592988699849
  0.1884840345750394  0.6543799947982190  0.2819647112890201
  0.3887644342289570  0.7183415647651791  0.4636628298018202
  0.3220026788596547  0.7311330616674496  0.5000010148136353
  0.4332706489904953  0.7439259203882560  0.5363415976433590
  0.4777768637520336  0.7695102760113328  0.6090203654848974
  0.5222830785135724  0.7950946316344097  0.6816991333264355
  0.2107451468608780  0.6929056135335628  0.2819654596622923
  0.2775084383873469  0.7570089151628343  0.3546434791305583
  0.2552513616224163  0.7184899691566395  0.3546442275038309
  0.3220146531488852  0.7825932707859111  0.4273222469720970
  0.2997575763839551  0.7440743247797164  0.4273229953453694
  0.3665208679104239  0.8081776264089880  0.5000010148136353
  0.2775204126765783  0.8084691242812957  0.2819647112890201
  0.3887883828074184  0.8212619830021021  0.3183052941187435
  0.3220158338138464  0.7570095477200002  0.3546424643169230
  0.2997695506731856  0.7955345338981781  0.3546442275038309
  0.5223070270920337  0.8980150498713328  0.5363415976433590
  0.3887819801962626  0.8467032451443322  0.5000017631869077
  0.4555452717227315  0.9108065467736035  0.5726797826551737
  0.5668132418535720  0.9235994054944100  0.6090203654848974
  0.4332881949578009  0.8722876007674087  0.5726805310284461
  0.2997815249624164  0.8469947430166396  0.2819654596622923
  0.3887939544854935  0.8981634542627935  0.4273229953453694
  0.4555464523876923  0.8852228237076923  0.5000000000000000
  0.4333001692470318  0.9237478098858705  0.5000017631869077
  0.1884624874288857  0.5002908653151419  0.2819647112890201
  0.2329579085661539  0.4488312887538461  0.3546424643169230
  0.2329687021904240  0.5258752209382187  0.3546434791305583
  0.2107116254254934  0.4873562749320242  0.3546442275038309
  0.2774641233276926  0.4744156443769230  0.4273212321584612
  0.3219703380892309  0.5000000000000000  0.5000000000000000
  0.3219811317135011  0.5770439321843727  0.5000010148136353
  0.4109935612365777  0.6282126434305266  0.6453585504967121
  0.5222615313674182  0.6410055021513330  0.6816991333264355
  0.4554889823738463  0.5767530668692308  0.7180363035246153
  0.2329806764796545  0.5773354300566805  0.2819647112890201
  0.2107235997147243  0.5388164840504857  0.2819654596622923
  0.4332610761335721  0.6412970000236404  0.4636628298018202
  0.3664993207642703  0.6540884969259113  0.5000010148136353
  0.3442422439993397  0.6155695509197164  0.5000017631869077
  0.3887484587608780  0.6411539065427935  0.5726805310284461
  0.5667797204181879  0.7180500668928713  0.6816991333264355
  0.5000071714246155  0.6537976316107691  0.7180363035246153
  0.4332730504228030  0.6927572091421021  0.3909840619602819
  0.3665005014292311  0.6285047738600000  0.4273212321584612
  0.4777792651843413  0.7183415647651791  0.4636628298018202
  0.4110175098150390  0.7311330616674496  0.5000010148136353
  0.6112979094689576  0.7950946316344097  0.6816991333264355
  0.5445253604753847  0.7308421963523076  0.7180363035246153
  0.4332850247120340  0.7442174182605636  0.3183052941187435
  0.3665232693427317  0.7570089151628343  0.3546434791305583
  0.4110186904800003  0.7055493386015382  0.4273212321584612
  0.5000311200030774  0.7567180498476922  0.5726787678415384
  0.5445373347646156  0.7823024054707691  0.6453575356830770
  0.5890435495261539  0.8078867610938461  0.7180363035246153
  0.4110306647692312  0.7570095477200002  0.3546424643169230
  0.4555476731550396  0.8596378355274498  0.4273222469720970
  0.5445493090538470  0.8337626145892306  0.5726787678415384
  0.5445601026781163  0.9108065467736035  0.5726797826551737
  0.5223030259131857  0.8722876007674087  0.5726805310284461
  0.3887963559178012  0.8469947430166396  0.2819654596622923
  0.4555488538200004  0.8340541124615385  0.3546424643169230
  0.4555596474442701  0.9110980446459109  0.3546434791305583
  0.4333025706793395  0.8725790986397165  0.3546442275038309
  0.4778087854408778  0.8981634542627935  0.4273229953453694
  0.5223150002024166  0.9237478098858705  0.5000017631869077
  0.2774773183842701  0.5002908653151419  0.2819647112890201
  0.3219727395215387  0.4488312887538461  0.3546424643169230
  0.3219835331458084  0.5258752209382187  0.3546434791305583
  0.4332515032766494  0.5386680796590251  0.3909840619602819
  0.2997264563808782  0.4873562749320242  0.3546442275038309
  0.4777577180381876  0.5642524352821020  0.4636628298018202
  0.4554913838061540  0.5255843556230769  0.5726787678415384
  0.4555021774304241  0.6026282878074496  0.5726797826551737
  0.6112763623228030  0.6410055021513330  0.6816991333264355
  0.2997384306701087  0.5388164840504857  0.2819654596622923
  0.3664909285723079  0.5258758534953845  0.3546424643169230
  0.5222759070889569  0.6412970000236404  0.4636628298018202
  0.4555033580953849  0.5770445647415384  0.5000000000000000
  0.4555141517196546  0.6540884969259113  0.5000010148136353
  0.4332570749547240  0.6155695509197164  0.5000017631869077
  0.6557945513735722  0.7180500668928713  0.6816991333264355
  0.4110199112473472  0.6799643504212959  0.3546434791305583
  0.4555153323846158  0.6285047738600000  0.4273212321584612
  0.4555261260088855  0.7055487060443728  0.4273222469720970
  0.5667940961397261  0.7183415647651791  0.4636628298018202
  0.6558065256628031  0.7695102760113328  0.6090203654848974
  0.5222814787670320  0.7181984712843318  0.5726805310284461
  0.7003127404243414  0.7950946316344097  0.6816991333264355
  0.4555381002981165  0.7570089151628343  0.3546434791305583
  0.6113122851904953  0.7953861295067174  0.4636628298018202
  0.6558184999520340  0.8209704851297943  0.5363415976433590
  0.6335521657199999  0.7823024054707691  0.6453575356830770
  0.6335629593442701  0.8593463376551420  0.6453585504967121
  0.6113242594797262  0.8468463386251791  0.3909840619602819
  0.4777992125839551  0.7955345338981781  0.3546442275038309
  0.6558304742412645  0.8724306942482558  0.4636628298018202
  0.6335641400092313  0.8337626145892306  0.5726787678415384
  0.6335749336335010  0.9108065467736035  0.5726797826551737
  0.6113178568685704  0.8722876007674087  0.5726805310284461
  0.6113362337689567  0.8983065477436406  0.3183052941187435
  0.5445744783996549  0.9110980446459109  0.3546434791305583
  0.5890698995369230  0.8596384680846154  0.4273212321584612
  0.5668236163962626  0.8981634542627935  0.4273229953453694
  0.6335761142984618  0.8852228237076923  0.5000000000000000
  0.6113298311578009  0.9237478098858705  0.5000017631869077
  0.3664921493396548  0.5002908653151419  0.2819647112890201
  0.4777601194704954  0.5130837240359485  0.3183052941187435
  0.4109875704769230  0.4488312887538461  0.3546424643169230
  0.3887412873362625  0.4873562749320242  0.3546442275038309
  0.4555045788627314  0.5514595765612959  0.4273222469720970
  0.5667725489935724  0.5642524352821020  0.4636628298018202
  0.5445062147615387  0.5255843556230769  0.5726787678415384
  0.6557849785166490  0.6154211465282561  0.6090203654848974
  0.5890124295230771  0.5511687112461540  0.6453575356830770
  0.3887532616254935  0.5388164840504857  0.2819654596622923
  0.4555057595276927  0.5258758534953845  0.3546424643169230
  0.4555165531519628  0.6029197856797575  0.3546434791305583
  0.5667845232828025  0.6157126444005636  0.3909840619602819
  0.4332594763870318  0.5644008396735627  0.3546442275038309
  0.4777656911485705  0.5899851952966396  0.4273229953453694
  0.5445181890507692  0.5770445647415384  0.5000000000000000
  0.5445289826750394  0.6540884969259113  0.5000010148136353
  0.6557969528058795  0.6668813556467176  0.5363415976433590
  0.5222719059101087  0.6155695509197164  0.5000017631869077
  0.5890244038123085  0.6026289203646152  0.5726787678415384
  0.6335306185738463  0.6282132759876922  0.6453575356830770
  0.6335414121981164  0.7052572081720651  0.6453585504967121
  0.7448093823289570  0.7180500668928713  0.6816991333264355
  0.4555285274411937  0.6543799947982190  0.2819647112890201
  0.5667964975720338  0.6671728535190251  0.3183052941187435
  0.5000347422027320  0.6799643504212959  0.3546434791305583
  0.4777776654378010  0.6414454044151011  0.3546442275038309
  0.5445301633400002  0.6285047738600000  0.4273212321584612
  0.6558089270951108  0.7183415647651791  0.4636628298018202
  0.5667900949608780  0.6926141156612550  0.5000017631869077
  0.6335425928630772  0.6796734851061539  0.5726787678415384
  0.6335533864873474  0.7567174172905266  0.5726797826551737
  0.7448213566181875  0.7695102760113328  0.6090203654848974
  0.6112963097224168  0.7181984712843318  0.5726805310284461
  0.7225550223861542  0.7308421963523076  0.7180363035246153
  0.5444403926581161  0.0889006902397573  0.6453585504967121
  0.4555584266769236  0.9366830328261537  0.4273212321584612
  0.7447327666012646  0.2043224693251790  0.7543779011679743
  0.6112077197054935  0.1530106645981781  0.7180380667115233
  0.6557139344670322  0.1785950202212550  0.7907168345530616
  0.7892509556520338  0.2813670340667176  0.7543779011679743
  0.6557259087562631  0.2300552293397166  0.7180380667115233
  0.7224892002827320  0.2941585309689883  0.7907160861797893
  0.7225011745719625  0.3456187400874497  0.7180373183382509
  0.7669965957092311  0.2941591635261538  0.7907150713661539
  0.7670073893335008  0.3712030957105266  0.7907160861797893
  0.7447503125685706  0.3326841497043319  0.7907168345530616
  0.7447622868578015  0.3841443588227934  0.7180380667115233
  0.8115147847600007  0.3712037282676924  0.7907150713661539
  0.8115255783842700  0.4482476604520649  0.7907160861797893
  0.7892685016193398  0.4097287144458704  0.7907168345530616
  0.8115375526735009  0.4997078695705267  0.7180373183382509
  0.7892804759085708  0.4611889235643319  0.7180380667115233
  0.8560437674350396  0.5252922251936035  0.7907160861797893
  0.8337866906701090  0.4867732791874088  0.7907168345530616
  0.8560557417242701  0.5767524343120650  0.7180373183382509
  0.7224796274258084  0.1915296106043727  0.7180373183382509
  0.7002225506608782  0.1530106645981781  0.7180380667115233
  0.7447407397116474  0.2300552293397166  0.7180380667115233
  0.8115160055273473  0.3456187400874497  0.7180373183382509
  0.8560341945781165  0.4226633048289881  0.7180373183382509
  0.8337771178131859  0.3841443588227934  0.7180380667115233
  0.1661902332566495  0.5895452930328713  0.7543779011679743
  0.1661686861104954  0.4354561635497943  0.7543779011679743
  0.2106868751612646  0.5125007282913330  0.7543779011679743
  0.2996993046843416  0.5636694395374866  0.8997354368510513
  0.2552050642120339  0.5895452930328713  0.7543779011679743
  0.1216800173162627  0.5382334883058703  0.7180380667115233
  0.1884325152184619  0.5252928577507692  0.7907150713661539
  0.1884433088427316  0.6023367899351419  0.7907160861797893
  0.2997112789735721  0.6151296486559483  0.8270566690095129
  0.1661862320778010  0.5638178439289474  0.7907168345530616
  0.2329387299800002  0.5508772133738461  0.8633938392076923
  0.2551715427766493  0.3839959544313329  0.8270566690095129
  0.1439155469350396  0.4226633048289881  0.7180373183382509
  0.2551835170658802  0.4354561635497943  0.7543779011679743
  0.1216584701701090  0.3841443588227934  0.7180380667115233
  0.2996897318274185  0.4610405191728714  0.8270566690095129
  0.2997017061166494  0.5125007282913330  0.7543779011679743
  0.2329399507473472  0.5252922251936035  0.7907160861797893
  0.2106828739824166  0.4867732791874088  0.7907168345530616
  0.3887141356397265  0.5636694395374866  0.8997354368510513
  0.2551890887439553  0.5123576348104857  0.8633956023946002
  0.2106948482716475  0.5382334883058703  0.7180380667115233
  0.3887261099289569  0.6151296486559483  0.8270566690095129
  0.3219535609353845  0.5508772133738461  0.8633938392076923
  0.3219643545596547  0.6279211455582189  0.8633948540213277
  0.2329519250365781  0.5767524343120650  0.7180373183382509
  0.2552010630331858  0.5638178439289474  0.7907168345530616
  0.5444810855181166  0.4482476604520649  0.7907160861797893
  0.6557490556489571  0.4610405191728714  0.8270566690095129
  0.5889873002796548  0.4738320160751420  0.8633948540213277
  0.6334935150411937  0.4994163716982190  0.9360736218628662
  0.6112364382762626  0.4608974256920241  0.9360743702361386
  0.5444930598073471  0.4997078695705267  0.7180373183382509
  0.6557610299381876  0.5125007282913330  0.7543779011679743
  0.5222359830424169  0.4611889235643319  0.7180380667115233
  0.7002672446997263  0.5380850839144100  0.8270566690095129
  0.6334946957061544  0.4738326486323077  0.8633938392076923
  0.6335054893304241  0.5508765808166805  0.8633948540213277
  0.6112484125654939  0.5123576348104857  0.8633956023946002
  0.6335066699953849  0.5252928577507692  0.7907150713661539
  0.6335174636196550  0.6023367899351419  0.7907160861797893
  0.6780128847569232  0.5508772133738461  0.8633938392076923
  0.4554351345596550  0.1915296106043727  0.7180373183382509
  0.5667031046904955  0.2043224693251790  0.7543779011679743
  0.5444475640827315  0.2426983218505265  0.8633948540213277
  0.4776962468454940  0.2300552293397166  0.7180380667115233
  0.5444487447476928  0.2171145987846154  0.7907150713661539
  0.5444595383719625  0.2941585309689883  0.7907160861797893
  0.6557275085028030  0.3069513896897945  0.8270566690095129
  0.5222024616070323  0.2556395849627934  0.7907168345530616
  0.5444715126611934  0.3456187400874497  0.7180373183382509
  0.6557394827920340  0.3584115988082560  0.7543779011679743
  0.5222144358962628  0.3070997940812550  0.7180380667115233
  0.6334731485600003  0.3197435191492308  0.8633938392076923
  0.6334839421842704  0.3967874513336036  0.8633948540213277
  0.6112268654193398  0.3582685053274088  0.8633956023946002
  0.6334851228492312  0.3712037282676924  0.7907150713661539
  0.6334959164735009  0.4482476604520649  0.7907160861797893
  0.7447638866043415  0.4610405191728714  0.8270566690095129
  0.6112388397085703  0.4097287144458704  0.7907168345530616
  0.6780021312350396  0.4738320160751420  0.8633948540213277
  0.6557450544701090  0.4353130700689472  0.8633956023946002
  0.6335078907627318  0.4997078695705267  0.7180373183382509
  0.7447758608935724  0.5125007282913330  0.7543779011679743
  0.6112508139978017  0.4611889235643319  0.7180380667115233
  0.6780141055242701  0.5252922251936035  0.7907160861797893
  0.7892820756551107  0.5380850839144100  0.8270566690095129
  0.6557570287593395  0.4867732791874088  0.7907168345530616
  0.7225203202858088  0.5508765808166805  0.8633948540213277
  0.7002632435208787  0.5123576348104857  0.8633956023946002
  0.7225322945750393  0.6023367899351419  0.7907160861797893
  0.5444499655150398  0.1915296106043727  0.7180373183382509
  0.5221928887501087  0.1530106645981781  0.7180380667115233
  0.6334635757030771  0.2171145987846154  0.7907150713661539
  0.6334743693273472  0.2941585309689883  0.7907160861797893
  0.7447423394581878  0.3069513896897945  0.8270566690095129
  0.6112172925624166  0.2556395849627934  0.7907168345530616
  0.6334863436165782  0.3456187400874497  0.7180373183382509
  0.7447543137474187  0.3584115988082560  0.7543779011679743
  0.6112292668516476  0.3070997940812550  0.7180380667115233
  0.7224987731396547  0.3967874513336036  0.8633948540213277
  0.7002416963747241  0.3582685053274088  0.8633956023946002
  0.7224999538046155  0.3712037282676924  0.7907150713661539
  0.7225107474288857  0.4482476604520649  0.7907160861797893
  0.7002536706639551  0.4097287144458704  0.7907168345530616
  0.7670169621904240  0.4738320160751420  0.8633948540213277
  0.7225227217181166  0.4997078695705267  0.7180373183382509
  0.8337906918489572  0.5125007282913330  0.7543779011679743
  0.7002656449531860  0.4611889235643319  0.7180380667115233
  0.7670289364796549  0.5252922251936035  0.7907160861797893
  0.8115363319061539  0.5252928577507692  0.7907150713661539
  0.8115471255304241  0.6023367899351419  0.7907160861797893
  0.7892900487654935  0.5638178439289474  0.7907168345530616
  0.7447854337504951  0.6151296486559483  0.8270566690095129
  0.2551619699197261  0.2813670340667176  0.7543779011679743
  0.3441743994428031  0.3325357453128713  0.8997354368510513
  0.1884121888396547  0.3456187400874497  0.7180373183382509
  0.1661551120747242  0.3070997940812550  0.7180380667115233
  0.3441863737320340  0.3839959544313329  0.8270566690095129
  0.2774246183627318  0.3967874513336036  0.8633948540213277
  0.3886925884935724  0.4095803100544098  0.8997354368510513
  0.3441983480212650  0.4354561635497943  0.7543779011679743
  0.2774257990276930  0.3712037282676924  0.7907150713661539
  0.2774365926519622  0.4482476604520649  0.7907160861797893
  0.3887045627828032  0.4610405191728714  0.8270566690095129
  0.2551795158870321  0.4097287144458704  0.7907168345530616
  0.3219320137892313  0.3967880838907691  0.8633938392076923
  0.2996857306485704  0.4353130700689472  0.8633956023946002
  0.3664490221750393  0.4994163716982190  0.9360736218628662
  0.3887165370720342  0.5125007282913330  0.7543779011679743
  0.2551914901762630  0.4611889235643319  0.7180380667115233
  0.3219439880784618  0.4482482930092307  0.7907150713661539
  0.3219547817027315  0.5252922251936035  0.7907160861797893
  0.2996977049378013  0.4867732791874088  0.7907168345530616
  0.3664502028400005  0.4738326486323077  0.8633938392076923
  0.3664609964642702  0.5508765808166805  0.8633948540213277
  0.4777289665951108  0.5636694395374866  0.8997354368510513
  0.3442039196993396  0.5123576348104857  0.8633956023946002
  0.3219667559919624  0.5767524343120650  0.7180373183382509
  0.3664621771292310  0.5252928577507692  0.7907150713661539
  0.4777409408843413  0.6151296486559483  0.8270566690095129
  0.3442158939885706  0.5638178439289474  0.7907168345530616
  0.4109683918907693  0.5508772133738461  0.8633938392076923
  0.4554746066523076  0.5764615689969230  0.9360726070492307
  0.4332283235116471  0.6149865551751010  0.9360743702361386
  0.2996586118243416  0.2043224693251790  0.7543779011679743
  0.2329088307442703  0.2685741753459112  0.7180373183382509
  0.2106517539793397  0.2300552293397166  0.7180380667115233
  0.2774150455058086  0.2941585309689883  0.7907160861797893
  0.2551579687408780  0.2556395849627934  0.7907168345530616
  0.3219212602673474  0.3197428865920651  0.8633948540213277
  0.4331892303981879  0.3325357453128713  0.8997354368510513
  0.2774270197950395  0.3456187400874497  0.7180373183382509
  0.2551699430301089  0.3070997940812550  0.7180380667115233
  0.3219332345565778  0.3712030957105266  0.7907160861797893
  0.4332012046874188  0.3839959544313329  0.8270566690095129
  0.3664286556938464  0.3197435191492308  0.8633938392076923
  0.4777074194489571  0.4095803100544098  0.8997354368510513
  0.3219452088458087  0.4226633048289881  0.7180373183382509
  0.3664406299830774  0.3712037282676924  0.7907150713661539
  0.4777193937381880  0.4610405191728714  0.8270566690095129
  0.3441943468424165  0.4097287144458704  0.7907168345530616
  0.4109468447446156  0.3967880838907691  0.8633938392076923
  0.4109576383688858  0.4738320160751420  0.8633948540213277
  0.5222256084997263  0.4866248747959482  0.8997354368510513
  0.4554530595061544  0.4223724395138462  0.9360726070492307
  0.4332067763654930  0.4608974256920241  0.9360743702361386
  0.3664633978965779  0.4997078695705267  0.7180373183382509
  0.3442063211316473  0.4611889235643319  0.7180380667115233
  0.4109696126581163  0.5252922251936035  0.7907160861797893
  0.5667437975504955  0.5636694395374866  0.8997354368510513
  0.4332187506547244  0.5123576348104857  0.8633956023946002
  0.4999712485569236  0.4994170042553845  0.9360726070492307
  0.4109815869473472  0.5767524343120650  0.7180373183382509
  0.3887245101824162  0.5382334883058703  0.7180380667115233
  0.4999832228461537  0.5508772133738461  0.8633938392076923
  0.4999940164704242  0.6279211455582189  0.8633948540213277
  0.5444894376076924  0.5764615689969230  0.9360726070492307
  0.5222431544670320  0.6149865551751010  0.9360743702361386
  0.2774054726488854  0.1915296106043727  0.7180373183382509
  0.3886734427797264  0.2043224693251790  0.7543779011679743
  0.4331916318304956  0.2813670340667176  0.7543779011679743
  0.2996665849347245  0.2300552293397166  0.7180380667115233
  0.3664298764611933  0.2941585309689883  0.7907160861797893
  0.4776978465920339  0.3069513896897945  0.8270566690095129
  0.3441727996962628  0.2556395849627934  0.7907168345530616
  0.4109252975984620  0.2426989544076923  0.8633938392076923
  0.3664418507504238  0.3456187400874497  0.7180373183382509
  0.4777098208812648  0.3584115988082560  0.7543779011679743
  0.5222160356428032  0.3839959544313329  0.8270566690095129
  0.3886909887470320  0.3326841497043319  0.7907168345530616
  0.4554434866492312  0.3197435191492308  0.8633938392076923
  0.4554542802735009  0.3967874513336036  0.8633948540213277
  0.4331972035085703  0.3582685053274088  0.8633956023946002
  0.4999604950350396  0.4223718069566806  0.9360736218628662
  0.4777034182701086  0.3838528609504858  0.9360743702361386
  0.4554554609384621  0.3712037282676924  0.7907150713661539
  0.4554662545627318  0.4482476604520649  0.7907160861797893
  0.5667342246935724  0.4610405191728714  0.8270566690095129
  0.4999616757000004  0.3967880838907691  0.8633938392076923
  0.6112404394551111  0.4866248747959482  0.8997354368510513
  0.5444678904615387  0.4223724395138462  0.9360726070492307
  0.5444786840858088  0.4994163716982190  0.9360736218628662
  0.5222216073208779  0.4608974256920241  0.9360743702361386
  0.4554782288519623  0.4997078695705267  0.7180373183382509
  0.5667461989828033  0.5125007282913330  0.7543779011679743
  0.4332211520870322  0.4611889235643319  0.7180380667115233
  0.6112524137443416  0.5380850839144100  0.8270566690095129
  0.4777273668485704  0.4867732791874088  0.7907168345530616
  0.5444798647507696  0.4738326486323077  0.8633938392076923
  0.5444906583750393  0.5508765808166805  0.8633948540213277
  0.5889860795123080  0.4994170042553845  0.9360726070492307
  0.4999964179027320  0.5767524343120650  0.7180373183382509
  0.4777393411378009  0.5382334883058703  0.7180380667115233
  0.5444918390400005  0.5252928577507692  0.7907150713661539
  0.5445026326642702  0.6023367899351419  0.7907160861797893
  0.6557706027951108  0.6151296486559483  0.8270566690095129
  0.5222455558993396  0.5638178439289474  0.7907168345530616
  0.5889980538015384  0.5508772133738461  0.8633938392076923
  0.5667517706608779  0.5894021995520241  0.8633956023946002
  0.3664203036042702  0.1915296106043727  0.7180373183382509
  0.4776882737351107  0.2043224693251790  0.7543779011679743
  0.3441632268393396  0.1530106645981781  0.7180380667115233
  0.4554327331273472  0.2426983218505265  0.8633948540213277
  0.4109384926550394  0.2685741753459112  0.7180373183382509
  0.3886814158901092  0.2300552293397166  0.7180380667115233
  0.4554339137923080  0.2171145987846154  0.7907150713661539
  0.5667126775474187  0.3069513896897945  0.8270566690095129
  0.4331876306516471  0.2556395849627934  0.7907168345530616
  0.4999509221781164  0.3197428865920651  0.8633948540213277
  0.4776938454131858  0.2812239405858705  0.8633956023946002
  0.4554566817058086  0.3456187400874497  0.7180373183382509
  0.5667246518366492  0.3584115988082560  0.7543779011679743
  0.4331996049408780  0.3070997940812550  0.7180380667115233
  0.4999628964673474  0.3712030957105266  0.7907160861797893
  0.4777058197024168  0.3326841497043319  0.7907168345530616
  0.5444691112288856  0.3967874513336036  0.8633948540213277
  0.5889753259904243  0.4223718069566806  0.9360736218628662
  0.5667182492254934  0.3838528609504858  0.9360743702361386
  0.2997232532628031  0.6665898577744099  0.7543779011679743
  0.2329507042692311  0.6023374224923076  0.7907150713661539
  0.2329614978935008  0.6793813546766805  0.7907160861797893
  0.2329734721827317  0.7308415637951420  0.7180373183382509
  0.2107163954178012  0.6923226177889472  0.7180380667115233
  0.2774796869442701  0.7564259194182191  0.7907160861797893
  0.3887476570751110  0.7692187781390254  0.8270566690095129
  0.2552226101793394  0.7179069734120244  0.7907168345530616
  0.3219751080815386  0.7049663428569231  0.8633938392076923
  0.3887596313643415  0.8206789872574867  0.7543779011679743
  0.2552345844685703  0.7693671825304859  0.7180380667115233
  0.3887380842181878  0.6665898577744099  0.7543779011679743
  0.3219655352246155  0.6023374224923076  0.7907150713661539
  0.3219763288488856  0.6793813546766805  0.7907160861797893
  0.4777505137412649  0.7177585690205637  0.8997354368510513
  0.3442254668454937  0.6664467642935626  0.8633956023946002
  0.3219883031381165  0.7308415637951420  0.7180373183382509
  0.3664945178996548  0.7564259194182191  0.7907160861797893
  0.4777624880304949  0.7692187781390254  0.8270566690095129
  0.3442374411347242  0.7179069734120244  0.7907168345530616
  0.4777744623197263  0.8206789872574867  0.7543779011679743
  0.3442494154239552  0.7693671825304859  0.7180380667115233
  0.4110246812396550  0.8849306932782189  0.7180373183382509
  0.4555201023769235  0.8334711167169231  0.7907150713661539
  0.2997448004089572  0.8206789872574867  0.7543779011679743
  0.3664849450427316  0.6537969990536033  0.7180373183382509
  0.3442278682778011  0.6152780530474089  0.7180380667115233
  0.4109803661800002  0.6023374224923076  0.7907150713661539
  0.4332402978008781  0.6664467642935626  0.8633956023946002
  0.7225442688642703  0.6537969990536033  0.7180373183382509
  0.8338122389951108  0.6665898577744099  0.7543779011679743
  0.7447934068608779  0.6408624086704857  0.7907168345530616
  0.7448053811501089  0.6923226177889472  0.7180380667115233
  0.7893235702008781  0.7693671825304859  0.7180380667115233
  0.8115590998196550  0.6537969990536033  0.7180373183382509
  0.4777529151735722  0.6665898577744099  0.7543779011679743
  0.3887340830393398  0.6408624086704857  0.7907168345530616
  0.5222711042243414  0.7436344225159482  0.7543779011679743
  0.3887460573285707  0.6923226177889472  0.7180380667115233
  0.4554985552307694  0.6793819872338461  0.7907150713661539
  0.4555093488550391  0.7564259194182191  0.7907160861797893
  0.5667773189858797  0.7692187781390254  0.8270566690095129
  0.4332522720901090  0.7179069734120244  0.7907168345530616
  0.5000047699923077  0.7049663428569231  0.8633938392076923
  0.5000155636165778  0.7820102750412959  0.8633948540213277
  0.4777584868516473  0.7434913290351012  0.8633956023946002
  0.4555213231442701  0.8078861285366803  0.7180373183382509
  0.5000167442815391  0.7564265519753846  0.7907150713661539
  0.4777824354301087  0.8464117472720242  0.7180380667115233
  0.4332426992331858  0.6152780530474089  0.7180380667115233
  0.4999951971353850  0.6023374224923076  0.7907150713661539
  0.5000059907596547  0.6793813546766805  0.7907160861797893
  0.6112739608904952  0.6921742133974867  0.8270566690095129
  0.4777489139947241  0.6408624086704857  0.7907168345530616
  0.5445014118969232  0.6279217781153847  0.8633938392076923
  0.5445122055211934  0.7049657102997574  0.8633948540213277
  0.5222551287562628  0.6664467642935626  0.8633956023946002
  0.5000179650488856  0.7308415637951420  0.7180373183382509
  0.6112859351797262  0.7436344225159482  0.7543779011679743
  0.4777608882839550  0.6923226177889472  0.7180380667115233
  0.5445241798104239  0.7564259194182191  0.7907160861797893
  0.6557921499412644  0.7692187781390254  0.8270566690095129
  0.5667733178070320  0.7434913290351012  0.8633956023946002
  0.5890315752369234  0.7564265519753846  0.7907150713661539
  0.5890423688611931  0.8334704841597572  0.7907160861797893
  0.5667852920962625  0.7949515381535627  0.7907168345530616
  0.5890543431504240  0.8849306932782189  0.7180373183382509
  0.5667972663854934  0.8464117472720242  0.7180380667115233
  0.5445146069535007  0.6537969990536033  0.7180373183382509
  0.5222575301885701  0.6152780530474089  0.7180380667115233
  0.5890100280907697  0.6023374224923076  0.7907150713661539
  0.7002887918458800  0.6921742133974867  0.8270566690095129
  0.6335162428523080  0.6279217781153847  0.8633938392076923
  0.6335270364765778  0.7049657102997574  0.8633948540213277
  0.6112699597116475  0.6664467642935626  0.8633956023946002
  0.5890327960042699  0.7308415637951420  0.7180373183382509
  0.7003007661351109  0.7436344225159482  0.7543779011679743
  0.5667757192393398  0.6923226177889472  0.7180380667115233
  0.6335282171415390  0.6793819872338461  0.7907150713661539
  0.6335390107658087  0.7564259194182191  0.7907160861797893
  0.6780344319030773  0.7049663428569231  0.8633938392076923
  0.6335509850550392  0.8078861285366803  0.7180373183382509
  0.6112939082901085  0.7693671825304859  0.7180380667115233
  0.6780464061923082  0.7564265519753846  0.7907150713661539
  0.6558120973408778  0.8464117472720242  0.7180380667115233
  0.6335294379088855  0.6537969990536033  0.7180373183382509
  0.6112723611439549  0.6152780530474089  0.7180380667115233
  0.6780248590461541  0.6023374224923076  0.7907150713661539
  0.6557785759054936  0.6408624086704857  0.7907168345530616
  0.7225310738076924  0.6279217781153847  0.8633938392076923
  0.6780476269596547  0.7308415637951420  0.7180373183382509
  0.6557905501947245  0.6923226177889472  0.7180380667115233
  0.7225430480969233  0.6793819872338461  0.7907150713661539
  0.7003087392454933  0.7693671825304859  0.7180380667115233
  0.4109169455088857  0.1144850458628342  0.7180373183382509
  0.4999317764642701  0.1144850458628342  0.7180373183382509
  0.7225203531581162  0.2435728154674496  0.2092859434474814
  0.7002632763931861  0.2050538694612549  0.2092866918207542
  0.8115567312596551  0.3976619449505266  0.2092859434474814
  0.4109576712411931  0.1665282507259113  0.2092859434474814
  0.5222256413720341  0.1793211094467174  0.2456265262772051
  0.4554530923784617  0.1150686741646153  0.2819636964753846
  0.4554650666676926  0.1665288832830769  0.2092849286338461
  0.4554758602919627  0.2435728154674496  0.2092859434474814
  0.5667438304228033  0.2563656741882559  0.2456265262772051
  0.4332187835270321  0.2050538694612549  0.2092866918207542
  0.4999712814292309  0.1921132389061535  0.2819636964753846
  0.5222495899504955  0.2822415276836407  0.1002689905941280
  0.4554878345811932  0.2950330245859112  0.1366071756059430
  0.6112620194735725  0.3334102389297946  0.2456265262772051
  0.4999952300076927  0.2950336571430769  0.1366061607923078
  0.4777489468670318  0.3335586433212551  0.1366079239792154
  0.5445122383935007  0.3976619449505266  0.2092859434474814
  0.5222551616285701  0.3591429989443318  0.2092866918207542
  0.4999725021965779  0.1665282507259113  0.2092859434474814
  0.6112404723274184  0.1793211094467174  0.2456265262772051
  0.5444798976230769  0.1665288832830769  0.2092849286338461
  0.5444906912473471  0.2435728154674496  0.2092859434474814
  0.6557586613781876  0.2563656741882559  0.2456265262772051
  0.5222336144824165  0.2050538694612549  0.2092866918207542
  0.5889861123846157  0.1921132389061535  0.2819636964753846
  0.5445026655365780  0.2950330245859112  0.1366071756059430
  0.5222455887716474  0.2565140785797164  0.1366079239792154
  0.5667518035331857  0.2820984342027933  0.2092866918207542
  0.6335043014353849  0.2691578036476922  0.2819636964753846
  0.6557826099566495  0.3592860924251791  0.1002689905941280
  0.5890100609630771  0.2950336571430769  0.1366061607923078
  0.6335162757246154  0.3206180127661538  0.2092849286338461
  0.6335270693488855  0.3976619449505266  0.2092859434474814
  0.7447950394797260  0.4104548036713329  0.2456265262772051
  0.6780224904861542  0.3462023683892306  0.2819636964753846
  0.5889873331519626  0.1665282507259113  0.2092859434474814
  0.7002553032828032  0.1793211094467174  0.2456265262772051
  0.7447734923335724  0.2563656741882559  0.2456265262772051
  0.6112484454378012  0.2050538694612549  0.2092866918207542
  0.6780009433400005  0.1921132389061535  0.2819636964753846
  0.6335174964919628  0.2950330245859112  0.1366071756059430
  0.7447854666228029  0.3078258833067176  0.1729477584356666
  0.6112604197270322  0.2565140785797164  0.1366079239792154
  0.6780129176292309  0.2435734480246154  0.2092849286338461
  0.6557666344885705  0.2820984342027933  0.2092866918207542
  0.7225191323907697  0.2691578036476922  0.2819636964753846
  0.7225311066800002  0.3206180127661538  0.2092849286338461
  0.7225419003042703  0.3976619449505266  0.2092859434474814
  0.8338098704351108  0.4104548036713329  0.2456265262772051
  0.7002848235393397  0.3591429989443318  0.2092866918207542
  0.7670373214415389  0.3462023683892306  0.2819636964753846
  0.2996993375566490  0.2563656741882559  0.2456265262772051
  0.2997113118458799  0.3078258833067176  0.1729477584356666
  0.3219631666646155  0.3462023683892306  0.2819636964753846
  0.3887141685120338  0.2563656741882559  0.2456265262772051
  0.3219416195184614  0.1921132389061535  0.2819636964753846
  0.3887261428012647  0.3078258833067176  0.1729477584356666
  0.3219535938076927  0.2435734480246154  0.2092849286338461
  0.3219643874319624  0.3206173802089881  0.2092859434474814
  0.4332323575628034  0.3334102389297946  0.2456265262772051
  0.3887381170904947  0.3592860924251791  0.1002689905941280
  0.3219655680969232  0.2950336571430769  0.1366061607923078
  0.3219763617211934  0.3720775893274496  0.1366071756059430
  0.4332443318520339  0.3848704480482560  0.1729477584356666
  0.3442254997178006  0.3591429989443318  0.2092866918207542
  0.4109779976200003  0.3462023683892306  0.2819636964753846
  0.4777289994674185  0.2563656741882559  0.2456265262772051
  0.3442039525716469  0.2050538694612549  0.2092866918207542
  0.4109564504738462  0.1921132389061535  0.2819636964753846
  0.4109792183873472  0.3206173802089881  0.2092859434474814
  0.5222471885181882  0.3334102389297946  0.2456265262772051
  0.4109911926765781  0.3720775893274496  0.1366071756059430
  0.5222591628074187  0.3848704480482560  0.1729477584356666
  0.2329495564765781  0.3206173802089881  0.2092859434474814
  0.1661878646966495  0.3334102389297946  0.2456265262772051
  0.2107060537474183  0.4104548036713329  0.2456265262772051
  0.1439335047538459  0.3462023683892306  0.2819636964753846
  0.2106845066012646  0.2563656741882559  0.2456265262772051
  0.1884301466584619  0.2691578036476922  0.2819636964753846
  0.2997208847028031  0.4104548036713329  0.2456265262772051
  0.2329483357092312  0.3462023683892306  0.2819636964753846
  0.5000179979211934  0.4235377984459112  0.0639284077644045
  0.5445134190584620  0.3720782218846153  0.1366061607923078
  0.5445242126827317  0.4491221540689879  0.1366071756059430
  0.5222671359178011  0.4106032080627934  0.1366079239792154
  0.5890196338200002  0.3976625775076923  0.2092849286338461
  0.5890304274442704  0.4747065096920651  0.2092859434474814
  0.7002983975751109  0.4874993684128713  0.2456265262772051
  0.5667733506793398  0.4361875636858704  0.2092866918207542
  0.6335258485815386  0.4232469331307692  0.2819636964753846
  0.5445361869719626  0.5005823631874498  0.0639284077644045
  0.6558041571028032  0.5133752219082559  0.1002689905941280
  0.5890424017335009  0.5261667188105267  0.1366071756059430
  0.7003103718643414  0.5389595775313328  0.1729477584356666
  0.6335378228707695  0.4747071422492306  0.2092849286338461
  0.7448165866258801  0.5645439331544098  0.2456265262772051
  0.5890435823984617  0.5005829957446153  0.0639273929507692
  0.7003223461535724  0.5904197866497944  0.1002689905941280
  0.5667972992578012  0.5391079819227935  0.0639291561376770
  0.6335497971600004  0.5261673513676922  0.1366061607923078
  0.7448285609151106  0.6160041422728713  0.1729477584356666
  0.6113035140193395  0.5646923375458702  0.1366079239792154
  0.6780560119215387  0.5517517069907693  0.2092849286338461
  0.7893347756766494  0.6415884978959482  0.2456265262772051
  0.6558097287808783  0.5902766931689474  0.2092866918207542
  0.7225622266830775  0.5773360626138461  0.2819636964753846
  0.6780787798350393  0.6802558482936034  0.1366071756059430
  0.6558217030701088  0.6417369022874089  0.1366079239792154
  0.7225849945965781  0.7058402039166805  0.2092859434474814
  0.7670804157338462  0.6543806273553845  0.2819636964753846
  0.7670923900230772  0.7058408364738463  0.2092849286338461
  0.7448461068824167  0.7443658226520241  0.2092866918207542
  0.8115986047846154  0.7314251920969230  0.2819636964753846
  0.5890328288765777  0.4235377984459112  0.0639284077644045
  0.7003007990074187  0.4363306571667174  0.1002689905941280
  0.5667757521116475  0.3850188524397166  0.0639291561376770
  0.6335282500138467  0.3720782218846153  0.1366061607923078
  0.6335390436381164  0.4491221540689879  0.1366071756059430
  0.6112819668731858  0.4106032080627934  0.1366079239792154
  0.6780344647753851  0.3976625775076923  0.2092849286338461
  0.7893132285304952  0.4874993684128713  0.2456265262772051
  0.6557881816347242  0.4361875636858704  0.2092866918207542
  0.7225406795369234  0.4232469331307692  0.2819636964753846
  0.6780572326888856  0.5261667188105267  0.1366071756059430
  0.7893252028197262  0.5389595775313328  0.1729477584356666
  0.6558001559239550  0.4876477728043318  0.1366079239792154
  0.7225526538261543  0.4747071422492306  0.2092849286338461
  0.7225634474504240  0.5517510744336036  0.2092859434474814
  0.7003063706854934  0.5132321284274088  0.2092866918207542
  0.7670588685876926  0.5002914978723076  0.2819636964753846
  0.7225754217396548  0.6032112835520648  0.1366071756059430
  0.7003183449747247  0.5646923375458702  0.1366079239792154
  0.7670708428769235  0.5517517069907693  0.2092849286338461
  0.7670816365011932  0.6287956391751420  0.2092859434474814
  0.7448245597362630  0.5902766931689474  0.2092866918207542
  0.7225430809692315  0.3720782218846153  0.1366061607923078
  0.7225538745935012  0.4491221540689879  0.1366071756059430
  0.7002967978285706  0.4106032080627934  0.1366079239792154
  0.7670600893550396  0.4747065096920651  0.2092859434474814
  0.7670612700200007  0.4491227866261537  0.1366061607923078
  0.7448149868793394  0.4876477728043318  0.1366079239792154
  0.8115674847815386  0.4747071422492306  0.2092849286338461
  0.8115782784058092  0.5517510744336036  0.2092859434474814
  0.8560736995430773  0.5002914978723076  0.2819636964753846
  0.8560749203104239  0.4747065096920651  0.2092859434474814
  0.8338178435454937  0.4361875636858704  0.2092866918207542
  0.1217127699381877  0.5645439331544098  0.2456265262772051
  0.2107491480397261  0.7186330626374865  0.2456265262772051
  0.1439765990461541  0.6543806273553845  0.2819636964753846
  0.2552673370904962  0.7956776273790251  0.2456265262772051
  0.1662309589889569  0.6415884978959482  0.2456265262772051
  0.5223022570997260  0.6930487070144099  0.1729477584356666
  0.4555405017304238  0.7058402039166805  0.2092859434474814
  0.4555416823953850  0.6802564808507695  0.1366061607923078
  0.4555524760196551  0.7573004130351420  0.1366071756059430
  0.6113266609120344  0.7956776273790251  0.2456265262772051
  0.4778016140162624  0.7443658226520241  0.2092866918207542
  0.5445541119184616  0.7314251920969230  0.2819636964753846
  0.5445660862076925  0.7828854012153845  0.2092849286338461
  0.4332563061412644  0.4363306571667174  0.1002689905941280
  0.3664837571476924  0.3720782218846153  0.1366061607923078
  0.3664945507719621  0.4491221540689879  0.1366071756059430
  0.4110007655335008  0.4747065096920651  0.2092859434474814
  0.5222687356643414  0.4874993684128713  0.2456265262772051
  0.3887436887685703  0.4361875636858704  0.2092866918207542
  0.3665065250611931  0.5005823631874498  0.0639284077644045
  0.4777744951920332  0.5133752219082559  0.1002689905941280
  0.3887556630578007  0.4876477728043318  0.1366079239792154
  0.4555081609600000  0.4747071422492306  0.2092849286338461
  0.4332618778193395  0.5132321284274088  0.2092866918207542
  0.5000143757215383  0.5002914978723076  0.2819636964753846
  0.4555201352492313  0.5261673513676922  0.1366061607923078
  0.4555309288735006  0.6032112835520648  0.1366071756059430
  0.4332738521085708  0.5646923375458702  0.1366079239792154
  0.5000263500107691  0.5517517069907693  0.2092849286338461
  0.5000371436350393  0.6287956391751420  0.2092859434474814
  0.6113051137658798  0.6415884978959482  0.2456265262772051
  0.4777800668701087  0.5902766931689474  0.2092866918207542
  0.4332858263978013  0.6161525466643321  0.0639291561376770
  0.6113170880551108  0.6930487070144099  0.1729477584356666
  0.5445553326858086  0.7058402039166805  0.2092859434474814
  0.5445565133507693  0.6802564808507695  0.1366061607923078
  0.5445673069750399  0.7573004130351420  0.1366071756059430
  0.7003414918674183  0.7956776273790251  0.2456265262772051
  0.5668164449716472  0.7443658226520241  0.2092866918207542
  0.6335689428738464  0.7314251920969230  0.2819636964753846
  0.6335809171630769  0.7828854012153845  0.2092849286338461
  0.4554985881030772  0.3720782218846153  0.1366061607923078
  0.4555093817273473  0.4491221540689879  0.1366071756059430
  0.5667773518581875  0.4619150127897944  0.1729477584356666
  0.6112835666197262  0.4874993684128713  0.2456265262772051
  0.4777585197239546  0.4361875636858704  0.2092866918207542
  0.4555105623923077  0.4235384310030768  0.0639273929507692
  0.4555213560165778  0.5005823631874498  0.0639284077644045
  0.5445337855396544  0.5517510744336036  0.2092859434474814
  0.6558017556704954  0.5645439331544098  0.2456265262772051
  0.5445349662046156  0.5261673513676922  0.1366061607923078
  0.5222886830639547  0.5646923375458702  0.1366079239792154
  0.7003199447212646  0.6415884978959482  0.2456265262772051
  0.5667948978254931  0.5902766931689474  0.2092866918207542
  0.6558257042489568  0.6674643513913328  0.1002689905941280
  0.5223006573531856  0.6161525466643321  0.0639291561376770
  0.7003319190104951  0.6930487070144099  0.1729477584356666
  0.5668068721147239  0.6417369022874089  0.1366079239792154
  0.6335593700169232  0.6287962717323076  0.2092849286338461
  0.6335701636411929  0.7058402039166805  0.2092859434474814
  0.6558312759270319  0.7443658226520241  0.2092866918207542
  0.5000359228676924  0.6543806273553845  0.2819636964753846
  0.4777920411593400  0.6417369022874089  0.1366079239792154
  0.6780871319246156  0.8084697568384615  0.2819636964753846
  0.5445457598288858  0.6032112835520648  0.1366071756059430
  0.1662094118428028  0.4874993684128713  0.2456265262772051
  0.2107276008935720  0.5645439331544098  0.2456265262772051
  0.1439550519000003  0.5002914978723076  0.2819636964753846
  0.2107395751828029  0.6160041422728713  0.1729477584356666
  0.1884732409507693  0.5773360626138461  0.2819636964753846
  0.3442821680458801  0.7956776273790251  0.2456265262772051
  0.3220278081030769  0.8084697568384615  0.2819636964753846
  0.1439562726673466  0.4747065096920651  0.2092859434474814
  0.2552242427981876  0.4874993684128713  0.2456265262772051
  0.2552362170874180  0.5389595775313328  0.1729477584356666
  0.1884744617181158  0.5517510744336036  0.2092859434474814
  0.2997424318489568  0.5645439331544098  0.2456265262772051
  0.1662173849531856  0.5132321284274088  0.2092866918207542
  0.2329698828553848  0.5002914978723076  0.2819636964753846
  0.2329818571446153  0.5517517069907693  0.2092849286338461
  0.3442606208997260  0.6415884978959482  0.2456265262772051
  0.2107355740039548  0.5902766931689474  0.2092866918207542
  0.2774880719061540  0.5773360626138461  0.2819636964753846
  0.3442725951889565  0.6930487070144099  0.1729477584356666
  0.2775000461953845  0.6287962717323076  0.2092849286338461
  0.2775108398196551  0.7058402039166805  0.2092859434474814
  0.2552537630547241  0.6673212579104858  0.2092866918207542
  0.3220062609569233  0.6543806273553845  0.2819636964753846
  0.4332969990012648  0.7956776273790251  0.2456265262772051
  0.2997719521054933  0.7443658226520241  0.2092866918207542
  0.3665364242969230  0.7828854012153845  0.2092849286338461
  0.4778151880520337  0.8727221921205637  0.2456265262772051
  0.2329603099984616  0.3976625775076923  0.2092849286338461
  0.2329711036227313  0.4747065096920651  0.2092859434474814
  0.3442390737535723  0.4874993684128713  0.2456265262772051
  0.2107140268578012  0.4361875636858704  0.2092866918207542
  0.2774665247600004  0.4232469331307692  0.2819636964753846
  0.2997448332812641  0.5133752219082559  0.1002689905941280
  0.2329722842876930  0.4491227866261537  0.1366061607923078
  0.2329830779119622  0.5261667188105267  0.1366071756059430
  0.2774784990492308  0.4747071422492306  0.2092849286338461
  0.2774892926735005  0.5517510744336036  0.2092859434474814
  0.3887572628043415  0.5645439331544098  0.2456265262772051
  0.2552322159085704  0.5132321284274088  0.2092866918207542
  0.2774904733384622  0.5261673513676922  0.1366061607923078
  0.2775012669627315  0.6032112835520648  0.1366071756059430
  0.3887692370935720  0.6160041422728713  0.1729477584356666
  0.2552441901978009  0.5646923375458702  0.1366079239792154
  0.4332754518551107  0.6415884978959482  0.2456265262772051
  0.3665029028615388  0.5773360626138461  0.2819636964753846
  0.4332874261443412  0.6930487070144099  0.1729477584356666
  0.3665148771507693  0.6287962717323076  0.2092849286338461
  0.3665256707750390  0.7058402039166805  0.2092859434474814
  0.4110210919123080  0.6543806273553845  0.2819636964753846
  0.3665268514400002  0.6802564808507695  0.1366061607923078
  0.5223118299566496  0.7956776273790251  0.2456265262772051
  0.3887867830608780  0.7443658226520241  0.2092866918207542
  0.4555392809630772  0.7314251920969230  0.2819636964753846
  0.4555512552523077  0.7828854012153845  0.2092849286338461
  0.3442414751858801  0.4363306571667174  0.1002689905941280
  0.2774689261923077  0.3720782218846153  0.1366061607923078
  0.2774797198165778  0.4491221540689879  0.1366071756059430
  0.2552226430516472  0.4106032080627934  0.1366079239792154
  0.4332539047089571  0.4874993684128713  0.2456265262772051
  0.2997288578131855  0.4361875636858704  0.2092866918207542
  0.3664933300046156  0.4747071422492306  0.2092849286338461
  0.3665041236288853  0.5517510744336036  0.2092859434474814
  0.3442470468639547  0.5132321284274088  0.2092866918207542
  0.4109995447661539  0.5002914978723076  0.2819636964753846
  0.3665053042938465  0.5261673513676922  0.1366061607923078
  0.3665160979181162  0.6032112835520648  0.1366071756059430
  0.3442590211531856  0.5646923375458702  0.1366079239792154
  0.4110115190553849  0.5517517069907693  0.2092849286338461
  0.4110223126796546  0.6287956391751420  0.2092859434474814
  0.5222902828104955  0.6415884978959482  0.2456265262772051
  0.3887652359147240  0.5902766931689474  0.2092866918207542
  0.4555608281092313  0.8855143215799998  0.2819636964753846
  0.5445756590646157  0.8855143215799998  0.2819636964753846
  0.5222016927935726  0.0764006912097944  0.3909840619602819
  0.5667079075551106  0.1019850468328713  0.4636628298018202
  0.4999461521858087  0.1147765437351420  0.5000010148136353
  0.6112141223166493  0.1275694024559483  0.5363415976433590
  0.4776890754208781  0.0762575977289474  0.5000017631869077
  0.5444415733230773  0.0633169671738462  0.5726787678415384
  0.7670265679196550  0.2691571710905264  0.2819647112890201
  0.8115327826811932  0.2947415267136033  0.3546434791305583
  0.8337819206778013  0.2818069363304858  0.4273229953453694
  0.8782881354393397  0.3073912919535627  0.5000017631869077
  0.9227943502008784  0.3329756475766397  0.5726805310284461
  0.8115447569704242  0.3462017358320651  0.2819647112890201
  0.8337938949670323  0.3332671454489473  0.3546442275038309
  0.9005463928692310  0.3203265148938463  0.4273212321584612
  0.9005571864935011  0.3973704470782190  0.4273222469720970
  0.8560629460211934  0.4232463005736035  0.2819647112890201
  0.9005583671584619  0.3717867240123076  0.3546424643169230
  0.9450753755442703  0.4744150118197574  0.4273222469720970
  0.5889585817088857  0.1659452549812959  0.6453585504967121
  0.7002265518397263  0.1787381137021022  0.6816991333264355
  0.5667015049439552  0.1274263089751012  0.6453592988699849
  0.4554519117135009  0.1406523972305266  0.3546434791305583
  0.5667198818443419  0.1534452559513330  0.3909840619602819
  0.4999581264750397  0.1662367528536036  0.4273222469720970
  0.4777010497101091  0.1277178068474089  0.4273229953453694
  0.5444643412365779  0.1918211084766805  0.5000010148136353
  0.6557323113674185  0.2046139671974868  0.5363415976433590
  0.5889597623738465  0.1403615319153846  0.5726787678415384
  0.5889705559981167  0.2174054640997573  0.5726797826551737
  0.7002385261289568  0.2301983228205637  0.6090203654848974
  0.5667134792331856  0.1788865180935627  0.5726805310284461
  0.6779721918969231  0.1915302431615384  0.7180363035246153
  0.4554638860027319  0.1921126063489882  0.2819647112890201
  0.5667318561335724  0.2049054650697944  0.3183052941187435
  0.6112380708951111  0.2304898206928713  0.3909840619602819
  0.5444655219015387  0.1662373854107692  0.4273212321584612
  0.5444763155258089  0.2432813175951419  0.4273222469720970
  0.6557442856566494  0.2560741763159482  0.4636628298018202
  0.5222192387608783  0.2047623715889473  0.4273229953453694
  0.5889717366630770  0.1918217410338462  0.5000000000000000
  0.5667254535224165  0.2303467272120242  0.5000017631869077
  0.7447567151797260  0.3072428875621022  0.6090203654848974
  0.6779841661861541  0.2429904522800000  0.6453575356830770
  0.6779949598104242  0.3200343844643729  0.6453585504967121
  0.6557378830454936  0.2815154384581781  0.6453592988699849
  0.7224903809476928  0.2685748079030769  0.7180363035246153
  0.4999820750535011  0.2691571710905264  0.2819647112890201
  0.4777249982885705  0.2306382250843319  0.2819654596622923
  0.5444774961907697  0.2176975945292307  0.3546424643169230
  0.5444882898150394  0.2947415267136033  0.3546434791305583
  0.6557562599458804  0.3075343854344097  0.3909840619602819
  0.5222312130501092  0.2562225807074089  0.3546442275038309
  0.5667374278116475  0.2818069363304858  0.4273229953453694
  0.6334899257138462  0.2688663057753846  0.5000000000000000
  0.6335007193381164  0.3459102379597575  0.5000010148136353
  0.6779961404753850  0.2944506613984615  0.5726787678415384
  0.6780069340996547  0.3714945935828344  0.5726797826551737
  0.7892749042304956  0.3842874523036408  0.6090203654848974
  0.7225023552369233  0.3200350170215385  0.6453575356830770
  0.8337811189920340  0.4098718079267176  0.6816991333264355
  0.7670085699984620  0.3456193726446152  0.7180363035246153
  0.5445002641042703  0.3462017358320651  0.2819647112890201
  0.6557682342351108  0.3589945945528715  0.3183052941187435
  0.5222431873393397  0.3076827898258703  0.2819654596622923
  0.5890064788658086  0.3717860914551417  0.3546434791305583
  0.7002744489966496  0.3845789501759484  0.3909840619602819
  0.6335019000030776  0.3203265148938463  0.4273212321584612
  0.7447806637581874  0.4101633057990252  0.4636628298018202
  0.6780081147646159  0.3459108705169231  0.5000000000000000
  0.6780189083888856  0.4229548027012959  0.5000010148136353
  0.6557618316239550  0.3844358566951011  0.5000017631869077
  0.7225251231504239  0.4485391583243727  0.5726797826551737
  0.8337930932812648  0.4613320170451792  0.6090203654848974
  0.7002680463854933  0.4100202123181780  0.5726805310284461
  0.8782993080428032  0.4869163726682560  0.6816991333264355
  0.7447742611470320  0.4356045679412550  0.6453592988699849
  0.8115267590492308  0.4226639373861538  0.7180363035246153
  0.5890184531550395  0.4232463005736035  0.2819647112890201
  0.7002864232858801  0.4360391592944097  0.3183052941187435
  0.5667613763901089  0.3847273545674089  0.2819654596622923
  0.6335138742923077  0.3717867240123076  0.3546424643169230
  0.6112675911516476  0.4103117101904857  0.3546442275038309
  0.6780200890538464  0.3973710796353844  0.4273212321584612
  0.6780308826781165  0.4744150118197574  0.4273222469720970
  0.7892988528089571  0.4872078705405636  0.4636628298018202
  0.7225263038153846  0.4229554352584615  0.5000000000000000
  0.8338050675704953  0.5127922261636406  0.5363415976433590
  0.7447862354362625  0.4870647770597167  0.5726805310284461
  0.8115387333384613  0.4741241465046153  0.6453575356830770
  0.8115495269627319  0.5511680786889882  0.6453585504967121
  0.8560449481000004  0.4997085021276922  0.7180363035246153
  0.4999485536181165  0.0636078324889880  0.3546434791305583
  0.6112165237489570  0.0764006912097944  0.3909840619602819
  0.5444547683796548  0.0891921881120650  0.4273222469720970
  0.5889609831411931  0.1147765437351420  0.5000010148136353
  0.7002289532720340  0.1275694024559483  0.5363415976433590
  0.6779734126642701  0.1659452549812959  0.6453585504967121
  0.6557163358993395  0.1274263089751012  0.6453592988699849
  0.6112284980381879  0.1278609003282560  0.3183052941187435
  0.5444667426688857  0.1406523972305266  0.3546434791305583
  0.6557347127997263  0.1534452559513330  0.3909840619602819
  0.5222096659039551  0.1021334512243319  0.3546442275038309
  0.5889621638061543  0.0891928206692308  0.4273212321584612
  0.5889729574304240  0.1662367528536036  0.4273222469720970
  0.7002409275612645  0.1790296115744099  0.4636628298018202
  0.5667158806654938  0.1277178068474089  0.4273229953453694
  0.7447471423228033  0.2046139671974868  0.5363415976433590
  0.6779745933292313  0.1403615319153846  0.5726787678415384
  0.6779853869535010  0.2174054640997573  0.5726797826551737
  0.7892533570843415  0.2301983228205637  0.6090203654848974
  0.6557283101885704  0.1788865180935627  0.5726805310284461
  0.7224808080907696  0.1659458875384615  0.6453575356830770
  0.7224916017150393  0.2429898197228342  0.6453585504967121
  0.8337595718458803  0.2557826784436406  0.6816991333264355
  0.7002345249501087  0.2044708737166397  0.6453592988699849
  0.5444787169581161  0.1921126063489882  0.2819647112890201
  0.5889741380953852  0.1406530297876923  0.3546424643169230
  0.7002529018504955  0.2304898206928713  0.3909840619602819
  0.6334803528569235  0.1662373854107692  0.4273212321584612
  0.6334911464811932  0.2432813175951419  0.4273222469720970
  0.7447591166120338  0.2560741763159482  0.4636628298018202
  0.6779865676184618  0.1918217410338462  0.5000000000000000
  0.6779973612427319  0.2688656732182189  0.5000010148136353
  0.6557402844778013  0.2303467272120242  0.5000017631869077
  0.7224927823800006  0.2174060966569231  0.5726787678415384
  0.7225035760042703  0.2944500288412958  0.5726797826551737
  0.8337715461351107  0.3072428875621022  0.6090203654848974
  0.7002464992393397  0.2559310828351013  0.5726805310284461
  0.7670097907658086  0.3200343844643729  0.6453585504967121
  0.7447527140008784  0.2815154384581781  0.6453592988699849
  0.8115052119030771  0.2685748079030769  0.7180363035246153
  0.7002648761397263  0.2819500298113328  0.3183052941187435
  0.5667398292439553  0.2306382250843319  0.2819654596622923
  0.6334923271461544  0.2176975945292307  0.3546424643169230
  0.6335031207704241  0.2947415267136033  0.3546434791305583
  0.6112460440054935  0.2562225807074089  0.3546442275038309
  0.6779985419076927  0.2432819501523076  0.4273212321584612
  0.7892773056628030  0.3331187410574866  0.4636628298018202
  0.6557522587670322  0.2818069363304858  0.4273229953453694
  0.7225155502935011  0.3459102379597575  0.5000010148136353
  0.8337835204243417  0.3587030966805638  0.5363415976433590
  0.7670217650550395  0.3714945935828344  0.5726797826551737
  0.8782897351858800  0.3842874523036408  0.6090203654848974
  0.8115279798165778  0.3970789492059112  0.6453585504967121
  0.8560234009538463  0.3456193726446152  0.7180363035246153
  0.6335150950596546  0.3462017358320651  0.2819647112890201
  0.6112580182947240  0.3076827898258703  0.2819654596622923
  0.6780105161969232  0.2947421592707692  0.3546424643169230
  0.6780213098211934  0.3717860914551417  0.3546434791305583
  0.7892892799520339  0.3845789501759484  0.3909840619602819
  0.6557642330562627  0.3332671454489473  0.3546442275038309
  0.7225167309584619  0.3203265148938463  0.4273212321584612
  0.7225275245827316  0.3973704470782190  0.4273222469720970
  0.7670229457200002  0.3459108705169231  0.5000000000000000
  0.7670337393442700  0.4229548027012959  0.5000010148136353
  0.8783017094751109  0.4357476614221023  0.5363415976433590
  0.7447766625793397  0.3844358566951011  0.5000017631869077
  0.8115291604815390  0.3714952261400000  0.5726787678415384
  0.8115399541058087  0.4485391583243727  0.5726797826551737
  0.7892828773408781  0.4100202123181780  0.5726805310284461
  0.8560353752430773  0.3970795817630769  0.6453575356830770
  0.8560461688673470  0.4741235139474497  0.6453585504967121
  0.8337890921024164  0.4356045679412550  0.6453592988699849
  0.6780332841104239  0.4232463005736035  0.2819647112890201
  0.7893012542412648  0.4360391592944097  0.3183052941187435
  0.6557762073454932  0.3847273545674089  0.2819654596622923
  0.7225287052476924  0.3717867240123076  0.3546424643169230
  0.7670457136335008  0.4744150118197574  0.4273222469720970
  0.8783136837643414  0.4872078705405636  0.4636628298018202
  0.7447886368685707  0.4358960658135627  0.4273229953453694
  0.8115411347707695  0.4229554352584615  0.5000000000000000
  0.9228198985258801  0.5127922261636406  0.5363415976433590
  0.8560473495323082  0.4485397908815383  0.5726787678415384
  0.8560581431565779  0.5255837230659112  0.5726797826551737
  0.8338010663916473  0.4870647770597167  0.5726805310284461
  0.9005643579181162  0.5511680786889882  0.6453585504967121
  0.6779758140965778  0.1147765437351420  0.5000010148136353
  0.7224820288581165  0.1403608993582189  0.5726797826551737
  0.7002249520931859  0.1018419533520244  0.5726805310284461
  0.5889753588627317  0.1150680416074497  0.2819647112890201
  0.7002433289935727  0.1278609003282560  0.3183052941187435
  0.6334815736242705  0.1406523972305266  0.3546434791305583
  0.7447495437551110  0.1534452559513330  0.3909840619602819
  0.6112244968593399  0.1021334512243319  0.3546442275038309
  0.6779769947615391  0.0891928206692308  0.4273212321584612
  0.6779877883858088  0.1662367528536036  0.4273222469720970
  0.6557307116208781  0.1277178068474089  0.4273229953453694
  0.7224940031473470  0.1918211084766805  0.5000010148136353
  0.8337619732781880  0.2046139671974868  0.5363415976433590
  0.7002369263824164  0.1533021624704858  0.5000017631869077
  0.7670002179088858  0.2174054640997573  0.5726797826551737
  0.7447431411439552  0.1788865180935627  0.5726805310284461
  0.7892493559054935  0.2044708737166397  0.6453592988699849
  0.6334935479135010  0.1921126063489882  0.2819647112890201
  0.7447615180443414  0.2049054650697944  0.3183052941187435
  0.6112364711485704  0.1535936603427934  0.2819654596622923
  0.6779997626750397  0.2176969619720650  0.3546434791305583
  0.7892677328058803  0.2304898206928713  0.3909840619602819
  0.7224951838123083  0.1662373854107692  0.4273212321584612
  0.7002489006716474  0.2047623715889473  0.4273229953453694
  0.7670013985738465  0.1918217410338462  0.5000000000000000
  0.7670121921981162  0.2688656732182189  0.5000010148136353
  0.8782801623289572  0.2816585319390252  0.5363415976433590
  0.7447551154331856  0.2303467272120242  0.5000017631869077
  0.8115076133353853  0.2174060966569231  0.5726787678415384
  0.8115184069596550  0.2944500288412958  0.5726797826551737
  0.6780117369642702  0.2691571710905264  0.2819647112890201
  0.7892797070951112  0.2819500298113328  0.3183052941187435
  0.6557546601993396  0.2306382250843319  0.2819654596622923
  0.7225071581015388  0.2176975945292307  0.3546424643169230
  0.7225179517258085  0.2947415267136033  0.3546434791305583
  0.7002608749608783  0.2562225807074089  0.3546442275038309
  0.7670133728630775  0.2432819501523076  0.4273212321584612
  0.7670241664873472  0.3203258823366804  0.4273222469720970
  0.7447670897224166  0.2818069363304858  0.4273229953453694
  0.8115195876246157  0.2688663057753846  0.5000000000000000
  0.8115303812488854  0.3459102379597575  0.5000010148136353
  0.9227983513797264  0.3587030966805638  0.5363415976433590
  0.7892733044839549  0.3073912919535627  0.5000017631869077
  0.8560258023861541  0.2944506613984615  0.5726787678415384
  0.8560365960104243  0.3714945935828344  0.5726797826551737
  0.8337795192454936  0.3329756475766397  0.5726805310284461
  0.9005428107719625  0.3970789492059112  0.6453585504967121
  0.7225299260150394  0.3462017358320651  0.2819647112890201
  0.7002728492501088  0.3076827898258703  0.2819654596622923
  0.8783041109074187  0.3845789501759484  0.3909840619602819
  0.7447790640116475  0.3332671454489473  0.3546442275038309
  0.8115423555381164  0.3973704470782190  0.4273222469720970
  0.9228103256689569  0.4101633057990252  0.4636628298018202
  0.8560377766753851  0.3459108705169231  0.5000000000000000
  0.8337914935347241  0.3844358566951011  0.5000017631869077
  0.9005439914369233  0.3714952261400000  0.5726787678415384
  0.9005547850611935  0.4485391583243727  0.5726797826551737
  0.8782977082962629  0.4100202123181780  0.5726805310284461
  0.8783160851966492  0.4360391592944097  0.3183052941187435
  0.8115435362030772  0.3717867240123076  0.3546424643169230
  0.8115543298273473  0.4488306561966802  0.3546434791305583
  0.9228222999581879  0.4616235149174868  0.3909840619602819
  0.8560605445888856  0.4744150118197574  0.4273222469720970
  0.8338034678239550  0.4358960658135627  0.4273229953453694
  0.9005667593504240  0.4999993674428342  0.5000010148136353
  0.8783096825854934  0.4614804214366396  0.5000017631869077
  0.9450729741119627  0.5255837230659112  0.5726797826551737
  0.9228158973470321  0.4870647770597167  0.5726805310284461
  0.7670026193411931  0.1662367528536036  0.4273222469720970
  0.7447455425762629  0.1277178068474089  0.4273229953453694
  0.8115088341027318  0.1918211084766805  0.5000010148136353
  0.7892517573378012  0.1533021624704858  0.5000017631869077
  0.7225083788688857  0.1921126063489882  0.2819647112890201
  0.7670145936304240  0.2176969619720650  0.3546434791305583
  0.8560270231535010  0.2688656732182189  0.5000010148136353
  0.8337699463885705  0.2303467272120242  0.5000017631869077
  0.2329375821873472  0.2691571710905264  0.2819647112890201
  0.2106805054224166  0.2306382250843319  0.2819654596622923
  0.2774437969488855  0.2947415267136033  0.3546434791305583
  0.3219500117104238  0.3203258823366804  0.4273222469720970
  0.2996929349454936  0.2818069363304858  0.4273229953453694
  0.3664454328476924  0.2688663057753846  0.5000000000000000
  0.3664562264719630  0.3459102379597575  0.5000010148136353
  0.4777241966028031  0.3587030966805638  0.5363415976433590
  0.4109516476092311  0.2944506613984615  0.5726787678415384
  0.4554578623707694  0.3200350170215385  0.6453575356830770
  0.4554686559950396  0.3970789492059112  0.6453585504967121
  0.5667366261258800  0.4098718079267176  0.6816991333264355
  0.3887237413689569  0.3589945945528715  0.3183052941187435
  0.3219619859996547  0.3717860914551417  0.3546434791305583
  0.4777361708920340  0.4101633057990252  0.4636628298018202
  0.4109636218984620  0.3459108705169231  0.5000000000000000
  0.3887173387578011  0.3844358566951011  0.5000017631869077
  0.4554698366600003  0.3714952261400000  0.5726787678415384
  0.5667486004151105  0.4613320170451792  0.6090203654848974
  0.4332235535193399  0.4100202123181780  0.5726805310284461
  0.4999868450458088  0.4741235139474497  0.6453585504967121
  0.3219739602888856  0.4232463005736035  0.2819647112890201
  0.4777481451812645  0.4616235149174868  0.3909840619602819
  0.4109755961876925  0.3973710796353844  0.4273212321584612
  0.4109863898119627  0.4744150118197574  0.4273222469720970
  0.3887293130470321  0.4358960658135627  0.4273229953453694
  0.4554818109492312  0.4229554352584615  0.5000000000000000
  0.4554926045735009  0.4999993674428342  0.5000010148136353
  0.4332355278085703  0.4614804214366396  0.5000017631869077
  0.6112667894658798  0.5383765817867175  0.6090203654848974
  0.5445050340965780  0.5511680786889882  0.6453585504967121
  0.5222479573316474  0.5126491326827936  0.6453592988699849
  0.5890004552338466  0.4997085021276922  0.7180363035246153
  0.3886902199335723  0.1534452559513330  0.3909840619602819
  0.4777026494566494  0.2046139671974868  0.5363415976433590
  0.5667150789797260  0.2557826784436406  0.6816991333264355
  0.2774342240919623  0.1921126063489882  0.2819647112890201
  0.3887021942228033  0.2049054650697944  0.3183052941187435
  0.3219404388535010  0.2176969619720650  0.3546434791305583
  0.3664358599907701  0.1662373854107692  0.4273212321584612
  0.4777146237458803  0.2560741763159482  0.4636628298018202
  0.3441895768501083  0.2047623715889473  0.4273229953453694
  0.4109528683765781  0.2688656732182189  0.5000010148136353
  0.3886957916116475  0.2303467272120242  0.5000017631869077
  0.4554590831381163  0.2944500288412958  0.5726797826551737
  0.5667270532689569  0.3072428875621022  0.6090203654848974
  0.4332020063731858  0.2559310828351013  0.5726805310284461
  0.5444607190369233  0.2685748079030769  0.7180363035246153
  0.4777265980351108  0.3075343854344097  0.3909840619602819
  0.3442015511393401  0.2562225807074089  0.3546442275038309
  0.4109540490415388  0.2432819501523076  0.4273212321584612
  0.4109648426658086  0.3203258823366804  0.4273222469720970
  0.5667390275581874  0.3587030966805638  0.5363415976433590
  0.5444726933261542  0.3200350170215385  0.6453575356830770
  0.5444834869504239  0.3970789492059112  0.6453585504967121
  0.6557514570812645  0.4098718079267176  0.6816991333264355
  0.5222264101854938  0.3585600031997166  0.6453592988699849
  0.4777385723243417  0.3589945945528715  0.3183052941187435
  0.3442135254285706  0.3076827898258703  0.2819654596622923
  0.4109660233307693  0.2947421592707692  0.3546424643169230
  0.4109768169550395  0.3717860914551417  0.3546434791305583
  0.5667510018474188  0.4101633057990252  0.4636628298018202
  0.4332259549516472  0.3588515010720241  0.4273229953453694
  0.5444846676153846  0.3714952261400000  0.5726787678415384
  0.6557634313704953  0.4613320170451792  0.6090203654848974
  0.6334970971384617  0.4226639373861538  0.7180363035246153
  0.4109887912442704  0.4232463005736035  0.2819647112890201
  0.5667629761366493  0.4616235149174868  0.3909840619602819
  0.4332379292408785  0.4103117101904857  0.3546442275038309
  0.5444966419046156  0.4229554352584615  0.5000000000000000
  0.5445074355288857  0.4999993674428342  0.5000010148136353
  0.5222503587639555  0.4614804214366396  0.5000017631869077
  0.5890136502904241  0.5255837230659112  0.5726797826551737
  0.7002816204212645  0.5383765817867175  0.6090203654848974
  0.5667565735254935  0.4870647770597167  0.5726805310284461
  0.7447878351828033  0.5639609374097944  0.6816991333264355
  0.6112627882870317  0.5126491326827936  0.6453592988699849
  0.4331868618381879  0.0764006912097944  0.3909840619602819
  0.4776930765997262  0.1019850468328713  0.4636628298018202
  0.5667055061228032  0.1531537580790254  0.6090203654848974
  0.6112117208843415  0.1787381137021022  0.6816991333264355
  0.4331988361274184  0.1278609003282560  0.3183052941187435
  0.3664370807581166  0.1406523972305266  0.3546434791305583
  0.3441800039931860  0.1021334512243319  0.3546442275038309
  0.4109432955196549  0.1662367528536036  0.4273222469720970
  0.5222112656504955  0.1790296115744099  0.4636628298018202
  0.3886862187547243  0.1277178068474089  0.4273229953453694
  0.4554495102811936  0.1918211084766805  0.5000010148136353
  0.5667174804120337  0.2046139671974868  0.5363415976433590
  0.4331924335162635  0.1533021624704858  0.5000017631869077
  0.5444511461800001  0.1659458875384615  0.6453575356830770
  0.5444619398042703  0.2429898197228342  0.6453585504967121
  0.6557299099351107  0.2557826784436406  0.6816991333264355
  0.5222048630393397  0.2044708737166397  0.6453592988699849
  0.3664490550473475  0.1921126063489882  0.2819647112890201
  0.4777170251781876  0.2049054650697944  0.3183052941187435
  0.3441919782824165  0.1535936603427934  0.2819654596622923
  0.4109552698088858  0.2176969619720650  0.3546434791305583
  0.5667294547012647  0.2560741763159482  0.4636628298018202
  0.4332044078054931  0.2047623715889473  0.4273229953453694
  0.5222168373285705  0.2559310828351013  0.5726805310284461
  0.5667414289904955  0.3075343854344097  0.3909840619602819
  0.4332163820947240  0.2562225807074089  0.3546442275038309
  0.5444750947584615  0.2688663057753846  0.5000000000000000
  0.5444858883827320  0.3459102379597575  0.5000010148136353
  0.5222288116178014  0.3073912919535627  0.5000017631869077
  0.6334983179058087  0.3970789492059112  0.6453585504967121
  0.7447662880366492  0.4098718079267176  0.6816991333264355
  0.6112412411408785  0.3585600031997166  0.6453592988699849
  0.4332283563839553  0.3076827898258703  0.2819654596622923
  0.4999916479104242  0.3717860914551417  0.3546434791305583
  0.6112596180412648  0.3845789501759484  0.3909840619602819
  0.5444870690476928  0.3203265148938463  0.4273212321584612
  0.6557658328028031  0.4101633057990252  0.4636628298018202
  0.5222407859070319  0.3588515010720241  0.4273229953453694
  0.6334994985707695  0.3714952261400000  0.5726787678415384
  0.6335102921950396  0.4485391583243727  0.5726797826551737
  0.7447782623258801  0.4613320170451792  0.6090203654848974
  0.6112532154301090  0.4100202123181780  0.5726805310284461
  0.6780165069565779  0.4741235139474497  0.6453585504967121
  0.7225119280938465  0.4226639373861538  0.7180363035246153
  0.5000036221996551  0.4232463005736035  0.2819647112890201
  0.6557778070920340  0.4616235149174868  0.3909840619602819
  0.5222527601962629  0.4103117101904857  0.3546442275038309
  0.5890052580984620  0.3973710796353844  0.4273212321584612
  0.7002840218535723  0.4872078705405636  0.4636628298018202
  0.6335114728599999  0.4229554352584615  0.5000000000000000
  0.6335222664842705  0.4999993674428342  0.5000010148136353
  0.6112651897193399  0.4614804214366396  0.5000017631869077
  0.6780176876215387  0.4485397908815383  0.5726787678415384
  0.6780284812458088  0.5255837230659112  0.5726797826551737
  0.6557714044808782  0.4870647770597167  0.5726805310284461
  0.8338026661381885  0.5639609374097944  0.6816991333264355
  0.7670301171446157  0.4997085021276922  0.7180363035246153
  0.3887117670797260  0.3075343854344097  0.3909840619602819
  0.4332115792301094  0.3585600031997166  0.6453592988699849
  0.5890016760011931  0.4741235139474497  0.6453585504967121
  0.4999904271430773  0.3973710796353844  0.4273212321584612
  0.6780152861892309  0.4997085021276922  0.7180363035246153
  0.5444631204692314  0.2174060966569231  0.5726787678415384
  0.5444739140935011  0.2944500288412958  0.5726797826551737
  0.7002776192424165  0.5126491326827936  0.6453592988699849
  0.1661974375535719  0.4360391592944097  0.3183052941187435
  0.2107036523151110  0.4616235149174868  0.3909840619602819
  0.2997160818381876  0.5127922261636406  0.5363415976433590
  0.2106940794581878  0.3589945945528715  0.3183052941187435
  0.2552002942197261  0.3845789501759484  0.3909840619602819
  0.3442127237428032  0.4357476614221023  0.5363415976433590
  0.3887189385043415  0.4613320170451792  0.6090203654848974
  0.1439442983781163  0.4232463005736035  0.2819647112890201
  0.2552122685089566  0.4360391592944097  0.3183052941187435
  0.1216872216131857  0.3847273545674089  0.2819654596622923
  0.1884397195153847  0.3717867240123076  0.3546424643169230
  0.2997184832704953  0.4616235149174868  0.3909840619602819
  0.1661934363747242  0.4103117101904857  0.3546442275038309
  0.2329459342769230  0.3973710796353844  0.4273212321584612
  0.2329567279011931  0.4744150118197574  0.4273222469720970
  0.2106996511362625  0.4358960658135627  0.4273229953453694
  0.2774629426627319  0.4999993674428342  0.5000010148136353
  0.3887309127935724  0.5127922261636406  0.5363415976433590
  0.2552058658978013  0.4614804214366396  0.5000017631869077
  0.3219583638000004  0.4485397908815383  0.5726787678415384
  0.3664645785615387  0.4741241465046153  0.6453575356830770
  0.3664753721858089  0.5511680786889882  0.6453585504967121
  0.3442182954208783  0.5126491326827936  0.6453592988699849
  0.4109707933230770  0.4997085021276922  0.7180363035246153
  0.2551907213628034  0.2819500298113328  0.3183052941187435
  0.2996969361243417  0.3075343854344097  0.3909840619602819
  0.3887093656474187  0.3587030966805638  0.5363415976433590
  0.4777217951704953  0.4098718079267176  0.6816991333264355
  0.1884409402827316  0.3462017358320651  0.2819647112890201
  0.2997089104135726  0.3589945945528715  0.3183052941187435
  0.2329363614200002  0.2947421592707692  0.3546424643169230
  0.3442151251751109  0.3845789501759484  0.3909840619602819
  0.2774425761815385  0.3203265148938463  0.4273212321584612
  0.2774533698058086  0.3973704470782190  0.4273222469720970
  0.3219487909430773  0.3459108705169231  0.5000000000000000
  0.3219595845673470  0.4229548027012959  0.5000010148136353
  0.2997025078024164  0.3844358566951011  0.5000017631869077
  0.3664550057046155  0.3714952261400000  0.5726787678415384
  0.3664657993288857  0.4485391583243727  0.5726797826551737
  0.3442087225639551  0.4100202123181780  0.5726805310284461
  0.4109720140904240  0.4741235139474497  0.6453585504967121
  0.3887149373254943  0.4356045679412550  0.6453592988699849
  0.4554674352276926  0.4226639373861538  0.7180363035246153
  0.3442270994643409  0.4360391592944097  0.3183052941187435
  0.2107020525685702  0.3847273545674089  0.2819654596622923
  0.2774653440950396  0.4488306561966802  0.3546434791305583
  0.3887333142258801  0.4616235149174868  0.3909840619602819
  0.2552082673301090  0.4103117101904857  0.3546442275038309
  0.2997144820916473  0.4358960658135627  0.4273229953453694
  0.3664669799938465  0.4229554352584615  0.5000000000000000
  0.3664777736181162  0.4999993674428342  0.5000010148136353
  0.4777457437489567  0.5127922261636406  0.5363415976433590
  0.3442206968531856  0.4614804214366396  0.5000017631869077
  0.5222519585104954  0.5383765817867175  0.6090203654848974
  0.4332331263762626  0.5126491326827936  0.6453592988699849
  0.4999856242784618  0.4997085021276922  0.7180363035246153
  0.2996873632674185  0.2049054650697944  0.3183052941187435
  0.3886997927904955  0.2560741763159482  0.4636628298018202
  0.4332060075520338  0.2816585319390252  0.5363415976433590
  0.4777122223135721  0.3072428875621022  0.6090203654848974
  0.7448046123366493  0.5130837240359485  0.3183052941187435
  0.6780320633430773  0.4488312887538461  0.3546424643169230
  0.7893108270981880  0.5386680796590251  0.3909840619602819
  0.7225382781046156  0.4744156443769230  0.4273212321584612
  0.7225490717288857  0.5514595765612959  0.4273222469720970
  0.8338170418597263  0.5642524352821020  0.4636628298018202
  0.7002919949639551  0.5129406305551011  0.4273229953453694
  0.8115615012519624  0.6026282878074496  0.5726797826551737
  0.9228294713828034  0.6154211465282561  0.6090203654848974
  0.7893044244870318  0.5641093418012550  0.5726805310284461
  0.8560569223892314  0.5511687112461540  0.6453575356830770
  0.8560677160135011  0.6282126434305266  0.6453585504967121
  0.6780548312565780  0.5773354300566805  0.2819647112890201
  0.7225502523938465  0.5258758534953845  0.3546424643169230
  0.8338290161489572  0.6157126444005636  0.3909840619602819
  0.7003039692531861  0.5644008396735627  0.3546442275038309
  0.7670564671553852  0.5514602091184616  0.4273212321584612
  0.7670672607796549  0.6285041413028343  0.4273222469720970
  0.8783352309104955  0.6412970000236404  0.4636628298018202
  0.7448101840147243  0.5899851952966396  0.4273229953453694
  0.8115626819169236  0.5770445647415384  0.5000000000000000
  0.7893163987762631  0.6155695509197164  0.5000017631869077
  0.8560796903027320  0.6796728525489882  0.5726797826551737
  0.8783288282993397  0.6667382621658704  0.6453592988699849
  0.7225730203073472  0.6543799947982190  0.2819647112890201
  0.7670684414446157  0.6029204182369231  0.3546424643169230
  0.8783472051997264  0.6927572091421021  0.3909840619602819
  0.7448221583039553  0.6414454044151011  0.3546442275038309
  0.8115746562061544  0.6285047738600000  0.4273212321584612
  0.8115854498304241  0.7055487060443728  0.4273222469720970
  0.7893283730654936  0.6670297600381780  0.4273229953453694
  0.8560808709676924  0.6540891294830770  0.5000000000000000
  0.8560916645919625  0.7311330616674496  0.5000010148136353
  0.7448341325931858  0.6929056135335628  0.2819654596622923
  0.8115974241196546  0.7570089151628343  0.3546434791305583
  0.8560928452569238  0.7055493386015382  0.4273212321584612
  0.7893523216439550  0.7699501782751010  0.2819654596622923
  0.8338194432920341  0.5130837240359485  0.3183052941187435
  0.7002943963962625  0.4617719193089473  0.2819654596622923
  0.7670468942984621  0.4488312887538461  0.3546424643169230
  0.7670576879227318  0.5258752209382187  0.3546434791305583
  0.8783256580535728  0.5386680796590251  0.3909840619602819
  0.7448006111578012  0.4873562749320242  0.3546442275038309
  0.8115531090600003  0.4744156443769230  0.4273212321584612
  0.8115639026842700  0.5514595765612959  0.4273222469720970
  0.9228318728151110  0.5642524352821020  0.4636628298018202
  0.7893068259193399  0.5129406305551011  0.4273229953453694
  0.9005655385830774  0.5255843556230769  0.5726787678415384
  0.9005763322073471  0.6026282878074496  0.5726797826551737
  0.8783192554424165  0.5641093418012550  0.5726805310284461
  0.8783376323428033  0.5901282887774867  0.3183052941187435
  0.8115650833492313  0.5258758534953845  0.3546424643169230
  0.9228438471043415  0.6157126444005636  0.3909840619602819
  0.8560712981107695  0.5514602091184616  0.4273212321584612
  0.8560820917350397  0.6285041413028343  0.4273222469720970
  0.8338250149701091  0.5899851952966396  0.4273229953453694
  0.9005775128723079  0.5770445647415384  0.5000000000000000
  0.9005883064965776  0.6540884969259113  0.5000010148136353
  0.8783312297316475  0.6155695509197164  0.5000017631869077
  0.9228374444931857  0.6411539065427935  0.5726805310284461
  0.8115878512627315  0.6543799947982190  0.2819647112890201
  0.7893307744978013  0.6158610487920242  0.2819654596622923
  0.8560832724000005  0.6029204182369231  0.3546424643169230
  0.8560940660242702  0.6799643504212959  0.3546434791305583
  0.8338369892593396  0.6414454044151011  0.3546442275038309
  0.9005894871615389  0.6285047738600000  0.4273212321584612
  0.9006002807858090  0.7055487060443728  0.4273222469720970
  0.8783432040208784  0.6670297600381780  0.4273229953453694
  0.8115663041165778  0.5002908653151419  0.2819647112890201
  0.7893092273516472  0.4617719193089473  0.2819654596622923
  0.8560725188781165  0.5258752209382187  0.3546434791305583
  0.8783216568747243  0.5129406305551011  0.4273229953453694
  0.9450741547769235  0.5000000000000000  0.5000000000000000
  0.9450849484011932  0.5770439321843727  0.5000010148136353
  0.9228278716362626  0.5385249861781780  0.5000017631869077
  0.8560844931673470  0.5773354300566805  0.2819647112890201
  0.8338274164024164  0.5388164840504857  0.2819654596622923
  0.9005799143046160  0.5258758534953845  0.3546424643169230
  0.8783336311639551  0.5644008396735627  0.3546442275038309
  0.9450861290661544  0.5514602091184616  0.4273212321584612
  0.9228398459254935  0.5899851952966396  0.4273229953453694
  0.8783456054531856  0.6158610487920242  0.2819654596622923
  0.9005811350719626  0.5002908653151419  0.2819647112890201
  0.8783240583070320  0.4617719193089473  0.2819654596622923
  0.9228302730685707  0.4873562749320242  0.3546442275038309
  0.1662381304135723  0.7953861295067174  0.4636628298018202
  0.1439717961815387  0.7567180498476922  0.5726787678415384
  0.2997567746981877  0.8721391963759483  0.6816991333264355
  0.1217103685058801  0.6157126444005636  0.3909840619602819
  0.1662165832674186  0.6412970000236404  0.4636628298018202
  0.2552290127904948  0.6924657112697945  0.6090203654848974
  0.1662285575566496  0.6927572091421021  0.3909840619602819
  0.0994668021873473  0.7055487060443728  0.4273222469720970
  0.0772097254224167  0.6670297600381780  0.4273229953453694
  0.1439622233246153  0.6540891294830770  0.5000000000000000
  0.1217159401839552  0.6926141156612550  0.5000017631869077
  0.1884792317104244  0.7567174172905266  0.5726797826551737
  0.2329746528476921  0.7052578407292307  0.6453575356830770
  0.2774808676092312  0.7308421963523076  0.7180363035246153
  0.1662405318458801  0.7442174182605636  0.3183052941187435
  0.1217279144731860  0.7440743247797164  0.4273229953453694
  0.1884804123753852  0.7311336942246154  0.5000000000000000
  0.1884912059996549  0.8081776264089880  0.5000010148136353
  0.2997591761304954  0.8209704851297943  0.5363415976433590
  0.3887716056535724  0.8721391963759483  0.6816991333264355
  0.2552465587578008  0.8208273916489475  0.6453592988699849
  0.1884923866646156  0.7825939033430770  0.4273212321584612
  0.2997711504197263  0.8724306942482558  0.4636628298018202
  0.2107523182854935  0.8467032451443322  0.5000017631869077
  0.3887835799428033  0.9235994054944100  0.6090203654848974
  0.2552585330470322  0.8722876007674087  0.5726805310284461
  0.3220230052384619  0.9108071793307692  0.5726787678415384
  0.1662070104104955  0.5386680796590251  0.3909840619602819
  0.2552194399335725  0.5898367909051790  0.5363415976433590
  0.2997256546951108  0.6154211465282561  0.6090203654848974
  0.3442318694566500  0.6410055021513330  0.6816991333264355
  0.1662189846997260  0.5901282887774867  0.3183052941187435
  0.0994572293304241  0.6029197856797575  0.3546434791305583
  0.2107251994612643  0.6157126444005636  0.3909840619602819
  0.0772001525654935  0.5644008396735627  0.3546442275038309
  0.1439526504676930  0.5514602091184616  0.4273212321584612
  0.2552314142228034  0.6412970000236404  0.4636628298018202
  0.1884588652292310  0.5770445647415384  0.5000000000000000
  0.2329650799907702  0.6026289203646152  0.5726787678415384
  0.2329758736150395  0.6796728525489882  0.5726797826551737
  0.3442438437458796  0.6924657112697945  0.6090203654848974
  0.2107187968501089  0.6411539065427935  0.5726805310284461
  0.3887500585074188  0.7180500668928713  0.6816991333264355
  0.3219775095138463  0.6537976316107691  0.7180363035246153
  0.2107371737504956  0.6671728535190251  0.3183052941187435
  0.2552433885120339  0.6927572091421021  0.3909840619602819
  0.1884708395184624  0.6285047738600000  0.4273212321584612
  0.1884816331427317  0.7055487060443728  0.4273222469720970
  0.2997496032735726  0.7183415647651791  0.4636628298018202
  0.2329770542800003  0.6540891294830770  0.5000000000000000
  0.3442558180351110  0.7439259203882560  0.5363415976433590
  0.2107307711393398  0.6926141156612550  0.5000017631869077
  0.2552553628012648  0.7442174182605636  0.3183052941187435
  0.2997615775628031  0.7698017738836406  0.3909840619602819
  0.2107427454285703  0.7440743247797164  0.4273229953453694
  0.2774952433307695  0.7311336942246154  0.5000000000000000
  0.3887740070858802  0.8209704851297943  0.5363415976433590
  0.2552489601901090  0.7696586804027935  0.5000017631869077
  0.3220014580923086  0.7567180498476922  0.5726787678415384
  0.3220122517165779  0.8337619820320651  0.5726797826551737
  0.3665076728538465  0.7823024054707691  0.6453575356830770
  0.4777864366089576  0.8721391963759483  0.6816991333264355
  0.3442613897131856  0.8208273916489475  0.6453592988699849
  0.2997735518520340  0.8212619830021021  0.3183052941187435
  0.3442797666135723  0.8468463386251791  0.3909840619602819
  0.2107547197178016  0.7955345338981781  0.3546442275038309
  0.2775072176200009  0.7825939033430770  0.4273212321584612
  0.2552609344793395  0.8211188895212548  0.4273229953453694
  0.3220134323815387  0.8081782589661537  0.5000000000000000
  0.3220242260058088  0.8852221911505266  0.5000010148136353
  0.4332921961366494  0.8980150498713328  0.5363415976433590
  0.3665196471430774  0.8337626145892306  0.5726787678415384
  0.3442733640024170  0.8722876007674087  0.5726805310284461
  0.4110258619046157  0.8593469702123079  0.6453575356830770
  0.2775191919092309  0.8340541124615385  0.3546424643169230
  0.3220254066707696  0.8596384680846154  0.4273212321584612
  0.4333041704258808  0.9494752589897943  0.4636628298018202
  0.3442853382916475  0.9237478098858705  0.5000017631869077
  0.4110378361938462  0.9108071793307692  0.5726787678415384
  0.1217223427951108  0.6671728535190251  0.3183052941187435
  0.2329866271369234  0.7567180498476922  0.5726787678415384
  0.2107403439962630  0.7952430360258704  0.5726805310284461
  0.2774712947523081  0.6282132759876922  0.6453575356830770
  0.2107323708858801  0.7695102760113328  0.6090203654848974
  0.2107156266043415  0.5130837240359485  0.3183052941187435
  0.1439430776107693  0.4488312887538461  0.3546424643169230
  0.1216967944701089  0.4873562749320242  0.3546442275038309
  0.2997280561274185  0.5642524352821020  0.4636628298018202
  0.1662030092316474  0.5129406305551011  0.4273229953453694
  0.2329555071338462  0.5000000000000000  0.5000000000000000
  0.2329663007581167  0.5770439321843727  0.5000010148136353
  0.3442342708889569  0.5898367909051790  0.5363415976433590
  0.2107092239931857  0.5385249861781780  0.5000017631869077
  0.5000467164919630  0.7314245595397574  0.2819647112890201
  0.6113146866228031  0.7442174182605636  0.3183052941187435
  0.5445529312535008  0.7570089151628343  0.3546434791305583
  0.5222958544885702  0.7184899691566395  0.3546442275038309
  0.5890591460150391  0.7825932707859111  0.4273222469720970
  0.7003271161458801  0.7953861295067174  0.4636628298018202
  0.6113082840116473  0.7696586804027935  0.5000017631869077
  0.6780607819138464  0.7567180498476922  0.5726787678415384
  0.6780715755381166  0.8337619820320651  0.5726797826551737
  0.6558144987731860  0.7952430360258704  0.5726805310284461
  0.5445649055427322  0.8084691242812957  0.2819647112890201
  0.7003390904351106  0.8468463386251791  0.3909840619602819
  0.6335773350658087  0.8596378355274498  0.4273222469720970
  0.6113202583008781  0.8211188895212548  0.4273229953453694
  0.6780727562030774  0.8081782589661537  0.5000000000000000
  0.6780835498273475  0.8852221911505266  0.5000010148136353
  0.6558264730624165  0.8467032451443322  0.5000017631869077
  0.5668260178285703  0.8469947430166396  0.2819654596622923
  0.6335785157307695  0.8340541124615385  0.3546424643169230
  0.6335893093550392  0.9110980446459109  0.3546434791305583
  0.6113322325901090  0.8725790986397165  0.3546442275038309
  0.5000131950565779  0.5258752209382187  0.3546434791305583
  0.6112811651874185  0.5386680796590251  0.3909840619602819
  0.4777561182916478  0.4873562749320242  0.3546442275038309
  0.5890148309553848  0.5000000000000000  0.5000000000000000
  0.5890256245796553  0.5770439321843727  0.5000010148136353
  0.7002935947104955  0.5898367909051790  0.5363415976433590
  0.5667685478147247  0.5385249861781780  0.5000017631869077
  0.6780272604784618  0.5511687112461540  0.6453575356830770
  0.6780380541027315  0.6282126434305266  0.6453585504967121
  0.7893060242335725  0.6410055021513330  0.6816991333264355
  0.6557809773378009  0.5896936974243321  0.6453592988699849
  0.7225334752400001  0.5767530668692308  0.7180363035246153
  0.5000251693458084  0.5773354300566805  0.2819647112890201
  0.6112931394766490  0.5901282887774867  0.3183052941187435
  0.4777680925808782  0.5388164840504857  0.2819654596622923
  0.5890375988688854  0.6285041413028343  0.4273222469720970
  0.7003055689997260  0.6412970000236404  0.4636628298018202
  0.5667805221039548  0.5899851952966396  0.4273229953453694
  0.6780392347676928  0.6026289203646152  0.5726787678415384
  0.6780500283919625  0.6796728525489882  0.5726797826551737
  0.7893179985228026  0.6924657112697945  0.6090203654848974
  0.6557929516270319  0.6411539065427935  0.5726805310284461
  0.7670516642907693  0.6537976316107691  0.7180363035246153
  0.5890387795338462  0.6029204182369231  0.3546424643169230
  0.5890495731581163  0.6799643504212959  0.3546434791305583
  0.7003175432889569  0.6927572091421021  0.3909840619602819
  0.5667924963931862  0.6414454044151011  0.3546442275038309
  0.6780512090569233  0.6540891294830770  0.5000000000000000
  0.6780620026811934  0.7311330616674496  0.5000010148136353
  0.7893299728120339  0.7439259203882560  0.5363415976433590
  0.6558049259162632  0.6926141156612550  0.5000017631869077
  0.7670636385800003  0.7052578407292307  0.6453575356830770
  0.7670744322042700  0.7823017729136033  0.6453585504967121
  0.7448173554393394  0.7437828269074089  0.6453592988699849
  0.5890615474473473  0.7314245595397574  0.2819647112890201
  0.7003295175781874  0.7442174182605636  0.3183052941187435
  0.5668044706824167  0.6929056135335628  0.2819654596622923
  0.6780631833461541  0.7055493386015382  0.4273212321584612
  0.6780739769704238  0.7825932707859111  0.4273222469720970
  0.7893419471012644  0.7953861295067174  0.4636628298018202
  0.6558169002054932  0.7440743247797164  0.4273229953453694
  0.7670756128692312  0.7567180498476922  0.5726787678415384
  0.7670864064935009  0.8337619820320651  0.5726797826551737
  0.7448293297285703  0.7952430360258704  0.5726805310284461
  0.6558288744947242  0.7955345338981781  0.3546442275038309
  0.7225921660211930  0.8596378355274498  0.4273222469720970
  0.7670875871584617  0.8081782589661537  0.5000000000000000
  0.7448413040178012  0.8467032451443322  0.5000017631869077
  0.6558408487839551  0.8469947430166396  0.2819654596622923
  0.7225933466861538  0.8340541124615385  0.3546424643169230
  0.6557897813812645  0.5130837240359485  0.3183052941187435
  0.5890172323876925  0.4488312887538461  0.3546424643169230
  0.5890280260119627  0.5258752209382187  0.3546434791305583
  0.5667709492470316  0.4873562749320242  0.3546442275038309
  0.7448022109043415  0.5642524352821020  0.4636628298018202
  0.6780296619107691  0.5000000000000000  0.5000000000000000
  0.6780404555350397  0.5770439321843727  0.5000010148136353
  0.6557833787701091  0.5385249861781780  0.5000017631869077
  0.7670420914338466  0.5511687112461540  0.6453575356830770
  0.7670528850581163  0.6282126434305266  0.6453585504967121
  0.7447958082931857  0.5896936974243321  0.6453592988699849
  0.8115483061953844  0.5767530668692308  0.7180363035246153
  0.5890400003011932  0.5773354300566805  0.2819647112890201
  0.7003079704320337  0.5901282887774867  0.3183052941187435
  0.6780416362000000  0.5514602091184616  0.4273212321584612
  0.6780524298242702  0.6285041413028343  0.4273222469720970
  0.6557953530593396  0.5899851952966396  0.4273229953453694
  0.7670540657230775  0.6026289203646152  0.5726787678415384
  0.7670648593473472  0.6796728525489882  0.5726797826551737
  0.8783328294781874  0.6924657112697945  0.6090203654848974
  0.7448077825824166  0.6411539065427935  0.5726805310284461
  0.7448261594828030  0.6671728535190251  0.3183052941187435
  0.6780536104892310  0.6029204182369231  0.3546424643169230
  0.6780644041135007  0.6799643504212959  0.3546434791305583
  0.7893323742443417  0.6927572091421021  0.3909840619602819
  0.6558073273485701  0.6414454044151011  0.3546442275038309
  0.7670768336365777  0.7311330616674496  0.5000010148136353
  0.7448197568716476  0.6926141156612550  0.5000017631869077
  0.8338321863947241  0.7437828269074089  0.6453592988699849
  0.6780763784027316  0.7314245595397574  0.2819647112890201
  0.7893443485335722  0.7442174182605636  0.3183052941187435
  0.6558193016378010  0.6929056135335628  0.2819654596622923
  0.8338505632951109  0.7698017738836406  0.3909840619602819
  0.7670780143015384  0.7055493386015382  0.4273212321584612
  0.7670888079258086  0.7825932707859111  0.4273222469720970
  0.7448317311608781  0.7440743247797164  0.4273229953453694
  0.8338441606839551  0.7952430360258704  0.5726805310284461
  0.7225945674535013  0.8084691242812957  0.2819647112890201
  0.5668020692501089  0.7440743247797164  0.4273229953453694
  0.5890268052446157  0.5514602091184616  0.4273212321584612
  0.6780751576353846  0.7570095477200002  0.3546424643169230
  0.5667829235362626  0.5388164840504857  0.2819654596622923
  0.7670660400123080  0.6540891294830770  0.5000000000000000
  0.7448437054501089  0.7955345338981781  0.3546442275038309
  0.3219787302811933  0.6282126434305266  0.6453585504967121
  0.2997216535162627  0.5896936974243321  0.6453592988699849
  0.3664741514184615  0.5767530668692308  0.7180363035246153
  0.1439658455242700  0.5773354300566805  0.2819647112890201
  0.2552338156551103  0.5901282887774867  0.3183052941187435
  0.1884612666615388  0.5258758534953845  0.3546424643169230
  0.2997400304166486  0.6157126444005636  0.3909840619602819
  0.2329674814230771  0.5514602091184616  0.4273212321584612
  0.2774736961846154  0.5770445647415384  0.5000000000000000
  0.3219799109461545  0.6026289203646152  0.5726787678415384
  0.3219907045704238  0.6796728525489882  0.5726797826551737
  0.4332586747012639  0.6924657112697945  0.6090203654848974
  0.2997336278054932  0.6411539065427935  0.5726805310284461
  0.3664969193319625  0.7052572081720651  0.6453585504967121
  0.4777648894628031  0.7180500668928713  0.6816991333264355
  0.4109923404692307  0.6537976316107691  0.7180363035246153
  0.2997520047058799  0.6671728535190251  0.3183052941187435
  0.1662269578101088  0.6158610487920242  0.2819654596622923
  0.2329794557123080  0.6029204182369231  0.3546424643169230
  0.2329902493365777  0.6799643504212959  0.3546434791305583
  0.3442582194674182  0.6927572091421021  0.3909840619602819
  0.2107331725716471  0.6414454044151011  0.3546442275038309
  0.2774856704738463  0.6285047738600000  0.4273212321584612
  0.2774964640981160  0.7055487060443728  0.4273222469720970
  0.2552393873331859  0.6670297600381780  0.4273229953453694
  0.3219918852353846  0.6540891294830770  0.5000000000000000
  0.2997456020947241  0.6926141156612550  0.5000017631869077
  0.3664980999969233  0.6796734851061539  0.5726787678415384
  0.3665088936211930  0.7567174172905266  0.5726797826551737
  0.3442518168562624  0.7181984712843318  0.5726805310284461
  0.4110043147584616  0.7052578407292307  0.6453575356830770
  0.4110151083827318  0.7823017729136033  0.6453585504967121
  0.4555105295200004  0.7308421963523076  0.7180363035246153
  0.2330022236258086  0.7314245595397574  0.2819647112890201
  0.3442701937566491  0.7442174182605636  0.3183052941187435
  0.3887764085181879  0.7698017738836406  0.3909840619602819
  0.3220038595246155  0.7055493386015382  0.4273212321584612
  0.4332826232797262  0.7953861295067174  0.4636628298018202
  0.3665100742861538  0.7311336942246154  0.5000000000000000
  0.4777888380412645  0.8209704851297943  0.5363415976433590
  0.3442637911454933  0.7696586804027935  0.5000017631869077
  0.4110162890476926  0.7567180498476922  0.5726787678415384
  0.4110270826719623  0.8337619820320651  0.5726797826551737
  0.3887700059070316  0.7952430360258704  0.5726805310284461
  0.4555225038092309  0.7823024054707691  0.6453575356830770
  0.4555332974335010  0.8593463376551420  0.6453585504967121
  0.5668012675643416  0.8721391963759483  0.6816991333264355
  0.4332762206685704  0.8208273916489475  0.6453592988699849
  0.5000287185707696  0.8078867610938461  0.7180363035246153
  0.2552633359116472  0.7699501782751010  0.2819654596622923
  0.3220266274381166  0.8340534799043726  0.3546434791305583
  0.4332945975689571  0.8468463386251791  0.3909840619602819
  0.3665220485753847  0.7825939033430770  0.4273212321584612
  0.3665328421996549  0.8596378355274498  0.4273222469720970
  0.4778008123304950  0.8724306942482558  0.4636628298018202
  0.3442757654347243  0.8211188895212548  0.4273229953453694
  0.4110282633369230  0.8081782589661537  0.5000000000000000
  0.4110390569611932  0.8852221911505266  0.5000010148136353
  0.4555344780984622  0.8337626145892306  0.5726787678415384
  0.5000406928600001  0.8593469702123079  0.6453575356830770
  0.5000514864842698  0.9363909023966804  0.6453585504967121
  0.4777944097193396  0.8978719563904857  0.6453592988699849
  0.5445469076215383  0.8849313258353844  0.7180363035246153
  0.4333065718581876  0.8983065477436406  0.3183052941187435
  0.3665340228646157  0.8340541124615385  0.3546424643169230
  0.3665448164888854  0.9110980446459109  0.3546434791305583
  0.4778127866197263  0.9238909033667175  0.3909840619602819
  0.3442877397239548  0.8725790986397165  0.3546442275038309
  0.4110402376261539  0.8596384680846154  0.4273212321584612
  0.4110510312504236  0.9366824002689881  0.4273222469720970
  0.5223190013812646  0.9494752589897943  0.4636628298018202
  0.5000526671492310  0.9108071793307692  0.5726787678415384
  0.4778063840085701  0.9493321655089474  0.5726805310284461
  0.2997304575597263  0.5130837240359485  0.3183052941187435
  0.1662054106639551  0.4617719193089473  0.2819654596622923
  0.3442366723212646  0.5386680796590251  0.3909840619602819
  0.2774749169519627  0.5514595765612959  0.4273222469720970
  0.3887428870828029  0.5642524352821020  0.4636628298018202
  0.2552178401870318  0.5129406305551011  0.4273229953453694
  0.2997240549485705  0.5385249861781780  0.5000017631869077
  0.3664765528507696  0.5255843556230769  0.5726787678415384
  0.3664873464750398  0.6026282878074496  0.5726797826551737
  0.4777553166058799  0.6154211465282561  0.6090203654848974
  0.3442302697101088  0.5641093418012550  0.5726805310284461
  0.4109827676123080  0.5511687112461540  0.6453575356830770
  0.3887364844716470  0.5896936974243321  0.6453592988699849
  0.3442486466104950  0.5901282887774867  0.3183052941187435
  0.2774760976169231  0.5258758534953845  0.3546424643169230
  0.2774868912411928  0.6029197856797575  0.3546434791305583
  0.3887548613720334  0.6157126444005636  0.3909840619602819
  0.2552298144762626  0.5644008396735627  0.3546442275038309
  0.3219823123784619  0.5514602091184616  0.4273212321584612
  0.2997360292378010  0.5899851952966396  0.4273229953453694
  0.3664885271400001  0.5770445647415384  0.5000000000000000
  0.4777672908951104  0.6668813556467176  0.5363415976433590
  0.4109947419015393  0.6026289203646152  0.5726787678415384
  0.4110055355258086  0.6796728525489882  0.5726797826551737
  0.5222735056566487  0.6924657112697945  0.6090203654848974
  0.4555009566630772  0.6282132759876922  0.6453575356830770
  0.4555117502873469  0.7052572081720651  0.6453585504967121
  0.4332546735224163  0.6667382621658704  0.6453592988699849
  0.2774988655304237  0.6543799947982190  0.2819647112890201
  0.3887668356612647  0.6671728535190251  0.3183052941187435
  0.2552417887654936  0.6158610487920242  0.2819654596622923
  0.3219942866676928  0.6029204182369231  0.3546424643169230
  0.3220050802919625  0.6799643504212959  0.3546434791305583
  0.2997480035270318  0.6414454044151011  0.3546442275038309
  0.3665112950535008  0.7055487060443728  0.4273222469720970
  0.3442542182885702  0.6670297600381780  0.4273229953453694
  0.4110067161907693  0.6540891294830770  0.5000000000000000
  0.5222854799458800  0.7439259203882560  0.5363415976433590
  0.3887604330501089  0.6926141156612550  0.5000017631869077
  0.4555129309523081  0.6796734851061539  0.5726787678415384
  0.4555237245765778  0.7567174172905266  0.5726797826551737
  0.5667916947074183  0.7695102760113328  0.6090203654848974
  0.4332666478116472  0.7181984712843318  0.5726805310284461
  0.5000191457138464  0.7052578407292307  0.6453575356830770
  0.5000299393381161  0.7823017729136033  0.6453585504967121
  0.4777728625731860  0.7437828269074089  0.6453592988699849
  0.3220170545811930  0.7314245595397574  0.2819647112890201
  0.2997599778162628  0.6929056135335628  0.2819654596622923
  0.3665124757184620  0.6799649829784613  0.3546424643169230
  0.4777912394735722  0.7698017738836406  0.3909840619602819
  0.3442661925778011  0.7184899691566395  0.3546442275038309
  0.4110294841042700  0.7825932707859111  0.4273222469720970
  0.5222974542351105  0.7953861295067174  0.4636628298018202
  0.3887724073393394  0.7440743247797164  0.4273229953453694
  0.4555249052415386  0.7311336942246154  0.5000000000000000
  0.4555356988658087  0.8081776264089880  0.5000010148136353
  0.5668036689966492  0.8209704851297943  0.5363415976433590
  0.5000419136273471  0.8337619820320651  0.5726797826551737
  0.6113098837581875  0.8465548407528715  0.6090203654848974
  0.5445481283888853  0.8593463376551420  0.6453585504967121
  0.6558160985197263  0.8721391963759483  0.6816991333264355
  0.3665352436319626  0.8084691242812957  0.2819647112890201
  0.4778032137628032  0.8212619830021021  0.3183052941187435
  0.3442781668670320  0.7699501782751010  0.2819654596622923
  0.4110414583935014  0.8340534799043726  0.3546434791305583
  0.5223094285243415  0.8468463386251791  0.3909840619602819
  0.3887843816285703  0.7955345338981781  0.3546442275038309
  0.4555368795307695  0.7825939033430770  0.4273212321584612
  0.5668156432858797  0.8724306942482558  0.4636628298018202
  0.4332905963901086  0.8211188895212548  0.4273229953453694
  0.5000430942923078  0.8081782589661537  0.5000000000000000
  0.5000538879165775  0.8852221911505266  0.5000010148136353
  0.6113218580474185  0.8980150498713328  0.5363415976433590
  0.4777968111516473  0.8467032451443322  0.5000017631869077
  0.5890555238153848  0.8593469702123079  0.6453575356830770
  0.5668092406747239  0.8978719563904857  0.6453592988699849
  0.4110534326827314  0.8855136890228343  0.2819647112890201
  0.5223214028135724  0.8983065477436406  0.3183052941187435
  0.5668276175751107  0.9238909033667175  0.3909840619602819
  0.5000550685815383  0.8596384680846154  0.4273212321584612
  0.5000658622058084  0.9366824002689881  0.4273222469720970
  0.5445612833430771  0.8852228237076923  0.5000000000000000
  0.5890674981046158  0.9108071793307692  0.5726787678415384
  0.5668212149639549  0.9493321655089474  0.5726805310284461
  0.3887452885151106  0.5130837240359485  0.3183052941187435
  0.2552202416193395  0.4617719193089473  0.2819654596622923
  0.3664789542830770  0.4744156443769230  0.4273212321584612
  0.3664897479073471  0.5514595765612959  0.4273222469720970
  0.3442326711424165  0.5129406305551011  0.4273229953453694
  0.4109851690446157  0.5000000000000000  0.5000000000000000
  0.4109959626688858  0.5770439321843727  0.5000010148136353
  0.5222639327997264  0.5898367909051790  0.5363415976433590
  0.3887388859039548  0.5385249861781780  0.5000017631869077
  0.4332451006654935  0.5641093418012550  0.5726805310284461
  0.4999975985676923  0.5511687112461540  0.6453575356830770
  0.4777513154270318  0.5896936974243321  0.6453592988699849
  0.5445038133292310  0.5767530668692308  0.7180363035246153
  0.3219955074350393  0.5773354300566805  0.2819647112890201
  0.4332634775658799  0.5901282887774867  0.3183052941187435
  0.3665017221965776  0.6029197856797575  0.3546434791305583
  0.4777696923274181  0.6157126444005636  0.3909840619602819
  0.3442446454316474  0.5644008396735627  0.3546442275038309
  0.4109971433338466  0.5514602091184616  0.4273212321584612
  0.4110079369581163  0.6285041413028343  0.4273222469720970
  0.3887508601931857  0.5899851952966396  0.4273229953453694
  0.5667821218504951  0.6668813556467176  0.5363415976433590
  0.5000095728569236  0.6026289203646152  0.5726787678415384
  0.5000203664811933  0.6796728525489882  0.5726797826551737
  0.6112883366120334  0.6924657112697945  0.6090203654848974
  0.4777632897162628  0.6411539065427935  0.5726805310284461
  0.5445157876184620  0.6282132759876922  0.6453575356830770
  0.5445265812427317  0.7052572081720651  0.6453585504967121
  0.5222695044778011  0.6667382621658704  0.6453592988699849
  0.5890220023800002  0.6537976316107691  0.7180363035246153
  0.4777816666166495  0.6671728535190251  0.3183052941187435
  0.3442566197208779  0.6158610487920242  0.2819654596622923
  0.4110091176230771  0.6029204182369231  0.3546424643169230
  0.5222878813781878  0.6927572091421021  0.3909840619602819
  0.3887628344824167  0.6414454044151011  0.3546442275038309
  0.4332690492439549  0.6670297600381780  0.4273229953453694
  0.5000215471461541  0.6540891294830770  0.5000000000000000
  0.5000323407704238  0.7311330616674496  0.5000010148136353
  0.6113003109012648  0.7439259203882560  0.5363415976433590
  0.4777752640054932  0.6926141156612550  0.5000017631869077
  0.5445277619076925  0.6796734851061539  0.5726787678415384
  0.5445385555319626  0.7567174172905266  0.5726797826551737
  0.5890339766692307  0.7052578407292307  0.6453575356830770
  0.5890447702935009  0.7823017729136033  0.6453585504967121
  0.5667876935285703  0.7437828269074089  0.6453592988699849
  0.6335401914307695  0.7308421963523076  0.7180363035246153
  0.4110318855365777  0.7314245595397574  0.2819647112890201
  0.5222998556674187  0.7442174182605636  0.3183052941187435
  0.3887748087716471  0.6929056135335628  0.2819654596622923
  0.4555273066738463  0.6799649829784613  0.3546424643169230
  0.5668060704289570  0.7698017738836406  0.3909840619602819
  0.4332810235331859  0.7184899691566395  0.3546442275038309
  0.5000335214353846  0.7055493386015382  0.4273212321584612
  0.5000443150596547  0.7825932707859111  0.4273222469720970
  0.5445397361969233  0.7311336942246154  0.5000000000000000
  0.5222934530562624  0.7696586804027935  0.5000017631869077
  0.5890459509584617  0.7567180498476922  0.5726787678415384
  0.5890567445827318  0.8337619820320651  0.5726797826551737
  0.7003247147135724  0.8465548407528715  0.6090203654848974
  0.5667996678178012  0.7952430360258704  0.5726805310284461
  0.6113058825793395  0.8208273916489475  0.6453592988699849
  0.6780583804815387  0.8078867610938461  0.7180363035246153
  0.4555500745873474  0.8084691242812957  0.2819647112890201
  0.5668180447181880  0.8212619830021021  0.3183052941187435
  0.4332929978224163  0.7699501782751010  0.2819654596622923
  0.5000454957246155  0.7570095477200002  0.3546424643169230
  0.5000562893488861  0.8340534799043726  0.3546434791305583
  0.5445517104861538  0.7825939033430770  0.4273212321584612
  0.5445625041104240  0.8596378355274498  0.4273222469720970
  0.5223054273454933  0.8211188895212548  0.4273229953453694
  0.5890579252476925  0.8081782589661537  0.5000000000000000
  0.5890687188719623  0.8852221911505266  0.5000010148136353
  0.7003366890028032  0.8980150498713328  0.5363415976433590
  0.5668116421070317  0.8467032451443322  0.5000017631869077
  0.6780703547707696  0.8593469702123079  0.6453575356830770
  0.6558240716301091  0.8978719563904857  0.6453592988699849
  0.5000682636381162  0.8855136890228343  0.2819647112890201
  0.4778111868731856  0.8469947430166396  0.2819654596622923
  0.5445636847753847  0.8340541124615385  0.3546424643169230
  0.5223174016347243  0.8725790986397165  0.3546442275038309
  0.5890806931611932  0.9366824002689881  0.4273222469720970
  0.6780823290600001  0.9108071793307692  0.5726787678415384
  0.3442350725747242  0.4617719193089473  0.2819654596622923
  0.4109983641011931  0.5258752209382187  0.3546434791305583
  0.5222663342320337  0.5386680796590251  0.3909840619602819
  0.4554937852384617  0.4744156443769230  0.4273212321584612
  0.4332475020978013  0.5129406305551011  0.4273229953453694
  0.5666959332658801  0.0505248377144098  0.5363415976433590
  0.4999341778965778  0.0633163346166804  0.5726797826551737
  0.6112021480274183  0.0761091933374867  0.6090203654848974
  0.5889490088519626  0.0633163346166804  0.5726797826551737
  0.6334552236135009  0.0889006902397573  0.6453585504967121
  0.1464620087948552  0.2933686591658777  0.2991056531695845
  0.1661880504471465  0.3333637169361020  0.2970359918897577
  0.1464693130202230  0.3219956669876931  0.2648169550471826
  0.1661783112509533  0.2592027699062018  0.2990813271499153
  0.1662000247363770  0.3848239260545636  0.2243572240482193
  0.1414112643638440  0.4218698091198228  0.2264328109733457
  0.1464955302302391  0.4989179977674163  0.2264268853280461
  0.1216816693463375  0.3362473346477400  0.2990813271499153
  0.1661868640880659  0.3561570409922098  0.2648467610459470
  0.1414050134451915  0.3990362850388837  0.2648241626732682
  0.1216914085425311  0.4104082816776403  0.2970359918897577
  0.1661998583971069  0.4132918993892786  0.2990813271499153
  0.1216902221834508  0.4332016057337484  0.2648467610459470
  0.1661978063221196  0.4360866686020341  0.2668924951671827
  0.1464835559410088  0.4474577886489546  0.2991056531695845
  0.0969026481699980  0.4474541647428997  0.2991115788148840
  0.1413992900746133  0.3704096000013611  0.2991115788148840
  0.1464788858771462  0.4246245873523085  0.3374957228887210
  0.1661964369449895  0.4587859613568253  0.3375255288874855
  0.1661858320328887  0.3846264594835727  0.3395712630087210
  0.1216891901282734  0.4616710242251110  0.3395712630087210
  0.1661976233040697  0.4359926373007175  0.3697147597312961
  0.1216912422032609  0.4388762550123557  0.3717600949914538
  0.1414088629315363  0.4730385203659768  0.3717903466564226
  0.1661974569647992  0.4644606106354325  0.4444388628329923
  0.1019822439725308  0.5016691520938471  0.3374957228887210
  0.1217011644175043  0.5131312333435726  0.2668924951671827
  0.1414208372207670  0.5244987294844381  0.2991115788148840
  0.1217032164924916  0.4903364641308171  0.2990813271499153
  0.1464908601663771  0.4760847964707702  0.2648169550471826
  0.1019749397471630  0.4730421442720316  0.3717844210111230
  0.0969122210269212  0.5500830851075151  0.3717903466564226
  0.0771946002986456  0.5159208197538940  0.3717600949914538
  0.0771925482236583  0.5387155889666495  0.3395712630087210
  0.1216997950403744  0.5358305260983638  0.3375255288874855
  0.1217008150601841  0.5415051753769711  0.4444388628329923
  0.1217009813994543  0.5130372020422558  0.3697147597312961
  0.1414145863021144  0.5016652054034991  0.3375029305148066
  0.1464931287979322  0.5500867090135702  0.3717844210111230
  0.1464884587340691  0.5272535077169240  0.4101744907302595
  0.1464811545087009  0.4986264998951085  0.4444631888526615
  0.1661954048898119  0.4872553798481879  0.4122500308502595
  0.1414328115099977  0.5759589386028998  0.2264328109733457
  0.1217117693296049  0.5872907352168251  0.2648467610459470
  0.1414265605913451  0.5531254145219606  0.2648241626732682
  0.1465124073125305  0.6301739259538469  0.2648169550471826
  0.0772043394948388  0.5900817667837942  0.3697147597312961
  0.0969179443974989  0.5787097701450375  0.3375029305148066
  0.1217129556886850  0.5644974111607173  0.2970359918897577
  0.1465051030871627  0.6015469181320316  0.2991056531695845
  0.1465004330233000  0.5787137168353855  0.3374957228887210
  0.1020037911186847  0.6557582815769241  0.3374957228887210
  0.1217107372744275  0.6157601537081878  0.3395712630087210
  0.1414423843669211  0.6785878589675151  0.2991115788148840
  0.1217225285456082  0.6671263315253327  0.3697147597312961
  0.1414361334482681  0.6557543348865756  0.3375029305148066
  0.1217213421865283  0.6899196555814405  0.3375255288874855
  0.1217247636386453  0.6444255936138943  0.2990813271499153
  0.1465219801694537  0.7328028463184625  0.3374957228887210
  0.0772021210805812  0.6413445093312649  0.4122500308502595
  0.0969275172544227  0.6813386905096530  0.4101816983563453
  0.1414241591590376  0.6042941257681144  0.4101816983563453
  0.1662060098019122  0.5614148817214406  0.4102042967290240
  0.1216987629851968  0.5642999445897264  0.4122500308502595
  0.1217127893494146  0.5929653844954327  0.3717600949914538
  0.1414304100776904  0.6271276498490536  0.3717903466564226
  0.1217105542563775  0.6156661224068711  0.4423935275728348
  0.1019918168294536  0.6042980724584623  0.4101744907302595
  0.1019964868933171  0.6271312737551087  0.3717844210111230
  0.1217203101313505  0.7183890740728034  0.4122500308502595
  0.1217093678972973  0.6384594464629790  0.4102042967290240
  0.1465146759440859  0.7041758384966469  0.3717844210111230
  0.1465100058802232  0.6813426372000012  0.4101744907302595
  0.1414457063051919  0.7583832552511915  0.4101816983563453
  0.1465027016548550  0.6527156293781854  0.4444631888526615
  0.1217223622063378  0.6955943048600478  0.4444388628329923
  0.0772041731555685  0.6185497401185094  0.4444388628329923
  0.1019845126040858  0.5756710646366471  0.4444631888526615
  0.0969217938838446  0.6527120054721307  0.4444691144979609
  0.1414184357884595  0.5756674407305920  0.4444691144979609
  0.1464980315909923  0.6298824280815394  0.4828532585717981
  0.1414337320159610  0.7069230461327298  0.4828604661978836
  0.1217083358421200  0.6669288649543421  0.4849287986917978
  0.1662049777467355  0.5898843002128034  0.4849287986917978
  0.1414280086453824  0.6782963610952077  0.5171478823394995
  0.1019940854610092  0.6782999850012623  0.5171419566941998
  0.1464907273656243  0.6012554202597240  0.5171419566941998
  0.1465003002225475  0.7038843406243390  0.5898207245357382
  0.1217103879171071  0.6441340957415865  0.5171176306745305
  0.1020013896863768  0.7069269928230778  0.4828532585717981
  0.1414399829346138  0.7297565702136690  0.4444691144979609
  0.1217189407542203  0.7410883668275944  0.4828830645705623
  0.1217201271133005  0.7182950427714867  0.5150722954143732
  0.1465122745117786  0.7553445497428009  0.5171419566941998
  0.1217199607740302  0.7467630161062020  0.5897963985160694
  0.1465076044479155  0.7325113484461547  0.5555320264133365
  0.1465195787371464  0.7839715575646162  0.4828532585717981
  0.3244894020740687  0.2193667466230778  0.1921381872056441
  0.2996997063251968  0.2564131834958804  0.1942137273256442
  0.3442069531419127  0.2535281206275946  0.1921679932044087
  0.3639217444036529  0.2193627999327298  0.1921453948317297
  0.3887035950465278  0.1764835558860561  0.1921679932044087
  0.3887145372805811  0.2564131834958804  0.1942137273256442
  0.3639279953223055  0.2421963240136690  0.1537540431318072
  0.2304102715436530  0.2964073646742683  0.1921453948317297
  0.2106954802819123  0.3305726853691329  0.1921679932044087
  0.1859136296390375  0.3734519294158068  0.1921453948317297
  0.2107064225159657  0.4105023129789571  0.1942137273256442
  0.2354961182648380  0.3734558761061548  0.1921381872056441
  0.2997137326894146  0.2850786234015865  0.1537237914668385
  0.2799974302333165  0.3192445126612625  0.1537481174865075
  0.3194313534176904  0.3192408887552073  0.1537540431318072
  0.2799927601694536  0.2964113113646162  0.1921381872056441
  0.3194251024990378  0.2964073646742683  0.1921453948317297
  0.2997103112372971  0.3305726853691329  0.1921679932044087
  0.2552030644205808  0.3334577482374187  0.1942137273256442
  0.2997222855265285  0.3820328944875945  0.1194892253628700
  0.2997234718856078  0.3592395704314866  0.1516784562066809
  0.2552170907847990  0.3621231881431248  0.1537237914668385
  0.2355007883287009  0.3962890774028007  0.1537481174865075
  0.2749347115130749  0.3962854534967459  0.1537540431318072
  0.2997212534713504  0.4105023129789571  0.1942137273256442
  0.2552136693326816  0.4076172501106714  0.1921679932044087
  0.2749284605944223  0.3734519294158068  0.1921453948317297
  0.3690195654140688  0.3478715204830778  0.1194594193641056
  0.4332469190348386  0.3336552148084095  0.0789996883651424
  0.4135162073186844  0.2708269557415394  0.1194594193641056
  0.4580343963694536  0.3478715204830778  0.1194594193641056
  0.4580390664333165  0.3707047217797238  0.0810693496449691
  0.3690242354779317  0.3707047217797238  0.0810693496449691
  0.4777651080856078  0.4106997795499481  0.0789996883651424
  0.4084581586623057  0.3707010978736689  0.0810752752902687
  0.3887502771302230  0.4106997795499481  0.0789996883651424
  0.3887265115698120  0.3078733926143419  0.1215349594841056
  0.3194370767882683  0.3478675737927298  0.1194666269901914
  0.3442189274311431  0.3049883297460560  0.1194892253628700
  0.3442201137902233  0.2821950056899482  0.1516784562066809
  0.3887285636447994  0.2850786234015865  0.1537237914668385
  0.3690122611887017  0.3192445126612625  0.1537481174865075
  0.3442178953759660  0.3334577482374187  0.1942137273256442
  0.3887251421926814  0.3305726853691329  0.1921679932044087
  0.3690075911248383  0.2964113113646162  0.1921381872056441
  0.3887383028409925  0.3592395704314866  0.1516784562066809
  0.3887371164819124  0.3820328944875945  0.1194892253628700
  0.3442298696651965  0.3849179573558802  0.1215349594841056
  0.3245156192840857  0.3962890774028007  0.1537481174865075
  0.3442319217401838  0.3621231881431248  0.1537237914668385
  0.3639495424684592  0.3962854534967459  0.1537540431318072
  0.3245109492202228  0.3734558761061548  0.1921381872056441
  0.3639432915498070  0.3734519294158068  0.1921453948317297
  0.3442285002880659  0.4076172501106714  0.1921679932044087
  0.3887360844267348  0.4105023129789571  0.1942137273256442
  0.4084461843730747  0.3192408887552073  0.1537540431318072
  0.4332337583865275  0.3049883297460560  0.1194892253628700
  0.4084399334544221  0.2964073646742683  0.1921453948317297
  0.4332349447456081  0.2821950056899482  0.1516784562066809
  0.4580224220802227  0.2964113113646162  0.1921381872056441
  0.4580270921440860  0.3192445126612625  0.1537481174865075
  0.4332327263313503  0.3334577482374187  0.1942137273256442
  0.4777399731480662  0.3305726853691329  0.1921679932044087
  0.4084519077436526  0.3478675737927298  0.1194666269901914
  0.4332467526955686  0.3621231881431248  0.1537237914668385
  0.4777531337963773  0.3592395704314866  0.1516784562066809
  0.4529581225051914  0.3734519294158068  0.1921453948317297
  0.4135304502394700  0.3962890774028007  0.1537481174865075
  0.4135257801756075  0.3734558761061548  0.1921381872056441
  0.4332433312434507  0.4076172501106714  0.1921679932044087
  0.4332447006205812  0.3849179573558802  0.1215349594841056
  0.4529643734238439  0.3962854534967459  0.1537540431318072
  0.4777509153821196  0.4105023129789571  0.1942137273256442
  0.4777519474372972  0.3820328944875945  0.1194892253628700
  0.5025406111309924  0.3734558761061548  0.1921381872056441
  0.5222581621988355  0.4076172501106714  0.1921679932044087
  0.5025452811948548  0.3962890774028007  0.1537481174865075
  0.3245275935733166  0.4477492865212624  0.0810693496449691
  0.3442438960294142  0.4135833972615863  0.0810450236252999
  0.3442536352256079  0.4877443442914865  0.0789996883651424
  0.3442654431755688  0.5676725267446634  0.0810450236252999
  0.2552256436219125  0.4590774592291328  0.1194892253628700
  0.1662097806113501  0.4875468777204957  0.1942137273256442
  0.1909994763602229  0.4505004408476930  0.1921381872056441
  0.2107170274280669  0.4846618148522098  0.1921679932044087
  0.2107301880763771  0.5133286999145634  0.1516784562066809
  0.2107204488801835  0.4391677528846633  0.1537237914668385
  0.2304318186898067  0.4504964941573452  0.1921453948317297
  0.2304380696084593  0.4733300182382842  0.1537540431318072
  0.2552246115667349  0.4875468777204957  0.1942137273256442
  0.2552268299809922  0.4362841351730249  0.1516784562066809
  0.2749404348836527  0.4249121385342682  0.1194666269901914
  0.2800262816048382  0.5019606499661547  0.1194594193641056
  0.3194648748530746  0.5247902273567459  0.0810752752902687
  0.3245229235094533  0.4249160852246161  0.1194594193641056
  0.3639552658390371  0.4249121385342682  0.1194666269901914
  0.3442404745772977  0.4590774592291328  0.1194892253628700
  0.3639615167576901  0.4477456626152073  0.0810752752902687
  0.2552386379309527  0.5162123176262018  0.1537237914668385
  0.2997318583834508  0.4846618148522098  0.1921679932044087
  0.2800143073156072  0.4505004408476930  0.1921381872056441
  0.2997352798355682  0.4391677528846633  0.1537237914668385
  0.3194466496451915  0.4504964941573452  0.1921453948317297
  0.3442534688863375  0.5162123176262018  0.1537237914668385
  0.3442416609363770  0.4362841351730249  0.1516784562066809
  0.3442394425221197  0.4875468777204957  0.1942137273256442
  0.2552365858559658  0.5390070868389574  0.1215349594841056
  0.2355223354748550  0.5503782068858776  0.1537481174865075
  0.2107419960263376  0.5932568823677403  0.1537237914668385
  0.2355176654109917  0.5275450055892316  0.1921381872056441
  0.1859351767851916  0.5275410588988836  0.1921453948317297
  0.2552352164788357  0.5617063795937483  0.1921679932044087
  0.1662203855234509  0.5617063795937483  0.1921679932044087
  0.2107279696621193  0.5645914424620343  0.1942137273256442
  0.2304533658359608  0.6045856236404221  0.1921453948317297
  0.1910210235063761  0.6045895703307700  0.1921381872056441
  0.2304596167546130  0.6274191477213612  0.1537540431318072
  0.2552483771271463  0.5903732646561020  0.1516784562066809
  0.2749619820298069  0.5790012680173452  0.1194666269901914
  0.2997438326726817  0.5361220239706715  0.1194892253628700
  0.2997568269817223  0.5932568823677403  0.1537237914668385
  0.3245444706556074  0.5790052147076931  0.1194594193641056
  0.3442514168113501  0.5390070868389574  0.1215349594841056
  0.3442620217234509  0.6131665887122097  0.1194892253628700
  0.3442632080825311  0.5903732646561020  0.1516784562066809
  0.3245371664302393  0.5503782068858776  0.1537481174865075
  0.2749562586592285  0.5503745829798230  0.1537540431318072
  0.3639648386959607  0.5275410588988836  0.1921453948317297
  0.2749500077405759  0.5275410588988836  0.1921453948317297
  0.3245324963663764  0.5275450055892316  0.1921381872056441
  0.3442500474342200  0.5617063795937483  0.1921679932044087
  0.2997428006175041  0.5645914424620343  0.1942137273256442
  0.3194681967913451  0.6045856236404221  0.1921453948317297
  0.2800358544617605  0.6045895703307700  0.1921381872056441
  0.3887620850801835  0.4906279620031249  0.0810450236252999
  0.4135424245287009  0.4477492865212624  0.0810693496449691
  0.4332566749098117  0.4363781664743418  0.0488561916425672
  0.4529820710836528  0.4763723476527298  0.0467878591486528
  0.4332587269847991  0.4135833972615863  0.0810450236252999
  0.4332684661809922  0.4877443442914865  0.0789996883651424
  0.4332672798219120  0.5105376683475944  0.0468104575213317
  0.3690457826240854  0.5247938512628005  0.0810693496449691
  0.4332553055326816  0.4590774592291328  0.1194892253628700
  0.4135377544648380  0.4249160852246161  0.1194594193641056
  0.4529763477130749  0.4477456626152073  0.0810752752902687
  0.4529700967944219  0.4249121385342682  0.1194666269901914
  0.3887480587159657  0.4619625220974187  0.1215349594841056
  0.4084734548898067  0.5019567032758068  0.1194666269901914
  0.4084797058084593  0.5247902273567459  0.0810752752902687
  0.3690411125602225  0.5019606499661547  0.1194594193641056
  0.3887501107909526  0.4391677528846633  0.1537237914668385
  0.3887466893388355  0.4846618148522098  0.1921679932044087
  0.3690338083348549  0.4733336421443394  0.1537481174865075
  0.3690291382709920  0.4505004408476930  0.1921381872056441
  0.3887598499871462  0.5133286999145634  0.1516784562066809
  0.4084614806005762  0.4504964941573452  0.1921453948317297
  0.4084677315192284  0.4733300182382842  0.1537540431318072
  0.4332564918917617  0.4362841351730249  0.1516784562066809
  0.4332542734775040  0.4875468777204957  0.1942137273256442
  0.4332682998417218  0.5162123176262018  0.1537237914668385
  0.4529796696513455  0.5275410588988836  0.1921453948317297
  0.4580439692263764  0.4505004408476930  0.1921381872056441
  0.4135593016109917  0.5790052147076931  0.1194594193641056
  0.4529978948592285  0.6018347920982844  0.0810752752902687
  0.3639830639038438  0.6018347920982844  0.0810752752902687
  0.4332662477667349  0.5390070868389574  0.1215349594841056
  0.3887586636280669  0.5361220239706715  0.1194892253628700
  0.4529916439405759  0.5790012680173452  0.1194666269901914
  0.4332768526788361  0.6131665887122097  0.1194892253628700
  0.3639768129851912  0.5790012680173452  0.1194666269901914
  0.3887696058621193  0.6160516515804957  0.1215349594841056
  0.4332780390379154  0.5903732646561020  0.1516784562066809
  0.3887716579371071  0.5932568823677403  0.1537237914668385
  0.3639710896146133  0.5503745829798230  0.1537540431318072
  0.4135473273217608  0.5275450055892316  0.1921381872056441
  0.4529859205699980  0.5503745829798230  0.1537540431318072
  0.4135519973856241  0.5503782068858776  0.1537481174865075
  0.4332648783896052  0.5617063795937483  0.1921679932044087
  0.3887576315728889  0.5645914424620343  0.1942137273256442
  0.4084830277467299  0.6045856236404221  0.1921453948317297
  0.4084892786653825  0.6274191477213612  0.1537540431318072
  0.3690506854171453  0.6045895703307700  0.1921381872056441
  0.3690553554810086  0.6274227716274161  0.1537481174865075
  0.5025645597094537  0.4763762943430778  0.0467806515225672
  0.4777748639605809  0.5134227312158806  0.0488561916425672
  0.5222821107772964  0.5105376683475944  0.0468104575213317
  0.4777639217265276  0.4334931036060561  0.0468104575213317
  0.4975002601344220  0.5534169123942683  0.0467878591486528
  0.4777769160355687  0.4906279620031249  0.0810450236252999
  0.5222832971363770  0.4877443442914865  0.0789996883651424
  0.5222701364880663  0.4590774592291328  0.1194892253628700
  0.5025525854202229  0.4249160852246161  0.1194594193641056
  0.5025572554840857  0.4477492865212624  0.0810693496449691
  0.4974882858451911  0.5019567032758068  0.1194666269901914
  0.4580559435156072  0.5019606499661547  0.1194594193641056
  0.5470707744709921  0.5019606499661547  0.1194594193641056
  0.4974945367638441  0.5247902273567459  0.0810752752902687
  0.5470754445348545  0.5247938512628005  0.0810693496449691
  0.4580606135794706  0.5247938512628005  0.0810693496449691
  0.4777734945834508  0.5361220239706715  0.1194892253628700
  0.5667883255388356  0.5361220239706715  0.1194892253628700
  0.4580679178048382  0.5534208590846161  0.0467806515225672
  0.5025741325663765  0.5790052147076931  0.1194594193641056
  0.4777866552317614  0.5647889090330251  0.0789996883651424
  0.5222916836342201  0.6131665887122097  0.1194892253628700
  0.5025788026302398  0.6018384160043392  0.0810693496449691
  0.5222930530113502  0.5904672959574188  0.0488561916425672
  0.5470827487602226  0.5534208590846161  0.0467806515225672
  0.5668014861871462  0.5647889090330251  0.0789996883651424
  0.5222951050863379  0.5676725267446634  0.0810450236252999
  0.5915889635217608  0.5790052147076931  0.1194594193641056
  0.5915936335856241  0.6018384160043392  0.0810693496449691
  0.5420127258146133  0.6018347920982844  0.0810752752902687
  0.6113065145896048  0.6131665887122097  0.1194892253628700
  0.5420064748959603  0.5790012680173452  0.1194666269901914
  0.4974763115559606  0.4504964941573452  0.1921453948317297
  0.4777649417463378  0.4391677528846633  0.1537237914668385
  0.5222713228471465  0.4362841351730249  0.1516784562066809
  0.4974825624746131  0.4733300182382842  0.1537540431318072
  0.4777628896713504  0.4619625220974187  0.1215349594841056
  0.4580486392902393  0.4733336421443394  0.1537481174865075
  0.4777615202942199  0.4846618148522098  0.1921679932044087
  0.5222691044328888  0.4875468777204957  0.1942137273256442
  0.5222831307971070  0.5162123176262018  0.1537237914668385
  0.4777746809425309  0.5133286999145634  0.1516784562066809
  0.5222810787221197  0.5390070868389574  0.1215349594841056
  0.5025668283410089  0.5503782068858776  0.1537481174865075
  0.5025621582771456  0.5275450055892316  0.1921381872056441
  0.4777724625282737  0.5645914424620343  0.1942137273256442
  0.5222797093449891  0.5617063795937483  0.1921679932044087
  0.4777864888924914  0.5932568823677403  0.1537237914668385
  0.4974978587021147  0.6045856236404221  0.1921453948317297
  0.4580655163725305  0.6045895703307700  0.1921381872056441
  0.4777844368175042  0.6160516515804957  0.1215349594841056
  0.4975041096207672  0.6274191477213612  0.1537540431318072
  0.4580701864363934  0.6274227716274161  0.1537481174865075
  0.5667895118979157  0.5133286999145634  0.1516784562066809
  0.5470634702456240  0.4733336421443394  0.1537481174865075
  0.5470588001817611  0.4505004408476930  0.1921381872056441
  0.5667763512496047  0.4846618148522098  0.1921679932044087
  0.5419945006067298  0.5275410588988836  0.1921453948317297
  0.5915769892325303  0.5275450055892316  0.1921381872056441
  0.5420007515253824  0.5503745829798230  0.1537540431318072
  0.5915816592963933  0.5503782068858776  0.1537481174865075
  0.6112945403003739  0.5617063795937483  0.1921679932044087
  0.5667872934836580  0.5645914424620343  0.1942137273256442
  0.5470850173917785  0.6274227716274161  0.1537481174865075
  0.5222928699933002  0.5903732646561020  0.1516784562066809
  0.5470803473279148  0.6045895703307700  0.1921381872056441
  0.5668013198478757  0.5932568823677403  0.1537237914668385
  0.5667992677728889  0.6160516515804957  0.1215349594841056
  0.5865126896574990  0.6045856236404221  0.1921453948317297
  0.5865189405761516  0.6274191477213612  0.1537540431318072
  0.6113077009486849  0.5903732646561020  0.1516784562066809
  0.6360998483471625  0.6274227716274161  0.1537481174865075
  0.6360951782832995  0.6045895703307700  0.1921381872056441
  0.2107385745742201  0.6387509443352868  0.1921679932044087
  0.2355392125571454  0.6816341350723084  0.1921381872056441
  0.2749715548867300  0.6816301883819604  0.1921453948317297
  0.2552601850771068  0.6703014471092789  0.1537237914668385
  0.2552461587128886  0.6416360072035727  0.1942137273256442
  0.2749778058053822  0.7044637124628998  0.1537540431318072
  0.2552567636249893  0.7157955090768257  0.1921679932044087
  0.2800574016079150  0.7586786998138471  0.1921381872056441
  0.3690626597063766  0.6560497794492316  0.1194594193641056
  0.3887836322263376  0.6447170914862017  0.0810450236252999
  0.4084950020359604  0.6560458327588835  0.1194666269901914
  0.4135808487571458  0.7330943441907701  0.1194594193641056
  0.3442729639575042  0.6930962163220344  0.1215349594841056
  0.2997534055296053  0.6387509443352868  0.1921679932044087
  0.3442609896682733  0.6416360072035727  0.1942137273256442
  0.3245540435125301  0.6816341350723084  0.1921381872056441
  0.3442750160324916  0.6703014471092789  0.1537237914668385
  0.3639863858421143  0.6816301883819604  0.1921453948317297
  0.3887682364849892  0.6387509443352868  0.1921679932044087
  0.3887813971333003  0.6674178293976405  0.1516784562066809
  0.3887802107742201  0.6902111534537483  0.1194892253628700
  0.4135688744679145  0.6816341350723084  0.1921381872056441
  0.2997643477636578  0.7186805719451111  0.1942137273256442
  0.3442715945803741  0.7157955090768257  0.1921679932044087
  0.3245587135763935  0.7044673363689546  0.1537481174865075
  0.3442847552286847  0.7444623941391790  0.1516784562066809
  0.3639926367607669  0.7044637124628998  0.1537540431318072
  0.3887932050832603  0.7473460118508172  0.1537237914668385
  0.3887791787190426  0.7186805719451111  0.1942137273256442
  0.4135735445317782  0.7044673363689546  0.1537481174865075
  0.3194897439374992  0.7586747531234991  0.1921453948317297
  0.3442825368144270  0.7957251366866495  0.1942137273256442
  0.3690722325632994  0.7586786998138471  0.1921381872056441
  0.4085108258115361  0.7815082772044379  0.1537540431318072
  0.3887897836311437  0.7928400738183637  0.1921679932044087
  0.4085045748928836  0.7586747531234991  0.1921453948317297
  0.4332900133271463  0.6418334737745633  0.0789996883651424
  0.4580774906617613  0.6560497794492316  0.1194594193641056
  0.4580821607256242  0.6788829807458777  0.0810693496449691
  0.4777984631817228  0.6447170914862017  0.0810450236252999
  0.4975098329913452  0.6560458327588835  0.1194666269901914
  0.5470969916810090  0.6788829807458777  0.0810693496449691
  0.4975160839099973  0.6788793568398229  0.0810752752902687
  0.5223048442825311  0.6418334737745633  0.0789996883651424
  0.5470923216171457  0.6560497794492316  0.1194594193641056
  0.4530131910867296  0.7330903975004222  0.1194666269901914
  0.5025956797125302  0.7330943441907701  0.1194594193641056
  0.5420280220421144  0.7330903975004222  0.1194666269901914
  0.4777962280886847  0.6674178293976405  0.1516784562066809
  0.4777830674403736  0.6387509443352868  0.1921679932044087
  0.4332758206236581  0.6416360072035727  0.1942137273256442
  0.4530012167974992  0.6816301883819604  0.1921453948317297
  0.4332898469878763  0.6703014471092789  0.1537237914668385
  0.4777950417296054  0.6902111534537483  0.1194892253628700
  0.4777940096744273  0.7186805719451111  0.1942137273256442
  0.4332864255357584  0.7157955090768257  0.1921679932044087
  0.4332995861840696  0.7444623941391790  0.1516784562066809
  0.4332877949128886  0.6930962163220344  0.1215349594841056
  0.4530074677161517  0.7044637124628998  0.1537540431318072
  0.5223046779432606  0.6703014471092789  0.1537237914668385
  0.5222906515790429  0.6416360072035727  0.1942137273256442
  0.5025837054232997  0.6816341350723084  0.1921381872056441
  0.5420160477528839  0.6816301883819604  0.1921453948317297
  0.5223026258682734  0.6930962163220344  0.1215349594841056
  0.5420222986715365  0.7044637124628998  0.1537540431318072
  0.5223012564911432  0.7157955090768257  0.1921679932044087
  0.5025883754871625  0.7044673363689546  0.1537481174865075
  0.5223144171394538  0.7444623941391790  0.1516784562066809
  0.4778080360386455  0.7473460118508172  0.1537237914668385
  0.4580917335825475  0.7815119011104932  0.1537481174865075
  0.4580870635186841  0.7586786998138471  0.1921381872056441
  0.4778046145865277  0.7928400738183637  0.1921679932044087
  0.4332973677698118  0.7957251366866495  0.1942137273256442
  0.4530227639436533  0.8357193178650376  0.1921453948317297
  0.4975194058482684  0.7586747531234991  0.1921453948317297
  0.4975256567669210  0.7815082772044379  0.1537540431318072
  0.5471018944740689  0.7586786998138471  0.1921381872056441
  0.5223121987251961  0.7957251366866495  0.1942137273256442
  0.5420375948990376  0.8357193178650376  0.1921453948317297
  0.5026052525694533  0.8357232645553856  0.1921381872056441
  0.6113196752379154  0.6418334737745633  0.0789996883651424
  0.5865246639467295  0.6560458327588835  0.1194666269901914
  0.5668132941371067  0.6447170914862017  0.0810450236252999
  0.5916105106679145  0.7330943441907701  0.1194594193641056
  0.5668098726849893  0.6902111534537483  0.1194892253628700
  0.6113174568236581  0.6930962163220344  0.1215349594841056
  0.6113195088986449  0.6703014471092789  0.1537237914668385
  0.6113054825344272  0.6416360072035727  0.1942137273256442
  0.5667978983957583  0.6387509443352868  0.1921679932044087
  0.5668110590440694  0.6674178293976405  0.1516784562066809
  0.6310308787082682  0.6816301883819604  0.1921453948317297
  0.5915985363786835  0.6816341350723084  0.1921381872056441
  0.6310371296269208  0.7044637124628998  0.1537540431318072
  0.5916032064425478  0.7044673363689546  0.1537481174865075
  0.6113160874465275  0.7157955090768257  0.1921679932044087
  0.5668088406298121  0.7186805719451111  0.1942137273256442
  0.5668228669940298  0.7473460118508172  0.1537237914668385
  0.6113292480948387  0.7444623941391790  0.1516784562066809
  0.5471065645379318  0.7815119011104932  0.1537481174865075
  0.5865342368036531  0.7586747531234991  0.1921453948317297
  0.5865404877223057  0.7815082772044379  0.1537540431318072
  0.6113270296805813  0.7957251366866495  0.1942137273256442
  0.5668194455419124  0.7928400738183637  0.1921679932044087
  0.6361071525725300  0.6560497794492316  0.1194594193641056
  0.6558247036403740  0.6902111534537483  0.1194892253628700
  0.6558258899994542  0.6674178293976405  0.1516784562066809
  0.6558376979494146  0.7473460118508172  0.1537237914668385
  0.6558127293511431  0.6387509443352868  0.1921679932044087
  0.7003309184019123  0.7157955090768257  0.1921679932044087
  0.6806180373979321  0.7044673363689546  0.1537481174865075
  0.6806133673340687  0.6816341350723084  0.1921381872056441
  0.6558236715851964  0.7186805719451111  0.1942137273256442
  0.7251315563848379  0.7586786998138471  0.1921381872056441
  0.6558342764972968  0.7928400738183637  0.1921679932044087
  0.6755490677590374  0.7586747531234991  0.1921453948317297
  0.6361167254294536  0.7586786998138471  0.1921381872056441
  0.2551813342563771  0.1792745874530251  0.2970359918897577
  0.3886928071163770  0.1022300227114867  0.2970359918897577
  0.3244774277848382  0.1679065375046163  0.2648169550471826
  0.3244701235594706  0.1392795296828009  0.2991056531695845
  0.3441961652117619  0.1792745874530251  0.2970359918897577
  0.3639040467438441  0.1392759057767459  0.2991115788148840
  0.3639097701144220  0.1679025908142684  0.2648241626732682
  0.3887047814056079  0.1536902318299481  0.2243572240482193
  0.4134922587402230  0.1679065375046163  0.2648169550471826
  0.4134849545148550  0.1392795296828009  0.2991056531695845
  0.3886916207572973  0.1250233467675944  0.2648467610459470
  0.4332109961671463  0.1792745874530251  0.2970359918897577
  0.2106835059926818  0.2791124762506714  0.2648467610459470
  0.2303982972544221  0.2449471555558067  0.2648241626732682
  0.2304045481730747  0.2677806796367458  0.2264328109733457
  0.2106846923517620  0.2563191521945635  0.2970359918897577
  0.2303925738838442  0.2163204705182844  0.2991115788148840
  0.2799734816548551  0.2163240944243393  0.2991056531695845
  0.2996877320359658  0.2049529743774188  0.2668924951671827
  0.2996897841109532  0.1821582051646634  0.2990813271499153
  0.2551801478972970  0.2020679115091329  0.2648467610459470
  0.2551933085456081  0.2307347965714865  0.2243572240482193
  0.2799807858802226  0.2449511022461548  0.2648169550471826
  0.2996995233071468  0.2563191521945635  0.2970359918897577
  0.2799854559440855  0.2677843035428009  0.2264268853280461
  0.2551931422063380  0.2592027699062018  0.2990813271499153
  0.2996983369480662  0.2791124762506714  0.2648467610459470
  0.3194074048392285  0.2163204705182844  0.2991115788148840
  0.3639160210330746  0.1907361148952075  0.2264328109733457
  0.3441949788526817  0.2020679115091329  0.2648467610459470
  0.3244820978487011  0.1907397388012622  0.2264268853280461
  0.3689883126102398  0.2163240944243393  0.2991056531695845
  0.3442081395009924  0.2307347965714865  0.2243572240482193
  0.2997017584001836  0.2336184142831249  0.2264025593083769
  0.3194131282098069  0.2449471555558067  0.2648241626732682
  0.3194193791284595  0.2677806796367458  0.2264328109733457
  0.3689956168356074  0.2449511022461548  0.2648169550471826
  0.3442079731617224  0.2592027699062018  0.2990813271499153
  0.3690002868994703  0.2677843035428009  0.2264268853280461
  0.3887025629913502  0.2049529743774188  0.2668924951671827
  0.4332098098080665  0.2020679115091329  0.2648467610459470
  0.3887046150663375  0.1821582051646634  0.2990813271499153
  0.4134969288040859  0.1907397388012622  0.2264268853280461
  0.4084222357946133  0.2163204705182844  0.2991115788148840
  0.4332229704563771  0.2307347965714865  0.2243572240482193
  0.3887165893555680  0.2336184142831249  0.2264025593083769
  0.4084279591651912  0.2449471555558067  0.2648241626732682
  0.3887143542625311  0.2563191521945635  0.2970359918897577
  0.3887131679034510  0.2791124762506714  0.2648467610459470
  0.4084342100838442  0.2677806796367458  0.2264328109733457
  0.4332228041171067  0.2592027699062018  0.2990813271499153
  0.4331990218779158  0.1278143783345636  0.3697147597312961
  0.4134802844509921  0.1164463283861547  0.3374957228887210
  0.3638977958251916  0.1164423816958068  0.3375029305148066
  0.3441841909225310  0.1278143783345636  0.3697147597312961
  0.3886926407771070  0.1306979960462018  0.3717600949914538
  0.3886786144128888  0.1020325561404957  0.4122500308502595
  0.4134729802256240  0.0878193205643394  0.3717844210111230
  0.3638920724546132  0.0878156966582845  0.3717903466564226
  0.4134683101617616  0.0649861192676933  0.4101744907302595
  0.4331858612296047  0.0991474932722099  0.4102042967290240
  0.4331870475886853  0.0763541692161021  0.4423935275728348
  0.3886806664878761  0.0792377869277404  0.4444388628329923
  0.3689643640317780  0.1134036761874162  0.4444631888526615
  0.4134705787933167  0.1389880318104932  0.5171419566941998
  0.4331848291744275  0.1276169117635727  0.4849287986917978
  0.4331868812494148  0.1048221425508173  0.5171176306745305
  0.4083982872161519  0.1134000522813614  0.4444691144979609
  0.3194011539205760  0.1934869464373453  0.3375029305148066
  0.2799615073656246  0.1648638853058778  0.3717844210111230
  0.2799688115909922  0.1934908931276932  0.3374957228887210
  0.3689716682571460  0.1420306840092317  0.4101744907302595
  0.3689763383210089  0.1648638853058778  0.3717844210111230
  0.3689836425463765  0.1934908931276932  0.3374957228887210
  0.4331978355188360  0.1506077023906715  0.3375255288874855
  0.3886905887021197  0.1534927652589573  0.3395712630087210
  0.4084102615053824  0.1648602613998228  0.3717903466564226
  0.4084159848759608  0.1934869464373453  0.3375029305148066
  0.4084040105867298  0.1420267373188836  0.4101816983563453
  0.3441819725082736  0.1790771208820342  0.4122500308502595
  0.3244677221271629  0.1904482409289548  0.4444631888526615
  0.3441840245832614  0.1562823516692787  0.4444388628329923
  0.3639016453115363  0.1904446170228998  0.4444691144979609
  0.3886902393447993  0.1818667072923558  0.5171176306745305
  0.3886892193249896  0.1761920580137483  0.4102042967290240
  0.3886904056840697  0.1533987339576404  0.4423935275728348
  0.4134778830186852  0.1676150396323086  0.4828532585717981
  0.4134825530825472  0.1904482409289548  0.4444631888526615
  0.4331954340865278  0.2017764136368255  0.4828830645705623
  0.4331968034636580  0.1790771208820342  0.4122500308502595
  0.4331966204456080  0.1789830895807174  0.5150722954143732
  0.4331988555386453  0.1562823516692787  0.4444388628329923
  0.2354721696863766  0.2705354578692318  0.3374957228887210
  0.2551811679171072  0.2077425607877403  0.3717600949914538
  0.2996853306036581  0.2561216856235726  0.4122500308502595
  0.2996863626588361  0.2276522671322101  0.3375255288874855
  0.3244796964163938  0.2419084500474163  0.3717844210111230
  0.3244750263525304  0.2190752487507702  0.4101744907302595
  0.2996875490179159  0.2048589430761020  0.3697147597312961
  0.3441939467975041  0.2305373300004957  0.3395712630087210
  0.3244870006417614  0.2705354578692318  0.3374957228887210
  0.3441925774203740  0.2532366227552870  0.4102042967290240
  0.3441959988724915  0.2077425607877403  0.3717600949914538
  0.3887001615590429  0.2561216856235726  0.4122500308502595
  0.3639073686821147  0.2190713020604221  0.4101816983563453
  0.3639193429713456  0.2705315111788836  0.3375029305148066
  0.3639136196007673  0.2419048261413614  0.3717903466564226
  0.3887011936142205  0.2276522671322101  0.3375255288874855
  0.3887023799733002  0.2048589430761020  0.3697147597312961
  0.4135018315971462  0.2705354578692318  0.3374957228887210
  0.4134945273717786  0.2419084500474163  0.3717844210111230
  0.4332074083757588  0.2532366227552870  0.4102042967290240
  0.4332087777528889  0.2305373300004957  0.3395712630087210
  0.4134898573079153  0.2190752487507702  0.4101744907302595
  0.4332108298278762  0.2077425607877403  0.3717600949914538
  0.3194050034069212  0.2674891817644382  0.4444691144979609
  0.2996873826786454  0.2333269164108171  0.4444388628329923
  0.3441937637794542  0.2304432986991790  0.4423935275728348
  0.2799710802225474  0.2674928056704933  0.4444631888526615
  0.3689812411140692  0.2446596043738470  0.4828532585717981
  0.3689859111779321  0.2674928056704933  0.4444631888526615
  0.3886987921819127  0.2788209783783638  0.4828830645705623
  0.3887022136340306  0.2333269164108171  0.4444388628329923
  0.4084198343623056  0.2674891817644382  0.4444691144979609
  0.4084135834436530  0.2446556576834991  0.4828604661978836
  0.4332085947348394  0.2304432986991790  0.4423935275728348
  0.3886999785409929  0.2560276543222560  0.5150722954143732
  0.3886881872698120  0.2046614765051112  0.4849287986917978
  0.3441915453651973  0.2817060412466496  0.4849287986917978
  0.3689739368887012  0.2160325965520317  0.5171419566941998
  0.4332084283955685  0.2589112720338940  0.5171176306745305
  0.3441935974401842  0.2589112720338940  0.5171176306745305
  0.4084078600730751  0.2160289726459767  0.5171478823394995
  0.4134874558756075  0.2702439599969241  0.5555320264133365
  0.4332061933025312  0.2816120099453329  0.5877510632559115
  0.1859079062684596  0.3448252443782843  0.2264328109733457
  0.2997114975963773  0.3077793613130251  0.2243572240482193
  0.2552028814025312  0.3333637169361020  0.2970359918897577
  0.2106966666409925  0.3077793613130251  0.2243572240482193
  0.1859016553498066  0.3219917202973452  0.2648241626732682
  0.2354841439756075  0.3219956669876931  0.2648169550471826
  0.2551910901313503  0.2819975391189572  0.2668924951671827
  0.2997092791821204  0.3590421038604957  0.2668924951671827
  0.2107084745909530  0.3877075437662017  0.2264025593083769
  0.2552148556917617  0.3848239260545636  0.2243572240482193
  0.2997233055463377  0.3877075437662017  0.2264025593083769
  0.2106944482267352  0.3590421038604957  0.2668924951671827
  0.2304198444005762  0.3990362850388837  0.2648241626732682
  0.2107062394979157  0.4104082816776403  0.2970359918897577
  0.2800023330263768  0.3990402317292316  0.2648169550471826
  0.1909875020709920  0.3990402317292316  0.2648169550471826
  0.2997210704533005  0.4104082816776403  0.2970359918897577
  0.2106965003017225  0.3362473346477400  0.2990813271499153
  0.2551897207542201  0.3046968318737482  0.3375255288874855
  0.2106845260124916  0.2847871255292789  0.3717600949914538
  0.2354768397502395  0.2933686591658777  0.2991056531695845
  0.2106824739375043  0.3075818947420342  0.3395712630087210
  0.1858959319792287  0.2933650352598229  0.2991115788148840
  0.2304078701113453  0.3475760759204222  0.3375029305148066
  0.1909755277817615  0.3475800226107702  0.3374957228887210
  0.2106942652086848  0.3589480725591791  0.3697147597312961
  0.1909801978456244  0.3704132239074163  0.2991056531695845
  0.2304141210299979  0.3704096000013611  0.2991115788148840
  0.2106930788496050  0.3817413966152869  0.3375255288874855
  0.2997113312571072  0.3362473346477400  0.2990813271499153
  0.2551909071133003  0.2819035078176405  0.3697147597312961
  0.2996973048928890  0.3075818947420342  0.3395712630087210
  0.2749107629346134  0.2933650352598229  0.2991115788148840
  0.2996993569678764  0.2847871255292789  0.3717600949914538
  0.2799903587371463  0.3475800226107702  0.3374957228887210
  0.3194227010667301  0.3475760759204222  0.3375029305148066
  0.2997090961640695  0.3589480725591791  0.3697147597312961
  0.2799950288010087  0.3704132239074163  0.2991056531695845
  0.2552027150632608  0.3618316902708172  0.3717600949914538
  0.2997079098049894  0.3817413966152869  0.3375255288874855
  0.2552006629882735  0.3846264594835727  0.3395712630087210
  0.2552146893524917  0.4132918993892786  0.2990813271499153
  0.3442177123579160  0.3333637169361020  0.2970359918897577
  0.3639313172605761  0.3219917202973452  0.2648241626732682
  0.4332325433133004  0.3333637169361020  0.2970359918897577
  0.4332207520421198  0.2819975391189572  0.2668924951671827
  0.3442059210867351  0.2819975391189572  0.2668924951671827
  0.3887263285517616  0.3077793613130251  0.2243572240482193
  0.3244989749309919  0.3219956669876931  0.2648169550471826
  0.4332347784063376  0.3106629790246631  0.2264025593083769
  0.3442199474509529  0.3106629790246631  0.2264025593083769
  0.4135138058863767  0.3219956669876931  0.2648169550471826
  0.3639375681792287  0.3448252443782843  0.2264328109733457
  0.3690171639817615  0.3990402317292316  0.2648169550471826
  0.3245036449948548  0.3448288682843395  0.2264268853280461
  0.3194346753559605  0.3990362850388837  0.2648241626732682
  0.3442165259988350  0.3561570409922098  0.2648467610459470
  0.3442296866471465  0.3848239260545636  0.2243572240482193
  0.3887241101375043  0.3590421038604957  0.2668924951671827
  0.4084495063113454  0.3990362850388837  0.2648241626732682
  0.3887381365017221  0.3877075437662017  0.2264025593083769
  0.3887359014086852  0.4104082816776403  0.2970359918897577
  0.4332313569542198  0.3561570409922098  0.2648467610459470
  0.4332445176025309  0.3848239260545636  0.2243572240482193
  0.4135184759502396  0.3448288682843395  0.2264268853280461
  0.3442045517096050  0.3046968318737482  0.3375255288874855
  0.3244916707056243  0.2933686591658777  0.2991056531695845
  0.3639255938899978  0.2933650352598229  0.2991115788148840
  0.3442057380686851  0.2819035078176405  0.3697147597312961
  0.3887121358482734  0.3075818947420342  0.3395712630087210
  0.3887141879232607  0.2847871255292789  0.3717600949914538
  0.3887261622124916  0.3362473346477400  0.2990813271499153
  0.4084375320221144  0.3475760759204222  0.3375029305148066
  0.4135065016610091  0.2933686591658777  0.2991056531695845
  0.4332193826649897  0.3046968318737482  0.3375255288874855
  0.4332205690240694  0.2819035078176405  0.3697147597312961
  0.3442175460186451  0.3618316902708172  0.3717600949914538
  0.3442154939436582  0.3846264594835727  0.3395712630087210
  0.3194289519853826  0.3704096000013611  0.2991115788148840
  0.3690051896925306  0.3475800226107702  0.3374957228887210
  0.3442295203078765  0.4132918993892786  0.2990813271499153
  0.3690098597563935  0.3704132239074163  0.2991056531695845
  0.3887227407603746  0.3817413966152869  0.3375255288874855
  0.4084437829407670  0.3704096000013611  0.2991115788148840
  0.3887239271194543  0.3589480725591791  0.3697147597312961
  0.4332303248990426  0.3846264594835727  0.3395712630087210
  0.4332323769740299  0.3618316902708172  0.3717600949914538
  0.4332443512632608  0.4132918993892786  0.2990813271499153
  0.2304021467407669  0.3189493908828999  0.3717903466564226
  0.2551907407740299  0.3103714811523556  0.4444388628329923
  0.2354744383179322  0.3445373704120315  0.4444631888526615
  0.2551886886990430  0.3331662503651112  0.4122500308502595
  0.2749083615023057  0.3445337465059768  0.4444691144979609
  0.1909682235563935  0.3189530147889548  0.3717844210111230
  0.2354817425432998  0.3731643782338471  0.4101744907302595
  0.2552004799702235  0.3845324281822559  0.4423935275728348
  0.2106940988694148  0.3874160458938940  0.4444388628329923
  0.2106920467944279  0.4102108151066496  0.4122500308502595
  0.1859055048361518  0.3959939556244382  0.3717903466564226
  0.2354864126071627  0.3959975795304932  0.3717844210111230
  0.2551992936111434  0.4073257522383638  0.4102042967290240
  0.2799783844479153  0.2961198134923086  0.4101744907302595
  0.3194107267774992  0.2961158668019605  0.4101816983563453
  0.2996971218748386  0.3074878634407174  0.4423935275728348
  0.2799830545117782  0.3189530147889548  0.3717844210111230
  0.3194169776961517  0.3189493908828999  0.3717903466564226
  0.2996959355157589  0.3302811874968253  0.4102042967290240
  0.2749203357915362  0.3959939556244382  0.3717903466564226
  0.3244892692733166  0.3445373704120315  0.4444631888526615
  0.2997089298247991  0.3874160458938940  0.4444388628329923
  0.2749140848728840  0.3731604315434991  0.4101816983563453
  0.2997068777498122  0.4102108151066496  0.4122500308502595
  0.3689932154032997  0.2961198134923086  0.4101744907302595
  0.3442035196544274  0.3331662503651112  0.4122500308502595
  0.3442055717294146  0.3103714811523556  0.4444388628329923
  0.3639231924576904  0.3445337465059768  0.4444691144979609
  0.3689978854671630  0.3189530147889548  0.3717844210111230
  0.3887107664711432  0.3302811874968253  0.4102042967290240
  0.3887119528302234  0.3074878634407174  0.4423935275728348
  0.4084318086515365  0.3189493908828999  0.3717903466564226
  0.4084255577328839  0.2961158668019605  0.4101816983563453
  0.4135041002287013  0.3445373704120315  0.4444631888526615
  0.4332183506098121  0.3331662503651112  0.4122500308502595
  0.4332204026847998  0.3103714811523556  0.4444388628329923
  0.3639289158282684  0.3731604315434991  0.4101816983563453
  0.3442141245665281  0.4073257522383638  0.4102042967290240
  0.3244965734986845  0.3731643782338471  0.4101744907302595
  0.3245012435625474  0.3959975795304932  0.3717844210111230
  0.3442153109256079  0.3845324281822559  0.4423935275728348
  0.3639351667469209  0.3959939556244382  0.3717903466564226
  0.3887217087051966  0.4102108151066496  0.4122500308502595
  0.3887237607801839  0.3874160458938940  0.4444388628329923
  0.4135160745179323  0.3959975795304932  0.3717844210111230
  0.4332289555219124  0.4073257522383638  0.4102042967290240
  0.4332301418809926  0.3845324281822559  0.4423935275728348
  0.4135114044540689  0.3731643782338471  0.4101744907302595
  0.2996969555355686  0.3359558367754326  0.5171176306745305
  0.3244772949840856  0.2930771612935701  0.5171419566941998
  0.3244845992094537  0.3217041691153855  0.4828532585717981
  0.3442033366363774  0.3330722190637943  0.5150722954143732
  0.3639169415390375  0.3217002224250374  0.4828604661978836
  0.3442021502772972  0.3558655431199022  0.4828830645705623
  0.2996949034605813  0.3587506059881880  0.4849287986917978
  0.2552003136309531  0.4130004015169711  0.5171176306745305
  0.2997066947317618  0.4101167838053327  0.5150722954143732
  0.3194202996344224  0.3987447871665760  0.4828604661978836
  0.2799806530794701  0.3701217260351085  0.5171419566941998
  0.3442151445863378  0.4130004015169711  0.5171176306745305
  0.2799879573048381  0.3987487338569239  0.4828532585717981
  0.4332181675917621  0.3330722190637943  0.5150722954143732
  0.4134921259394704  0.2930771612935701  0.5171419566941998
  0.4134994301648384  0.3217041691153855  0.4828532585717981
  0.4332063763205812  0.2817060412466496  0.4849287986917978
  0.3887117864909534  0.3359558367754326  0.5171176306745305
  0.4332169812326820  0.3558655431199022  0.4828830645705623
  0.3887097344159665  0.3587506059881880  0.4849287986917978
  0.3689954840348544  0.3701217260351085  0.5171419566941998
  0.4084351305898067  0.3987447871665760  0.4828604661978836
  0.3887215256871466  0.4101167838053327  0.5150722954143732
  0.3690027882602229  0.3987487338569239  0.4828532585717981
  0.4332299755417226  0.4130004015169711  0.5171176306745305
  0.3639112181684596  0.2930735373875153  0.5171478823394995
  0.3689908139709924  0.3472885247384625  0.5555320264133365
  0.4084231563005762  0.3472845780481144  0.5555392340394220
  0.4332050069434510  0.3044053340014406  0.5555618324121008
  0.3886977601267351  0.3072903968697266  0.5576075665333362
  0.3887095513979157  0.3586565746868713  0.5877510632559115
  0.3194145762638440  0.3701181021290537  0.5171478823394995
  0.3887083650388359  0.3814498987429792  0.5555618324121008
  0.3442011182221200  0.3843349616112650  0.5576075665333362
  0.4084294072192288  0.3701181021290537  0.5171478823394995
  0.4332159491775044  0.3843349616112650  0.5576075665333362
  0.3442031702971069  0.3615401923985095  0.5897963985160694
  0.3886998122017220  0.2844956276569710  0.5897963985160694
  0.4332060269632608  0.3100799832800478  0.6624751663576077
  0.3689835097456244  0.3186615169166470  0.5898207245357382
  0.4332039748882734  0.3328747524928035  0.6302863343748750
  0.4084174329299978  0.3186578930105922  0.5898266501810381
  0.4134897245071626  0.3442458725397238  0.6624994923772766
  0.4134970287325307  0.3728728803615394  0.6282107942548749
  0.4332180012524913  0.3615401923985095  0.5897963985160694
  0.4332157661594540  0.3842409303099482  0.6604298310974501
  0.3887093850586452  0.3871245480215864  0.6624751663576077
  0.3244868678410088  0.3957060816581855  0.5898207245357382
  0.3639207910253827  0.3957024577521306  0.5898266501810381
  0.4332145798003742  0.4070342543660561  0.6282406002536391
  0.4135016987963936  0.3957060816581855  0.5898207245357382
  0.4084270057869210  0.4212868133752075  0.6625054180225762
  0.3887073329836579  0.4099193172343419  0.6302863343748750
  0.2304260953192288  0.4218698091198228  0.2264328109733457
  0.1909921721348549  0.4218734330258777  0.2264268853280461
  0.1859174791253823  0.4474541647428997  0.2991115788148840
  0.2107050531388355  0.4332016057337484  0.2648467610459470
  0.2354983868963936  0.4474577886489546  0.2991056531695845
  0.2107182137871462  0.4618684907961021  0.2243572240482193
  0.1662118326863374  0.4647521085077402  0.2264025593083769
  0.1859232024959607  0.4760808497804220  0.2648241626732682
  0.1662095975933001  0.4874528464191789  0.2970359918897577
  0.2107180474478762  0.4903364641308171  0.2990813271499153
  0.1859294534146133  0.4989143738613612  0.2264328109733457
  0.1662084112342200  0.5102461704752868  0.2648467610459470
  0.2749380334513450  0.4760808497804220  0.2648241626732682
  0.2355103611856241  0.4989179977674163  0.2264268853280461
  0.2800070030902396  0.4218734330258777  0.2264268853280461
  0.2552266636417222  0.4647521085077402  0.2264025593083769
  0.2749442843699980  0.4989143738613612  0.2264328109733457
  0.2355056911217612  0.4760847964707702  0.2648169550471826
  0.2997198840942198  0.4332016057337484  0.2648467610459470
  0.2552232421896047  0.5102461704752868  0.2648467610459470
  0.2552126372775044  0.4360866686020341  0.2668924951671827
  0.2749323100807671  0.4474541647428997  0.2991115788148840
  0.2552244285486849  0.4874528464191789  0.2970359918897577
  0.2107300217371066  0.5417966732492785  0.2264025593083769
  0.2107159953728888  0.5131312333435726  0.2668924951671827
  0.1910017449917781  0.5245023533904932  0.2991056531695845
  0.1662215718825311  0.5389130555376402  0.2243572240482193
  0.1910090492171456  0.5531293612123086  0.2648169550471826
  0.2107277866440694  0.5644974111607173  0.2970359918897577
  0.1910137192810085  0.5759625625089544  0.2264268853280461
  0.1662214055432606  0.5673810288723556  0.2990813271499153
  0.2107266002849892  0.5872907352168251  0.2648467610459470
  0.1662193534682733  0.5901757980851110  0.2668924951671827
  0.1859390262715364  0.6015432942259766  0.2991115788148840
  0.2800285502363933  0.5759625625089544  0.2264268853280461
  0.2107397609333003  0.6159576202791789  0.2243572240482193
  0.2552364028379154  0.5389130555376402  0.2243572240482193
  0.2800238801725304  0.5531293612123086  0.2648169550471826
  0.2304476424653825  0.5759589386028998  0.2264328109733457
  0.2304413915467299  0.5531254145219606  0.2648241626732682
  0.2552341844236581  0.5901757980851110  0.2668924951671827
  0.2800165759471628  0.5245023533904932  0.2991056531695845
  0.2552362364986454  0.5673810288723556  0.2990813271499153
  0.2749538572269208  0.6015432942259766  0.2991115788148840
  0.2304356681761515  0.5244987294844381  0.2991115788148840
  0.2355199340425473  0.6015469181320316  0.2991056531695845
  0.2107060731586453  0.4388762550123557  0.3717600949914538
  0.1859112282067298  0.4246206406619605  0.3375029305148066
  0.1909851006386847  0.4502089429753857  0.4101744907302595
  0.2304174429682685  0.4502049962850376  0.4101816983563453
  0.2107040210836579  0.4616710242251110  0.3395712630087210
  0.2304236938869211  0.4730385203659768  0.3717903466564226
  0.1909897707025471  0.4730421442720316  0.3717844210111230
  0.1662094312540301  0.5159208197538940  0.3717600949914538
  0.2107158123548389  0.5130372020422558  0.3697147597312961
  0.2107026517065278  0.4843703169799022  0.4102042967290240
  0.1909970749279152  0.5016691520938471  0.3374957228887210
  0.2304294172574990  0.5016652054034991  0.3375029305148066
  0.2799999315940690  0.4502089429753857  0.4101744907302595
  0.2997209041140300  0.4388762550123557  0.3717600949914538
  0.2354937168325311  0.4246245873523085  0.3374957228887210
  0.2552124542594540  0.4359926373007175  0.3697147597312961
  0.2749260591621145  0.4246206406619605  0.3375029305148066
  0.2552112679003739  0.4587859613568253  0.3375255288874855
  0.2997188520390427  0.4616710242251110  0.3395712630087210
  0.2800046016579319  0.4730421442720316  0.3717844210111230
  0.2997174826619126  0.4843703169799022  0.4102042967290240
  0.2800119058832999  0.5016691520938471  0.3374957228887210
  0.2552242622094145  0.5159208197538940  0.3717600949914538
  0.2552102358451971  0.4872553798481879  0.4122500308502595
  0.2107135939405811  0.5642999445897264  0.4122500308502595
  0.1859270519823055  0.5500830851075151  0.3717903466564226
  0.1859208010636529  0.5272495610265758  0.4101816983563453
  0.1662073791790428  0.5387155889666495  0.3395712630087210
  0.2107146259957587  0.5358305260983638  0.3375255288874855
  0.1859327753528839  0.5787097701450375  0.3375029305148066
  0.1662191704502233  0.5900817667837942  0.3697147597312961
  0.2107276203047994  0.5929653844954327  0.3717600949914538
  0.1910066477848384  0.6042980724584623  0.4101744907302595
  0.2107255682298120  0.6157601537081878  0.3395712630087210
  0.1662179840911436  0.6128750908399022  0.3375255288874855
  0.2304389901144221  0.6042941257681144  0.4101816983563453
  0.2355032896894535  0.5272535077169240  0.4101744907302595
  0.2749356320190377  0.5272495610265758  0.4101816983563453
  0.2749418829376903  0.5500830851075151  0.3717903466564226
  0.2997294569511431  0.5358305260983638  0.3375255288874855
  0.2552222101344276  0.5387155889666495  0.3395712630087210
  0.2355079597533164  0.5500867090135702  0.3717844210111230
  0.2552208407572970  0.5614148817214406  0.4102042967290240
  0.2997284248959663  0.5642999445897264  0.4122500308502595
  0.2552340014056081  0.5900817667837942  0.3697147597312961
  0.2800214787402227  0.6042980724584623  0.4101744907302595
  0.2749476063082682  0.5787097701450375  0.3375029305148066
  0.2552328150465279  0.6128750908399022  0.3375255288874855
  0.2355152639786844  0.5787137168353855  0.3374957228887210
  0.3442380731449891  0.5102461704752868  0.2648467610459470
  0.2997308263282736  0.5131312333435726  0.2668924951671827
  0.3245205220771460  0.4760847964707702  0.2648169550471826
  0.3245251921410084  0.4989179977674163  0.2264268853280461
  0.2997328784032610  0.4903364641308171  0.2990813271499153
  0.3442274682328887  0.4360866686020341  0.2668924951671827
  0.2997330447425309  0.4618684907961021  0.2243572240482193
  0.3194409262746131  0.4218698091198228  0.2264328109733457
  0.3245132178517779  0.4474577886489546  0.2991056531695845
  0.3639471410361519  0.4474541647428997  0.2991115788148840
  0.3442414945971070  0.4647521085077402  0.2264025593083769
  0.3442392595040693  0.4874528464191789  0.2970359918897577
  0.3887347150496046  0.4332016057337484  0.2648467610459470
  0.4084557572299979  0.4218698091198228  0.2264328109733457
  0.3690218340456240  0.4218734330258777  0.2264268853280461
  0.4135280488071627  0.4474577886489546  0.2991056531695845
  0.4332422991882735  0.4360866686020341  0.2668924951671827
  0.3887478756979157  0.4618684907961021  0.2243572240482193
  0.3639528644067298  0.4760808497804220  0.2648241626732682
  0.4135353530325308  0.4760847964707702  0.2648169550471826
  0.3887477093586453  0.4903364641308171  0.2990813271499153
  0.4135400230963932  0.4989179977674163  0.2264268853280461
  0.3887456572836580  0.5131312333435726  0.2668924951671827
  0.3639591153253823  0.4989143738613612  0.2264328109733457
  0.3194562225021143  0.5531254145219606  0.2648241626732682
  0.3442512337933002  0.5389130555376402  0.2243572240482193
  0.3194504991315363  0.5244987294844381  0.2991115788148840
  0.2997448526924914  0.5417966732492785  0.2264025593083769
  0.3442510674540302  0.5673810288723556  0.2990813271499153
  0.2997426175994541  0.5644974111607173  0.2970359918897577
  0.3194624734207672  0.5759589386028998  0.2264328109733457
  0.3442490153790428  0.5901757980851110  0.2668924951671827
  0.3245347649979320  0.6015469181320316  0.2991056531695845
  0.2997414312403735  0.5872907352168251  0.2648467610459470
  0.3639686881823055  0.6015432942259766  0.2991115788148840
  0.2997545918886846  0.6159576202791789  0.2243572240482193
  0.4084710534574990  0.5531254145219606  0.2648241626732682
  0.3690314069025472  0.5245023533904932  0.2991056531695845
  0.4084653300869211  0.5244987294844381  0.2991115788148840
  0.3887596836478762  0.5417966732492785  0.2264025593083769
  0.3690387111279152  0.5531293612123086  0.2648169550471826
  0.3887574485548389  0.5644974111607173  0.2970359918897577
  0.4084773043761516  0.5759589386028998  0.2264328109733457
  0.3690433811917777  0.5759625625089544  0.2264268853280461
  0.3887562621957583  0.5872907352168251  0.2648467610459470
  0.4135495959533164  0.6015469181320316  0.2991056531695845
  0.3887694228440694  0.6159576202791789  0.2243572240482193
  0.3442260988557586  0.4587859613568253  0.3375255288874855
  0.3245085477879159  0.4246245873523085  0.3374957228887210
  0.3194442482128838  0.5016652054034991  0.3375029305148066
  0.3639408901174993  0.4246206406619605  0.3375029305148066
  0.3442272852148388  0.4359926373007175  0.3697147597312961
  0.2997306433102232  0.5130372020422558  0.3697147597312961
  0.3442390931647992  0.5159208197538940  0.3717600949914538
  0.3194385248423054  0.4730385203659768  0.3717903466564226
  0.3442250668005810  0.4872553798481879  0.4122500308502595
  0.3194322739236533  0.4502049962850376  0.4101816983563453
  0.3690147625494538  0.4502089429753857  0.4101744907302595
  0.3690194326133167  0.4730421442720316  0.3717844210111230
  0.4135233787433003  0.4246245873523085  0.3374957228887210
  0.4332409298111438  0.4587859613568253  0.3375255288874855
  0.4084471048790376  0.4502049962850376  0.4101816983563453
  0.3887357350694148  0.4388762550123557  0.3717600949914538
  0.4332421161702235  0.4359926373007175  0.3697147597312961
  0.3887336829944275  0.4616710242251110  0.3395712630087210
  0.4084533557976902  0.4730385203659768  0.3717903466564226
  0.3887323136172973  0.4843703169799022  0.4102042967290240
  0.4332398977559658  0.4872553798481879  0.4122500308502595
  0.3887454742656080  0.5130372020422558  0.3697147597312961
  0.4084590791682685  0.5016652054034991  0.3375029305148066
  0.3690267368386843  0.5016691520938471  0.3374957228887210
  0.2997424512601837  0.5929653844954327  0.3717600949914538
  0.3442488323609924  0.5900817667837942  0.3697147597312961
  0.2997403991851968  0.6157601537081878  0.3395712630087210
  0.3442476460019127  0.6128750908399022  0.3375255288874855
  0.3442370410898119  0.5387155889666495  0.3395712630087210
  0.3245300949340691  0.5787137168353855  0.3374957228887210
  0.3245227907087012  0.5500867090135702  0.3717844210111230
  0.3639504629744220  0.5272495610265758  0.4101816983563453
  0.3245181206448383  0.5272535077169240  0.4101744907302595
  0.3194538210698065  0.6042941257681144  0.4101816983563453
  0.3442356717126818  0.5614148817214406  0.4102042967290240
  0.4135329516002230  0.5272535077169240  0.4101744907302595
  0.3639567138930746  0.5500830851075151  0.3717903466564226
  0.4135376216640859  0.5500867090135702  0.3717844210111230
  0.3887442879065278  0.5358305260983638  0.3375255288874855
  0.4332505026680665  0.5614148817214406  0.4102042967290240
  0.3887432558513502  0.5642999445897264  0.4122500308502595
  0.3639624372636530  0.5787097701450375  0.3375029305148066
  0.4135449258894535  0.5787137168353855  0.3374957228887210
  0.3887552301405812  0.6157601537081878  0.3395712630087210
  0.3887572822155684  0.5929653844954327  0.3717600949914538
  0.4084686520251917  0.6042941257681144  0.4101816983563453
  0.3690363096956075  0.6042980724584623  0.4101744907302595
  0.2354840111748550  0.4471662907766471  0.5171419566941998
  0.2551982615559658  0.4357951707297265  0.4849287986917978
  0.2107036717263379  0.4900449662585094  0.5171176306745305
  0.2304117195976901  0.4215783112475150  0.4444691144979609
  0.1909777964133167  0.4215819351535702  0.4444631888526615
  0.1909873692702398  0.5242108555181854  0.5171419566941998
  0.2107016196513506  0.5128397354712650  0.4849287986917978
  0.2354913154002234  0.4757932985984625  0.4828532585717981
  0.2354959854640859  0.4986264998951085  0.4444631888526615
  0.1859150776930750  0.4986228759890536  0.4444691144979609
  0.2107038380656080  0.4615769929237944  0.4423935275728348
  0.2552088664680665  0.5099546726029791  0.4828830645705623
  0.2552100528271467  0.4871613485468713  0.5150722954143732
  0.2552122879201840  0.4644606106354325  0.4444388628329923
  0.2749299086484593  0.4986228759890536  0.4444691144979609
  0.2799926273687015  0.4215819351535702  0.4444631888526615
  0.2749236577298068  0.4757893519081144  0.4828604661978836
  0.2800022002256242  0.5242108555181854  0.5171419566941998
  0.2997164506067350  0.5128397354712650  0.4849287986917978
  0.2997185026817223  0.4900449662585094  0.5171176306745305
  0.2997186690209928  0.4615769929237944  0.4423935275728348
  0.2997055083726816  0.4329101078614407  0.4828830645705623
  0.2304332667438438  0.5756674407305920  0.4444691144979609
  0.2107253852117621  0.6156661224068711  0.4423935275728348
  0.1662071961609929  0.5386215576653330  0.4423935275728348
  0.2107156460155684  0.5415051753769711  0.4444388628329923
  0.1909993435594703  0.5756710646366471  0.4444631888526615
  0.1909946734956079  0.5528378633400008  0.4828532585717981
  0.2304270158251917  0.5528339166496529  0.4828604661978836
  0.2107122245634510  0.5869992373445176  0.4828830645705623
  0.2107134109225312  0.5642059132884099  0.5150722954143732
  0.1662070298217219  0.5670895310000480  0.5171176306745305
  0.2552220271163772  0.5386215576653330  0.4423935275728348
  0.2997304769709532  0.5415051753769711  0.4444388628329923
  0.2800141745148551  0.5756710646366471  0.4444631888526615
  0.2800095044509922  0.5528378633400008  0.4828532585717981
  0.2997270555188358  0.5869992373445176  0.4828830645705623
  0.2552198087021194  0.5898843002128034  0.4849287986917978
  0.2997282418779155  0.5642059132884099  0.5150722954143732
  0.2552218607771063  0.5670895310000480  0.5171176306745305
  0.2355055583210091  0.6012554202597240  0.5171419566941998
  0.3442271188755683  0.4644606106354325  0.4444388628329923
  0.3194265505530749  0.4215783112475150  0.4444691144979609
  0.3245108164194707  0.4986264998951085  0.4444631888526615
  0.3442248837825310  0.4871613485468713  0.5150722954143732
  0.3244988421302397  0.4471662907766471  0.5171419566941998
  0.3245061463556078  0.4757932985984625  0.4828532585717981
  0.3442130925113505  0.4357951707297265  0.4849287986917978
  0.3639447396038442  0.4986228759890536  0.4444691144979609
  0.3639384886851916  0.4757893519081144  0.4828604661978836
  0.3690074583240858  0.4215819351535702  0.4444631888526615
  0.3887334999763771  0.4615769929237944  0.4423935275728348
  0.4332419498309531  0.4644606106354325  0.4444388628329923
  0.4084413815084597  0.4215783112475150  0.4444691144979609
  0.4135256473748550  0.4986264998951085  0.4444631888526615
  0.4135209773109925  0.4757932985984625  0.4828532585717981
  0.3887333336371070  0.4900449662585094  0.5171176306745305
  0.4332397147379158  0.4871613485468713  0.5150722954143732
  0.3887203393280664  0.4329101078614407  0.4828830645705623
  0.4332279234667357  0.4357951707297265  0.4849287986917978
  0.4135136730856241  0.4471662907766471  0.5171419566941998
  0.3194480976992286  0.5756674407305920  0.4444691144979609
  0.3194418467805760  0.5528339166496529  0.4828604661978836
  0.3690170311810089  0.5242108555181854  0.5171419566941998
  0.3442236974234509  0.5099546726029791  0.4828830645705623
  0.3442366917324911  0.5670895310000480  0.5171176306745305
  0.3442368580717620  0.5386215576653330  0.4423935275728348
  0.3442346396575042  0.5898843002128034  0.4849287986917978
  0.3245203892763934  0.6012554202597240  0.5171419566941998
  0.3690290054702394  0.5756710646366471  0.4444631888526615
  0.3690243354063765  0.5528378633400008  0.4828532585717981
  0.3887312815621197  0.5128397354712650  0.4849287986917978
  0.4084566777359608  0.5528339166496529  0.4828604661978836
  0.4332385283788356  0.5099546726029791  0.4828830645705623
  0.3887453079263375  0.5415051753769711  0.4444388628329923
  0.4332516890271463  0.5386215576653330  0.4423935275728348
  0.3887430728333002  0.5642059132884099  0.5150722954143732
  0.4084629286546134  0.5756674407305920  0.4444691144979609
  0.3887418864742201  0.5869992373445176  0.4828830645705623
  0.4332494706128889  0.5898843002128034  0.4849287986917978
  0.3887550471225312  0.6156661224068711  0.4423935275728348
  0.2997044763175045  0.4613795263528034  0.5576075665333362
  0.2799975301617613  0.5013776542215395  0.5555320264133365
  0.2304212924546133  0.5242072316121306  0.5171478823394995
  0.2749179343592289  0.4471626668705920  0.5171478823394995
  0.2997150812296048  0.5355390282260560  0.5555618324121008
  0.3194298724913451  0.5013737075311914  0.5555392340394220
  0.3639265143959606  0.4243291427896528  0.5555392340394220
  0.3639327653146132  0.4471626668705920  0.5171478823394995
  0.3442117231342204  0.4584944634845177  0.5555618324121008
  0.3244941720663768  0.4243330894800009  0.5555320264133365
  0.3194361234099981  0.5242072316121306  0.5171478823394995
  0.3194241491207672  0.4727470224936689  0.5898266501810381
  0.2997162675886850  0.5127457041699482  0.5877510632559115
  0.2997065283924918  0.4385847571400481  0.5897963985160694
  0.2552098864878762  0.5156293218815864  0.5897963985160694
  0.2799902259363937  0.4727506463997240  0.5898207245357382
  0.3442106910790428  0.4869638819758804  0.6302863343748750
  0.3245037449233000  0.5269620098446164  0.6282107942548749
  0.3244964406979320  0.4983350020228009  0.6624994923772766
  0.3442127431540301  0.4641691127631248  0.6624751663576077
  0.3442129094933005  0.4357011394284098  0.5877510632559115
  0.3442224823502237  0.5383300597930252  0.6604298310974501
  0.3442247174432606  0.5156293218815864  0.5897963985160694
  0.3639360872528838  0.5269580631542683  0.6282180018809606
  0.3639303638823055  0.4983313781167458  0.6625054180225762
  0.2107111925082738  0.6154686558358804  0.5576075665333362
  0.1859246505499982  0.6012517963536689  0.5171478823394995
  0.2552184393249897  0.6125835929675945  0.5555618324121008
  0.2355008882571457  0.5784222189630777  0.5555320264133365
  0.2552078344128889  0.5384240910943419  0.5576075665333362
  0.2749332305867300  0.5784182722727298  0.5555392340394220
  0.2749394815053826  0.6012517963536689  0.5171478823394995
  0.2997260234636582  0.6154686558358804  0.5576075665333362
  0.3245157192125301  0.5784222189630777  0.5555320264133365
  0.3442226653682737  0.5384240910943419  0.5576075665333362
  0.3442332702803740  0.6125835929675945  0.5555618324121008
  0.2799997987933164  0.5753795667643392  0.6624994923772766
  0.2552196256840694  0.5897902689114868  0.5877510632559115
  0.2749275072161516  0.5497915872352075  0.5898266501810381
  0.2107132445832607  0.5926738866231248  0.5897963985160694
  0.2354935840317781  0.5497952111412623  0.5898207245357382
  0.2997140491744272  0.5640084467174188  0.6302863343748750
  0.2997161012494146  0.5412136775046632  0.6624751663576077
  0.2800071030186845  0.6040065745861546  0.6282107942548749
  0.2997258404456082  0.6153746245345638  0.6604298310974501
  0.2997280755386454  0.5926738866231248  0.5897963985160694
  0.3194337219776904  0.5753759428582844  0.6625054180225762
  0.3442212959911432  0.5611233838491330  0.6282406002536391
  0.3245084149871629  0.5497952111412623  0.5898207245357382
  0.3194394453482683  0.6040026278958066  0.6282180018809606
  0.3442202639359659  0.5895928023404958  0.7029651022164134
  0.3442344566394542  0.5897902689114868  0.5877510632559115
  0.4332265540896047  0.4584944634845177  0.5555618324121008
  0.3887213593478761  0.4385847571400481  0.5897963985160694
  0.4135090030217616  0.4243330894800009  0.5555320264133365
  0.4332277404486849  0.4357011394284098  0.5877510632559115
  0.3887193072728888  0.4613795263528034  0.5576075665333362
  0.4084389800761519  0.4727470224936689  0.5898266501810381
  0.3690050568917780  0.4727506463997240  0.5898207245357382
  0.4084509543653824  0.5242072316121306  0.5171478823394995
  0.3690123611171461  0.5013776542215395  0.5555320264133365
  0.4332395483986454  0.5156293218815864  0.5897963985160694
  0.3887310985440698  0.5127457041699482  0.5877510632559115
  0.4084447034467298  0.5013737075311914  0.5555392340394220
  0.4135232459425472  0.5497952111412623  0.5898207245357382
  0.3887299121849896  0.5355390282260560  0.5555618324121008
  0.4332374963236580  0.5384240910943419  0.5576075665333362
  0.3639423381715364  0.5497915872352075  0.5898266501810381
  0.3639480615421143  0.5784182722727298  0.5555392340394220
  0.4135305501679148  0.5784222189630777  0.5555320264133365
  0.3887429064940303  0.5926738866231248  0.5897963985160694
  0.4332492875948390  0.5897902689114868  0.5877510632559115
  0.3639543124607673  0.6012517963536689  0.5171478823394995
  0.3887408544190425  0.6154686558358804  0.5576075665333362
  0.3887179378957591  0.4840788191075945  0.6282406002536391
  0.3690003868279147  0.4499174451030779  0.6282107942548749
  0.4332255220344275  0.4869638819758804  0.6302863343748750
  0.4084327291574994  0.4499134984127299  0.6282180018809606
  0.3887191242548388  0.4612854950514866  0.6604298310974501
  0.4332275741094149  0.4641691127631248  0.6624751663576077
  0.4135112716533167  0.4983350020228009  0.6624994923772766
  0.4332135477451967  0.4355036728574188  0.7029651022164134
  0.3689930826025475  0.4212904372812625  0.6624994923772766
  0.4135066015894535  0.4755018007261546  0.7008895620964134
  0.4332241526572970  0.5096631747306714  0.7009193680951779
  0.3887169058405811  0.5125482375989572  0.7029651022164134
  0.3887288801298120  0.5640084467174188  0.6302863343748750
  0.4135185758786843  0.5269620098446164  0.6282107942548749
  0.4084542763036531  0.6040026278958066  0.6282180018809606
  0.4332361269465284  0.5611233838491330  0.6282406002536391
  0.3690219339740692  0.6040065745861546  0.6282107942548749
  0.4332373133056081  0.5383300597930252  0.6604298310974501
  0.3887406714009925  0.6153746245345638  0.6604298310974501
  0.4332350948913503  0.5895928023404958  0.7029651022164134
  0.3690099596848383  0.5525463654676932  0.7008895620964134
  0.4580031435656242  0.2163240944243393  0.2991056531695845
  0.4580104477909922  0.2449511022461548  0.2648169550471826
  0.4777279988588357  0.2791124762506714  0.2648467610459470
  0.4580151178548551  0.2677843035428009  0.2264268853280461
  0.4777291852179155  0.2563191521945635  0.2970359918897577
  0.4529341739267300  0.2705315111788836  0.3375029305148066
  0.4579984735017613  0.1934908931276932  0.3374957228887210
  0.5025166625525309  0.2705354578692318  0.3374957228887210
  0.5222353999794542  0.2819035078176405  0.3697147597312961
  0.4777290188786454  0.2847871255292789  0.3717600949914538
  0.4579911692763933  0.1648638853058778  0.3717844210111230
  0.4529284505561516  0.2419048261413614  0.3717903466564226
  0.4579864992125308  0.1420306840092317  0.4101744907302595
  0.4529221996374990  0.2190713020604221  0.4101816983563453
  0.4777040502803739  0.1761920580137483  0.4102042967290240
  0.5025046882633000  0.2190752487507702  0.4101744907302595
  0.5222222393311431  0.2532366227552870  0.4102042967290240
  0.4777149925144272  0.2561216856235726  0.4122500308502595
  0.4974523629774992  0.3475760759204222  0.3375029305148066
  0.5025213326163939  0.2933686591658777  0.2991056531695845
  0.4529404248453825  0.2933650352598229  0.2991115788148840
  0.4777409931678764  0.3362473346477400  0.2990813271499153
  0.4529523991346134  0.3448252443782843  0.2264328109733457
  0.5222473742686852  0.3333637169361020  0.2970359918897577
  0.5025333069056243  0.3448288682843395  0.2264268853280461
  0.4777411595071469  0.3077793613130251  0.2243572240482193
  0.4529461482159609  0.3219917202973452  0.2648241626732682
  0.5025286368417614  0.3219956669876931  0.2648169550471826
  0.4777269668036581  0.3075818947420342  0.3395712630087210
  0.5222342136203745  0.3046968318737482  0.3375255288874855
  0.4974466396069213  0.3189493908828999  0.3717903466564226
  0.5470275473779321  0.3189530147889548  0.3717844210111230
  0.4580127164225474  0.3189530147889548  0.3717844210111230
  0.5470228773140692  0.2961198134923086  0.4101744907302595
  0.4580080463586845  0.2961198134923086  0.4101744907302595
  0.5667404283819127  0.3302811874968253  0.4102042967290240
  0.5222331815651973  0.3331662503651112  0.4122500308502595
  0.4974403886882683  0.2961158668019605  0.4101816983563453
  0.4777255974265280  0.3302811874968253  0.4102042967290240
  0.4579672206979323  0.0619434670689547  0.5171419566941998
  0.4776932623502236  0.1019385248391790  0.5150722954143732
  0.4579745249232999  0.0905704748907701  0.4828532585717981
  0.4776920759911430  0.1247318488952869  0.4828830645705623
  0.4579791949871628  0.1134036761874162  0.4444631888526615
  0.4529045019776902  0.1389844079044383  0.5171478823394995
  0.5024854097487015  0.1389880318104932  0.5171419566941998
  0.4777052366394545  0.1533987339576404  0.4423935275728348
  0.4529102253482686  0.1676110929419606  0.4828604661978836
  0.5024927139740691  0.1676150396323086  0.4828532585717981
  0.5222114514009928  0.1789830895807174  0.5150722954143732
  0.4529164762669211  0.1904446170228998  0.4444691144979609
  0.4777050703001841  0.1818667072923558  0.5171176306745305
  0.5024973840379320  0.1904482409289548  0.4444631888526615
  0.4777148094963772  0.2560276543222560  0.5150722954143732
  0.4579960720694544  0.2446596043738470  0.4828532585717981
  0.4777030182251967  0.2046614765051112  0.4849287986917978
  0.4579887678440859  0.2160325965520317  0.5171419566941998
  0.4974226910284594  0.2160289726459767  0.5171478823394995
  0.4777170445894146  0.2333269164108171  0.4444388628329923
  0.4974284143990378  0.2446556576834991  0.4828604661978836
  0.5222102650419126  0.2017764136368255  0.4828830645705623
  0.5667296404517620  0.2560276543222560  0.5150722954143732
  0.5222234256902237  0.2304432986991790  0.4423935275728348
  0.5470109030248383  0.2446596043738470  0.4828532585717981
  0.5222232593509533  0.2589112720338940  0.5171176306745305
  0.5470035987994702  0.2160325965520317  0.5171419566941998
  0.5222212072759660  0.2817060412466496  0.4849287986917978
  0.4580007421333164  0.2674928056704933  0.4444631888526615
  0.4777136231372971  0.2788209783783638  0.4828830645705623
  0.4974346653176904  0.2674891817644382  0.4444691144979609
  0.5025069568948551  0.2930771612935701  0.5171419566941998
  0.4529260491238443  0.2930735373875153  0.5171478823394995
  0.4777267837856086  0.3074878634407174  0.4423935275728348
  0.4529317724944222  0.3217002224250374  0.4828604661978836
  0.5025189311840856  0.3445373704120315  0.4444631888526615
  0.4777266174463377  0.3359558367754326  0.5171176306745305
  0.5025142611202228  0.3217041691153855  0.4828532585717981
  0.4529380234130748  0.3445337465059768  0.4444691144979609
  0.5419528543684595  0.3445337465059768  0.4444691144979609
  0.5222329985471464  0.3330722190637943  0.5150722954143732
  0.5222352336401838  0.3103714811523556  0.4444388628329923
  0.5419408800792287  0.2930735373875153  0.5171478823394995
  0.5419466034498071  0.3217002224250374  0.4828604661978836
  0.5470155730887012  0.2674928056704933  0.4444631888526615
  0.5667284540926818  0.2788209783783638  0.4828830645705623
  0.5667414484017225  0.3359558367754326  0.5171176306745305
  0.5667416147409929  0.3074878634407174  0.4423935275728348
  0.5915337621394704  0.3445373704120315  0.4444631888526615
  0.4974643372667301  0.3990362850388837  0.2648241626732682
  0.4580246907117783  0.3704132239074163  0.2991056531695845
  0.4974586138961518  0.3704096000013611  0.2991115788148840
  0.4580319949371459  0.3990402317292316  0.2648169550471826
  0.4777507323640696  0.4104082816776403  0.2970359918897577
  0.4777389410928891  0.3590421038604957  0.2668924951671827
  0.4580366650010088  0.4218734330258777  0.2264268853280461
  0.4777529674571069  0.3877075437662017  0.2264025593083769
  0.4529619719915362  0.4474541647428997  0.2991115788148840
  0.4777495460049894  0.4332016057337484  0.2648467610459470
  0.4974705881853823  0.4218698091198228  0.2264328109733457
  0.5222461879096045  0.3561570409922098  0.2648467610459470
  0.5025428797625475  0.4474577886489546  0.2991056531695845
  0.5222571301436578  0.4360866686020341  0.2668924951671827
  0.5222591822186456  0.4132918993892786  0.2990813271499153
  0.5222593485579160  0.3848239260545636  0.2243572240482193
  0.5419768029469210  0.4474541647428997  0.2991115788148840
  0.5470395216671631  0.3704132239074163  0.2991056531695845
  0.5470468258925306  0.3990402317292316  0.2648169550471826
  0.5667643769603742  0.4332016057337484  0.2648467610459470
  0.5915577107179318  0.4474577886489546  0.2991056531695845
  0.5470514959563936  0.4218734330258777  0.2264268853280461
  0.5667655633194544  0.4104082816776403  0.2970359918897577
  0.4777387580748387  0.3589480725591791  0.3697147597312961
  0.4777375717157589  0.3817413966152869  0.3375255288874855
  0.4580200206479149  0.3475800226107702  0.3374957228887210
  0.5222472079294147  0.3618316902708172  0.3717600949914538
  0.5222451558544273  0.3846264594835727  0.3395712630087210
  0.4529499977023057  0.3959939556244382  0.3717903466564226
  0.5025309054733170  0.3959975795304932  0.3717844210111230
  0.4777505660247991  0.4388762550123557  0.3717600949914538
  0.4529557210728841  0.4246206406619605  0.3375029305148066
  0.5025382096986850  0.4246245873523085  0.3374957228887210
  0.5222557607665277  0.4587859613568253  0.3375255288874855
  0.5470348516033001  0.3475800226107702  0.3374957228887210
  0.5667535890302234  0.3589480725591791  0.3697147597312961
  0.5419648286576905  0.3959939556244382  0.3717903466564226
  0.5667524026711432  0.3817413966152869  0.3375255288874855
  0.5915457364287013  0.3959975795304932  0.3717844210111230
  0.5419705520282684  0.4246206406619605  0.3375029305148066
  0.5915530406540693  0.4246245873523085  0.3374957228887210
  0.5222569471256079  0.4359926373007175  0.3697147597312961
  0.6112717780809926  0.4359926373007175  0.3697147597312961
  0.5667653969801839  0.4388762550123557  0.3717600949914538
  0.6112705917219124  0.4587859613568253  0.3375255288874855
  0.4580222892794705  0.4215819351535702  0.4444631888526615
  0.4529437467836531  0.3731604315434991  0.4101816983563453
  0.4580295935048381  0.4502089429753857  0.4101744907302595
  0.4777385917355691  0.3874160458938940  0.4444388628329923
  0.4777365396605813  0.4102108151066496  0.4122500308502595
  0.4974562124638440  0.4215783112475150  0.4444691144979609
  0.5025262354094536  0.3731643782338471  0.4101744907302595
  0.4974619358344224  0.4502049962850376  0.4101816983563453
  0.5222449728363778  0.3845324281822559  0.4423935275728348
  0.5419585777390383  0.3731604315434991  0.4101816983563453
  0.5222437864772972  0.4073257522383638  0.4102042967290240
  0.4777363566425313  0.4101167838053327  0.5150722954143732
  0.4580176192156076  0.3987487338569239  0.4828532585717981
  0.4529475962699980  0.4471626668705920  0.5171478823394995
  0.4580103149902392  0.3701217260351085  0.5171419566941998
  0.4777245653713504  0.3587506059881880  0.4849287986917978
  0.4777351702834512  0.4329101078614407  0.4828830645705623
  0.4974442381746135  0.3701181021290537  0.5171478823394995
  0.4974499615451914  0.3987447871665760  0.4828604661978836
  0.5419624272253823  0.4471626668705920  0.5171478823394995
  0.5222427544221196  0.4357951707297265  0.4849287986917978
  0.5222448064971069  0.4130004015169711  0.5171176306745305
  0.5025285040410088  0.4471662907766471  0.5171419566941998
  0.5222318121880662  0.3558655431199022  0.4828830645705623
  0.5667534226909534  0.3874160458938940  0.4444388628329923
  0.5667513706159666  0.4102108151066496  0.4122500308502595
  0.5864767667898066  0.4502049962850376  0.4101816983563453
  0.5470444244602229  0.4502089429753857  0.4101744907302595
  0.5864710434192288  0.4215783112475150  0.4444691144979609
  0.5470371202348548  0.4215819351535702  0.4444631888526615
  0.5470324501709929  0.3987487338569239  0.4828532585717981
  0.5667393963267352  0.3587506059881880  0.4849287986917978
  0.5667500012388356  0.4329101078614407  0.4828830645705623
  0.5667511875979157  0.4101167838053327  0.5150722954143732
  0.5470251459456243  0.3701217260351085  0.5171419566941998
  0.5864647925005763  0.3987447871665760  0.4828604661978836
  0.5864590691299979  0.3701181021290537  0.5171478823394995
  0.5915410663648385  0.3731643782338471  0.4101744907302595
  0.6360592554156077  0.4502089429753857  0.4101744907302595
  0.6112586174326819  0.4073257522383638  0.4102042967290240
  0.6112598037917621  0.3845324281822559  0.4423935275728348
  0.6360519511902396  0.4215819351535702  0.4444631888526615
  0.6360472811263768  0.3987487338569239  0.4828532585717981
  0.6112466431434511  0.3558655431199022  0.4828830645705623
  0.6557648321942203  0.4329101078614407  0.4828830645705623
  0.6112575853775044  0.4357951707297265  0.4849287986917978
  0.6360399769010088  0.3701217260351085  0.5171419566941998
  0.6309772581807671  0.4471626668705920  0.5171478823394995
  0.6112596374524917  0.4130004015169711  0.5171176306745305
  0.6557660185533004  0.4101167838053327  0.5150722954143732
  0.6805581659517784  0.4471662907766471  0.5171419566941998
  0.5915433349963936  0.4471662907766471  0.5171419566941998
  0.5024807396848382  0.1161548305138470  0.5555320264133365
  0.4579840977802226  0.1931993952553855  0.5555320264133365
  0.4776910439359658  0.1532012673866496  0.5576075665333362
  0.5221982907526821  0.1503162045183638  0.5555618324121008
  0.4974164401098064  0.1931954485650375  0.5555392340394220
  0.5221994771117618  0.1275228804622558  0.5877510632559115
  0.4776930960109531  0.1304064981738941  0.5897963985160694
  0.5024734354594705  0.0875278226920316  0.5898207245357382
  0.4974107167392289  0.1645687635275152  0.5898266501810381
  0.5221993107724914  0.1559908537969711  0.6624751663576077
  0.4579767935548550  0.1645723874335700  0.5898207245357382
  0.5221972586975046  0.1787856230097265  0.6302863343748750
  0.5024830083163938  0.1901567430566471  0.6624994923772766
  0.4777028352071463  0.2045674452037945  0.5877510632559115
  0.5222092329867351  0.2302458321281881  0.5576075665333362
  0.4777016488480666  0.2273607692599023  0.5555618324121008
  0.5222112850617223  0.2074510629154326  0.5897963985160694
  0.5024949826056242  0.2416169521751085  0.5898207245357382
  0.4529140748346138  0.2416133282690537  0.5898266501810381
  0.4777026688678768  0.2330354185385095  0.6624751663576077
  0.5024903125417614  0.2187837508784624  0.6282107942548749
  0.5222078636096049  0.2529451248829792  0.6282406002536391
  0.4777006167928890  0.2558301877512651  0.6302863343748750
  0.5222090499686851  0.2301518008268712  0.6604298310974501
  0.5419226548713452  0.2187798041881144  0.6282180018809606
  0.5469916245102397  0.1645723874335700  0.5898207245357382
  0.5469869544463769  0.1417391861369240  0.6282107942548749
  0.5419289057899986  0.2416133282690537  0.5898266501810381
  0.5915098135610091  0.2416169521751085  0.5898207245357382
  0.5667176661625311  0.2045674452037945  0.5877510632559115
  0.5667164798034510  0.2273607692599023  0.5555618324121008
  0.5915051434971461  0.2187837508784624  0.6282107942548749
  0.5469989287356074  0.1931993952553855  0.5555320264133365
  0.5667154477482738  0.2558301877512651  0.6302863343748750
  0.5667045055142200  0.1759005601414408  0.6282406002536391
  0.6112226945649892  0.2529451248829792  0.6282406002536391
  0.5469796502210089  0.1131121783151085  0.6624994923772766
  0.5667056918733002  0.1531072360853328  0.6604298310974501
  0.5419169315007673  0.1901531191505921  0.6625054180225762
  0.5914931692079152  0.1673235417600009  0.7008895620964134
  0.5914978392717781  0.1901567430566471  0.6624994923772766
  0.6112107202757592  0.2014849157645175  0.7009193680951779
  0.5667034734590428  0.2043699786328034  0.7029651022164134
  0.6112238809240694  0.2301518008268712  0.6604298310974501
  0.6360113582586844  0.2443681065015393  0.7008895620964134
  0.5469965273032996  0.2443681065015393  0.7008895620964134
  0.5864288696328839  0.2443641598111913  0.7008967697224989
  0.5667174998232607  0.2330354185385095  0.6624751663576077
  0.4974260129667301  0.2958243689296529  0.6282180018809606
  0.4579983407010091  0.3186615169166470  0.5898207245357382
  0.4777125910821199  0.3072903968697266  0.5576075665333362
  0.4579936706371458  0.2958283156200010  0.6282107942548749
  0.4777146431571068  0.2844956276569710  0.5897963985160694
  0.4529197982051917  0.2702400133065759  0.5555392340394220
  0.4974322638853826  0.3186578930105922  0.5898266501810381
  0.5025022868309919  0.2702439599969241  0.5555320264133365
  0.5222198378988359  0.3044053340014406  0.5555618324121008
  0.5419346291605761  0.2702400133065759  0.5555392340394220
  0.5222210242579155  0.2816120099453329  0.5877510632559115
  0.5470085015925306  0.2958283156200010  0.6282107942548749
  0.4579863664117782  0.2672013077981855  0.6624994923772766
  0.4529236476915366  0.3442422486336690  0.6625054180225762
  0.5024998853986845  0.3214126712430780  0.7008895620964134
  0.4777112217049894  0.3299896896245177  0.6282406002536391
  0.4777124080640695  0.3071963655684098  0.6604298310974501
  0.4974202895961517  0.2671976838921306  0.6625054180225762
  0.5222068315544273  0.2814145433743419  0.7029651022164134
  0.5470011973671630  0.2672013077981855  0.6624994923772766
  0.5222208579186459  0.3100799832800478  0.6624751663576077
  0.5419384786469209  0.3442422486336690  0.6625054180225762
  0.5419322277282683  0.3214087245527300  0.7008967697224989
  0.5222188058436582  0.3328747524928035  0.6302863343748750
  0.5864408439221144  0.2958243689296529  0.6282180018809606
  0.5470131716563935  0.3186615169166470  0.5898207245357382
  0.5667260526603741  0.3299896896245177  0.6282406002536391
  0.5864470948407674  0.3186578930105922  0.5898266501810381
  0.5667274220375043  0.3072903968697266  0.5576075665333362
  0.5667294741124915  0.2844956276569710  0.5897963985160694
  0.5915171177863766  0.2702439599969241  0.5555320264133365
  0.6112336367990430  0.3328747524928035  0.6302863343748750
  0.6112358552133004  0.2816120099453329  0.5877510632559115
  0.6360280026117783  0.3186615169166470  0.5898207245357382
  0.6360233325479153  0.2958283156200010  0.6282107942548749
  0.6557408836157584  0.3299896896245177  0.6282406002536391
  0.6112346688542206  0.3044053340014406  0.5555618324121008
  0.5667140783711432  0.2785294805060559  0.7009193680951779
  0.5864351205515365  0.2671976838921306  0.6625054180225762
  0.5667272390194543  0.3071963655684098  0.6604298310974501
  0.6112216625098120  0.2814145433743419  0.7029651022164134
  0.5915147163540688  0.3214126712430780  0.7008895620964134
  0.6112356888740299  0.3100799832800478  0.6624751663576077
  0.6309470586836531  0.3214087245527300  0.7008967697224989
  0.6309533096023057  0.3442422486336690  0.6625054180225762
  0.6557289093265284  0.2785294805060559  0.7009193680951779
  0.6805295473094536  0.3214126712430780  0.7008895620964134
  0.6360160283225473  0.2672013077981855  0.6624994923772766
  0.6557420699748386  0.3071963655684098  0.6604298310974501
  0.4529356219807671  0.3957024577521306  0.5898266501810381
  0.4777231959942207  0.3814498987429792  0.5555618324121008
  0.4777243823533004  0.3586565746868713  0.5877510632559115
  0.4580056449263767  0.3472885247384625  0.5555320264133365
  0.4974379872559609  0.3472845780481144  0.5555392340394220
  0.5025118596879150  0.3728728803615394  0.6282107942548749
  0.5419504529361518  0.3957024577521306  0.5898266501810381
  0.5222328322078760  0.3615401923985095  0.5897963985160694
  0.5222307801328891  0.3843349616112650  0.5576075665333362
  0.5667380269496051  0.3814498987429792  0.5555618324121008
  0.5470204758817615  0.3472885247384625  0.5555320264133365
  0.5667392133086848  0.3586565746868713  0.5877510632559115
  0.5025165297517784  0.3957060816581855  0.5898207245357382
  0.4529413453513454  0.4243291427896528  0.5555392340394220
  0.4580152177832999  0.4499174451030779  0.6282107942548749
  0.5667489691836584  0.4613795263528034  0.5576075665333362
  0.5667510212586452  0.4385847571400481  0.5897963985160694
  0.5419561763067298  0.4243291427896528  0.5555392340394220
  0.5470300487386847  0.4499174451030779  0.6282107942548749
  0.4777242160140300  0.3871245480215864  0.6624751663576077
  0.5025045554625475  0.3442458725397238  0.6624994923772766
  0.4529293710621145  0.3728689336711913  0.6282180018809606
  0.4777101896498122  0.3584591081158802  0.7029651022164134
  0.4580032434940690  0.3984572359846161  0.7008895620964134
  0.4974355858236528  0.3984532892942683  0.7008967697224989
  0.4777221639390427  0.4099193172343419  0.6302863343748750
  0.4974418367423058  0.4212868133752075  0.6625054180225762
  0.4777339552102236  0.4612854950514866  0.6604298310974501
  0.4777207945619130  0.4326186099891330  0.7009193680951779
  0.4580079135579319  0.4212904372812625  0.6624994923772766
  0.4974475601128837  0.4499134984127299  0.6282180018809606
  0.5222174364665281  0.3555740452475945  0.7009193680951779
  0.5667250206051969  0.3584591081158802  0.7029651022164134
  0.5667390469694152  0.3871245480215864  0.6624751663576077
  0.5419442020174993  0.3728689336711913  0.6282180018809606
  0.5222305971148388  0.3842409303099482  0.6604298310974501
  0.5864504167790375  0.3984532892942683  0.7008967697224989
  0.5470180744494537  0.3984572359846161  0.7008895620964134
  0.5222294107557586  0.4070342543660561  0.6282406002536391
  0.5667369948944274  0.4099193172343419  0.6302863343748750
  0.5470227445133167  0.4212904372812625  0.6624994923772766
  0.5667487861656080  0.4612854950514866  0.6604298310974501
  0.5222283787005814  0.4355036728574188  0.7029651022164134
  0.5667356255172977  0.4326186099891330  0.7009193680951779
  0.5864528182113453  0.3472845780481144  0.5555392340394220
  0.6112476631632607  0.3615401923985095  0.5897963985160694
  0.6309652838915366  0.3957024577521306  0.5898266501810381
  0.6112456110882735  0.3843349616112650  0.5576075665333362
  0.5915266906432998  0.3728728803615394  0.6282107942548749
  0.5915313607071627  0.3957060816581855  0.5898207245357382
  0.6309710072621145  0.4243291427896528  0.5555392340394220
  0.6112562160003743  0.4584944634845177  0.5555618324121008
  0.6112574023594540  0.4357011394284098  0.5877510632559115
  0.5915386649325307  0.4243330894800009  0.5555320264133365
  0.6805461916625475  0.3957060816581855  0.5898207245357382
  0.6360353068371463  0.3472885247384625  0.5555320264133365
  0.6557540442640696  0.3586565746868713  0.5877510632559115
  0.6557528579049894  0.3814498987429792  0.5555618324121008
  0.6805415215986845  0.3728728803615394  0.6282107942548749
  0.7002722333148388  0.4357011394284098  0.5877510632559115
  0.6805534958879150  0.4243330894800009  0.5555320264133365
  0.6557658522140301  0.4385847571400481  0.5897963985160694
  0.7002710469557586  0.4584944634845177  0.5555618324121008
  0.6557638001390427  0.4613795263528034  0.5576075665333362
  0.6360448796940690  0.4499174451030779  0.6282107942548749
  0.6309590329728836  0.3728689336711913  0.6282180018809606
  0.5915193864179322  0.3442458725397238  0.6624994923772766
  0.6557398515605813  0.3584591081158802  0.7029651022164134
  0.6112322674219124  0.3555740452475945  0.7009193680951779
  0.6112454280702235  0.3842409303099482  0.6604298310974501
  0.6360329054048380  0.3984572359846161  0.7008895620964134
  0.6112442417111433  0.4070342543660561  0.6282406002536391
  0.6360375754687010  0.4212904372812625  0.6624994923772766
  0.5864623910682685  0.4499134984127299  0.6282180018809606
  0.6557518258498122  0.4099193172343419  0.6302863343748750
  0.6112432096559661  0.4355036728574188  0.7029651022164134
  0.6557504564726816  0.4326186099891330  0.7009193680951779
  0.5864566676976901  0.4212868133752075  0.6625054180225762
  0.6557538779247991  0.3871245480215864  0.6624751663576077
  0.7002470983772976  0.3555740452475945  0.7009193680951779
  0.6805342173733165  0.3442458725397238  0.6624994923772766
  0.7002602590256078  0.3842409303099482  0.6604298310974501
  0.6754652477344223  0.3984532892942683  0.7008967697224989
  0.7002590726665285  0.4070342543660561  0.6282406002536391
  0.7250477363602229  0.3984572359846161  0.7008895620964134
  0.6754714986530749  0.4212868133752075  0.6625054180225762
  0.7250524064240862  0.4212904372812625  0.6624994923772766
  0.7447652874280664  0.4326186099891330  0.7009193680951779
  0.7002580406113510  0.4355036728574188  0.7029651022164134
  0.6754772220236528  0.4499134984127299  0.6282180018809606
  0.6557636171209927  0.4612854950514866  0.6604298310974501
  0.4777604882390427  0.5131312333435726  0.2668924951671827
  0.4529739462807671  0.4989143738613612  0.2264328109733457
  0.4529676953621146  0.4760808497804220  0.2648241626732682
  0.5025501839879151  0.4760847964707702  0.2648169550471826
  0.5419825263174989  0.4760808497804220  0.2648241626732682
  0.5222677350557586  0.5102461704752868  0.2648467610459470
  0.4777627066533001  0.4618684907961021  0.2243572240482193
  0.5419887772361515  0.4989143738613612  0.2264328109733457
  0.4332529041003739  0.5102461704752868  0.2648467610459470
  0.4332563255524913  0.4647521085077402  0.2264025593083769
  0.5025548540517780  0.4989179977674163  0.2264268853280461
  0.5222711565078760  0.4647521085077402  0.2264025593083769
  0.4332518720451967  0.5387155889666495  0.3395712630087210
  0.4332540904594540  0.4874528464191789  0.2970359918897577
  0.4777625403140300  0.4903364641308171  0.2990813271499153
  0.4580415677940691  0.5016691520938471  0.3374957228887210
  0.4580462378579319  0.5245023533904932  0.2991056531695845
  0.4777591188619130  0.5358305260983638  0.3375255288874855
  0.4777485139498118  0.4616710242251110  0.3395712630087210
  0.4974739101236528  0.5016652054034991  0.3375029305148066
  0.5222667030005810  0.5387155889666495  0.3395712630087210
  0.4974801610423054  0.5244987294844381  0.2991115788148840
  0.5222689214148388  0.4874528464191789  0.2970359918897577
  0.5470563987494533  0.5016691520938471  0.3374957228887210
  0.5470610688133167  0.5245023533904932  0.2991056531695845
  0.5470730431025468  0.5759625625089544  0.2264268853280461
  0.4777745146032605  0.5417966732492785  0.2264025593083769
  0.4332660647486850  0.5389130555376402  0.2243572240482193
  0.4777842537994542  0.6159576202791789  0.2243572240482193
  0.5222808957040693  0.5389130555376402  0.2243572240482193
  0.5470683730386843  0.5531293612123086  0.2648169550471826
  0.4580582121471624  0.5759625625089544  0.2264268853280461
  0.4974921353315364  0.5759589386028998  0.2264328109733457
  0.4580535420833000  0.5531293612123086  0.2648169550471826
  0.5222786772898119  0.5901757980851110  0.2668924951671827
  0.4332638463344272  0.5901757980851110  0.2668924951671827
  0.4974858844128838  0.5531254145219606  0.2648241626732682
  0.4777710931511426  0.5872907352168251  0.2648467610459470
  0.4332658984094145  0.5673810288723556  0.2990813271499153
  0.4332624769572970  0.6128750908399022  0.3375255288874855
  0.4777722795102232  0.5644974111607173  0.2970359918897577
  0.4529835191376903  0.6015432942259766  0.2991115788148840
  0.4529772682190377  0.5787097701450375  0.3375029305148066
  0.4777700610959659  0.6157601537081878  0.3395712630087210
  0.5025597568448382  0.5787137168353855  0.3374957228887210
  0.5025644269087012  0.6015469181320316  0.2991056531695845
  0.5222773079126822  0.6128750908399022  0.3375255288874855
  0.5222807293647993  0.5673810288723556  0.2990813271499153
  0.5419983500930746  0.6015432942259766  0.2991115788148840
  0.5419920991744220  0.5787097701450375  0.3375029305148066
  0.4777471445726817  0.4843703169799022  0.4102042967290240
  0.4580342635687015  0.4730421442720316  0.3717844210111230
  0.4332539241201840  0.5159208197538940  0.3717600949914538
  0.4529652939298068  0.5272495610265758  0.4101816983563453
  0.4777603052209928  0.5130372020422558  0.3697147597312961
  0.4974681867530749  0.4730385203659768  0.3717903466564226
  0.5419801248851915  0.5272495610265758  0.4101816983563453
  0.5222687550755684  0.5159208197538940  0.3717600949914538
  0.5025477825556074  0.5272535077169240  0.4101744907302595
  0.5470490945240862  0.4730421442720316  0.3717844210111230
  0.5667619755280664  0.4843703169799022  0.4102042967290240
  0.4777461125175049  0.5128397354712650  0.4849287986917978
  0.4529533196405763  0.4757893519081144  0.4828604661978836
  0.4529595705592285  0.4986228759890536  0.4444691144979609
  0.4777483309317618  0.4615769929237944  0.4423935275728348
  0.5025404783302397  0.4986264998951085  0.4444631888526615
  0.5025358082663773  0.4757932985984625  0.4828532585717981
  0.5222533593342200  0.5099546726029791  0.4828830645705623
  0.5222547287113506  0.4872553798481879  0.4122500308502595
  0.5222567807863383  0.4644606106354325  0.4444388628329923
  0.5667609434728889  0.5128397354712650  0.4849287986917978
  0.5419744015146133  0.4986228759890536  0.4444691144979609
  0.5419681505959607  0.4757893519081144  0.4828604661978836
  0.4777580868067350  0.5642999445897264  0.4122500308502595
  0.4580511406509922  0.6042980724584623  0.4101744907302595
  0.4529715448484594  0.5500830851075151  0.3717903466564226
  0.4332636633163772  0.5900817667837942  0.3697147597312961
  0.4777721131709532  0.5929653844954327  0.3717600949914538
  0.4974834829805760  0.6042941257681144  0.4101816983563453
  0.5025524526194707  0.5500867090135702  0.3717844210111230
  0.5222784942717620  0.5900817667837942  0.3697147597312961
  0.5222653336234508  0.5614148817214406  0.4102042967290240
  0.5419863758038441  0.5500830851075151  0.3717903466564226
  0.5470659716063766  0.6042980724584623  0.4101744907302595
  0.4777698780779159  0.6156661224068711  0.4423935275728348
  0.4777567174296048  0.5869992373445176  0.4828830645705623
  0.4580438364256242  0.5756710646366471  0.4444631888526615
  0.4777601388817223  0.5415051753769711  0.4444388628329923
  0.4580391663617613  0.5528378633400008  0.4828532585717981
  0.4974715086913451  0.5528339166496529  0.4828604661978836
  0.4974777596099977  0.5756674407305920  0.4444691144979609
  0.5222665199825310  0.5386215576653330  0.4423935275728348
  0.5222643015682742  0.5898843002128034  0.4849287986917978
  0.5470539973171461  0.5528378633400008  0.4828532585717981
  0.5470586673810089  0.5756710646366471  0.4444631888526615
  0.5915696850071628  0.4989179977674163  0.2264268853280461
  0.6112957266594541  0.5389130555376402  0.2243572240482193
  0.5667893455586452  0.5417966732492785  0.2264025593083769
  0.5667775376086849  0.4618684907961021  0.2243572240482193
  0.5667753191944270  0.5131312333435726  0.2668924951671827
  0.5865007153682681  0.5531254145219606  0.2648241626732682
  0.6112825660111434  0.5102461704752868  0.2648467610459470
  0.6360832039940686  0.5531293612123086  0.2648169550471826
  0.5915650149432994  0.4760847964707702  0.2648169550471826
  0.6360758997687010  0.5245023533904932  0.2991056531695845
  0.6112837523702231  0.4874528464191789  0.2970359918897577
  0.5667773712694144  0.4903364641308171  0.2990813271499153
  0.5864949919976902  0.5244987294844381  0.2991115788148840
  0.5667751361763771  0.5130372020422558  0.3697147597312961
  0.5667633449051965  0.4616710242251110  0.3395712630087210
  0.5667739498172973  0.5358305260983638  0.3375255288874855
  0.5864887410790376  0.5016652054034991  0.3375029305148066
  0.6112815339559659  0.5387155889666495  0.3395712630087210
  0.5915672835748554  0.5500867090135702  0.3717844210111230
  0.6112835860309531  0.5159208197538940  0.3717600949914538
  0.6360639254794705  0.4730421442720316  0.3717844210111230
  0.6557899671317619  0.5130372020422558  0.3697147597312961
  0.6557887807726817  0.5358305260983638  0.3375255288874855
  0.6805821145302393  0.5500867090135702  0.3717844210111230
  0.6360712297048385  0.5016691520938471  0.3374957228887210
  0.5667871104656080  0.5644974111607173  0.2970359918897577
  0.5667859241065274  0.5872907352168251  0.2648467610459470
  0.5865069662869207  0.5759589386028998  0.2264328109733457
  0.5667990847548385  0.6159576202791789  0.2243572240482193
  0.5915792578640859  0.6015469181320316  0.2991056531695845
  0.6112935082451962  0.5901757980851110  0.2668924951671827
  0.6112955603201836  0.5673810288723556  0.2990813271499153
  0.6805940888194703  0.6015469181320316  0.2991056531695845
  0.6360878740579315  0.5759625625089544  0.2264268853280461
  0.6558019414209924  0.5644974111607173  0.2970359918897577
  0.6558139157102233  0.6159576202791789  0.2243572240482193
  0.6558007550619122  0.5872907352168251  0.2648467610459470
  0.5915745878002227  0.5787137168353855  0.3374957228887210
  0.5667848920513503  0.6157601537081878  0.3395712630087210
  0.5667869441263376  0.5929653844954327  0.3717600949914538
  0.6112933252271463  0.5900817667837942  0.3697147597312961
  0.6112921388680665  0.6128750908399022  0.3375255288874855
  0.6310069301298068  0.5787097701450375  0.3375029305148066
  0.6310131810484594  0.6015432942259766  0.2991115788148840
  0.6557997230067351  0.6157601537081878  0.3395712630087210
  0.6558017750817219  0.5929653844954327  0.3717600949914538
  0.7003069698234509  0.6128750908399022  0.3375255288874855
  0.7003081561825311  0.5900817667837942  0.3697147597312961
  0.6805894187556079  0.5787137168353855  0.3374957228887210
  0.6309949558405760  0.5272495610265758  0.4101816983563453
  0.5864830177084592  0.4730385203659768  0.3717903466564226
  0.5915626135109922  0.5272535077169240  0.4101744907302595
  0.6112695596667358  0.4872553798481879  0.4122500308502595
  0.5667631618871470  0.4615769929237944  0.4423935275728348
  0.6112813509379162  0.5386215576653330  0.4423935275728348
  0.5915553092856241  0.4986264998951085  0.4444631888526615
  0.6112716117417226  0.4644606106354325  0.4444388628329923
  0.6309892324699981  0.4986228759890536  0.4444691144979609
  0.6112681902896048  0.5099546726029791  0.4828830645705623
  0.6309829815513455  0.4757893519081144  0.4828604661978836
  0.5915506392217621  0.4757932985984625  0.4828532585717981
  0.6310012067592284  0.5500830851075151  0.3717903466564226
  0.6112801645788356  0.5614148817214406  0.4102042967290240
  0.5864983139359609  0.6042941257681144  0.4101816983563453
  0.5667729177621198  0.5642999445897264  0.4122500308502595
  0.5667847090333002  0.6156661224068711  0.4423935275728348
  0.5667749698371075  0.5415051753769711  0.4444388628329923
  0.5864925905653825  0.5756674407305920  0.4444691144979609
  0.6360688282725313  0.5528378633400008  0.4828532585717981
  0.5864863396467299  0.5528339166496529  0.4828604661978836
  0.6112791325236581  0.5898843002128034  0.4849287986917978
  0.5667715483849892  0.5869992373445176  0.4828830645705623
  0.6805774444663769  0.5272535077169240  0.4101744907302595
  0.6557768064834507  0.4843703169799022  0.4102042967290240
  0.7002949955342200  0.5614148817214406  0.4102042967290240
  0.6557779928425314  0.4615769929237944  0.4423935275728348
  0.7002961818933006  0.5386215576653330  0.4423935275728348
  0.6557898007924914  0.5415051753769711  0.4444388628329923
  0.6805701402410088  0.4986264998951085  0.4444631888526615
  0.6805654701771469  0.4757932985984625  0.4828532585717981
  0.7250836592279152  0.5528378633400008  0.4828532585717981
  0.6755011706021147  0.5528339166496529  0.4828604661978836
  0.7002830212449895  0.5099546726029791  0.4828830645705623
  0.6557757744282736  0.5128397354712650  0.4849287986917978
  0.6755131448913452  0.6042941257681144  0.4101816983563453
  0.6360808025617614  0.6042980724584623  0.4101744907302595
  0.7250956335171461  0.6042980724584623  0.4101744907302595
  0.6557995399886855  0.6156661224068711  0.4423935275728348
  0.6557877487175041  0.5642999445897264  0.4122500308502595
  0.7448143709440698  0.6156661224068711  0.4423935275728348
  0.6360734983363933  0.5756710646366471  0.4444631888526615
  0.6557863793403740  0.5869992373445176  0.4828830645705623
  0.7002939634790428  0.5898843002128034  0.4849287986917978
  0.6755074215207673  0.5756674407305920  0.4444691144979609
  0.7250883292917781  0.5756710646366471  0.4444631888526615
  0.4777481645924918  0.4900449662585094  0.5171176306745305
  0.5222545456933005  0.4871613485468713  0.5150722954143732
  0.4580271920725308  0.5013776542215395  0.5555320264133365
  0.4580318621363933  0.5242108555181854  0.5171419566941998
  0.4974657853207672  0.5242072316121306  0.5171478823394995
  0.4974595344021147  0.5013737075311914  0.5555392340394220
  0.4777447431403739  0.5355390282260560  0.5555618324121008
  0.4777459294994541  0.5127457041699482  0.5877510632559115
  0.5222543793540296  0.5156293218815864  0.5897963985160694
  0.4580198878471628  0.4727506463997240  0.5898207245357382
  0.5025453811232996  0.5784222189630777  0.5555320264133365
  0.4777579037886850  0.5642059132884099  0.5150722954143732
  0.5025500511871624  0.6012554202597240  0.5171419566941998
  0.5222629321911432  0.6125835929675945  0.5555618324121008
  0.4777556853744273  0.6154686558358804  0.5576075665333362
  0.5222523272790428  0.5384240910943419  0.5576075665333362
  0.4777577374494146  0.5926738866231248  0.5897963985160694
  0.4529571691269212  0.5497915872352075  0.5898266501810381
  0.5025380768979321  0.5497952111412623  0.5898207245357382
  0.5470466930917780  0.5242108555181854  0.5171419566941998
  0.5667629955478761  0.4900449662585094  0.5171176306745305
  0.5470420230279152  0.5013776542215395  0.5555320264133365
  0.5864806162761516  0.5242072316121306  0.5171478823394995
  0.5864743653574994  0.5013737075311914  0.5555392340394220
  0.5667595740957592  0.5355390282260560  0.5555618324121008
  0.6112671582344271  0.5384240910943419  0.5576075665333362
  0.5470347188025476  0.4727506463997240  0.5898207245357382
  0.5864686419869211  0.4727470224936689  0.5898266501810381
  0.6112692103094145  0.5156293218815864  0.5897963985160694
  0.5667607604548389  0.5127457041699482  0.5877510632559115
  0.5222663536432606  0.5670895310000480  0.5171176306745305
  0.5667727347440698  0.5642059132884099  0.5150722954143732
  0.5419839743715364  0.6012517963536689  0.5171478823394995
  0.5915648821425473  0.6012554202597240  0.5171419566941998
  0.5915602120786844  0.5784222189630777  0.5555320264133365
  0.5419777234528839  0.5784182722727298  0.5555392340394220
  0.5667705163298120  0.6154686558358804  0.5576075665333362
  0.5915529078533164  0.5497952111412623  0.5898207245357382
  0.5222641185502234  0.5897902689114868  0.5877510632559115
  0.5419720000823055  0.5497915872352075  0.5898266501810381
  0.4529509182082686  0.5269580631542683  0.6282180018809606
  0.5025334068340691  0.5269620098446164  0.6282107942548749
  0.5222403529898119  0.4869638819758804  0.6302863343748750
  0.4777327688511430  0.4840788191075945  0.6282406002536391
  0.5222521442609929  0.5383300597930252  0.6604298310974501
  0.5222424050647992  0.4641691127631248  0.6624751663576077
  0.5025261026087011  0.4983350020228009  0.6624994923772766
  0.5222389836126817  0.5096631747306714  0.7009193680951779
  0.4529451948376902  0.4983313781167458  0.6625054180225762
  0.5025214325448382  0.4755018007261546  0.7008895620964134
  0.4777317367959659  0.5125482375989572  0.7029651022164134
  0.4529389439190377  0.4754978540358067  0.7008967697224989
  0.4974691072590378  0.6040026278958066  0.6282180018809606
  0.4580367649294536  0.6040065745861546  0.6282107942548749
  0.5222509579019127  0.5611233838491330  0.6282406002536391
  0.4777437110851963  0.5640084467174188  0.6302863343748750
  0.4777457631601841  0.5412136775046632  0.6624751663576077
  0.4580294607040860  0.5753795667643392  0.6624994923772766
  0.5222499258467350  0.5895928023404958  0.7029651022164134
  0.4580247906402231  0.5525463654676932  0.7008895620964134
  0.4974571329698069  0.5525424187773452  0.7008967697224989
  0.4777423417080662  0.5867077394722099  0.7009193680951779
  0.4974633838884595  0.5753759428582844  0.6625054180225762
  0.5667475998065278  0.4840788191075945  0.6282406002536391
  0.5915482377894539  0.5269620098446164  0.6282107942548749
  0.5419657491636529  0.5269580631542683  0.6282180018809606
  0.6112551839451966  0.4869638819758804  0.6302863343748750
  0.6112669752163772  0.5383300597930252  0.6604298310974501
  0.6112572360201844  0.4641691127631248  0.6624751663576077
  0.5915409335640859  0.4983350020228009  0.6624994923772766
  0.5419600257930750  0.4983313781167458  0.6625054180225762
  0.5915362635002229  0.4755018007261546  0.7008895620964134
  0.5667465677513506  0.5125482375989572  0.7029651022164134
  0.6112538145680665  0.5096631747306714  0.7009193680951779
  0.5419537748744224  0.4754978540358067  0.7008967697224989
  0.5470515958848383  0.6040065745861546  0.6282107942548749
  0.6112657888572970  0.5611233838491330  0.6282406002536391
  0.5667585420405811  0.5640084467174188  0.6302863343748750
  0.5667703333117616  0.6153746245345638  0.6604298310974501
  0.5667605941155685  0.5412136775046632  0.6624751663576077
  0.5470442916594703  0.5753795667643392  0.6624994923772766
  0.5667571726634509  0.5867077394722099  0.7009193680951779
  0.5864782148438442  0.5753759428582844  0.6625054180225762
  0.6112647568021199  0.5895928023404958  0.7029651022164134
  0.5864719639251916  0.5525424187773452  0.7008967697224989
  0.5470396215956074  0.5525463654676932  0.7008895620964134
  0.6360615240471629  0.5242108555181854  0.5171419566941998
  0.6557778265032609  0.4900449662585094  0.5171176306745305
  0.6112693766486849  0.4871613485468713  0.5150722954143732
  0.6360568539832995  0.5013776542215395  0.5555320264133365
  0.6754954472315363  0.5242072316121306  0.5171478823394995
  0.6754891963128837  0.5013737075311914  0.5555392340394220
  0.6557744050511435  0.5355390282260560  0.5555618324121008
  0.6557755914102232  0.5127457041699482  0.5877510632559115
  0.6754834729423058  0.4727470224936689  0.5898266501810381
  0.6360495497579319  0.4727506463997240  0.5898207245357382
  0.6309988053269208  0.6012517963536689  0.5171478823394995
  0.6805797130979321  0.6012554202597240  0.5171419566941998
  0.6557875656994542  0.5642059132884099  0.5150722954143732
  0.6112811845986449  0.5670895310000480  0.5171176306745305
  0.6805750430340682  0.5784222189630777  0.5555320264133365
  0.6309925544082682  0.5784182722727298  0.5555392340394220
  0.6112777631465284  0.6125835929675945  0.5555618324121008
  0.6557853472851963  0.6154686558358804  0.5576075665333362
  0.6309868310376903  0.5497915872352075  0.5898266501810381
  0.6557873993601837  0.5926738866231248  0.5897963985160694
  0.6112789495056081  0.5897902689114868  0.5877510632559115
  0.6805677388087011  0.5497952111412623  0.5898207245357382
  0.6309805801190377  0.5269580631542683  0.6282180018809606
  0.6805630687448382  0.5269620098446164  0.6282107942548749
  0.6557624307619125  0.4840788191075945  0.6282406002536391
  0.7002700149005809  0.4869638819758804  0.6302863343748750
  0.6805557645194702  0.4983350020228009  0.6624994923772766
  0.6805510944556078  0.4755018007261546  0.7008895620964134
  0.6309748567484593  0.4983313781167458  0.6625054180225762
  0.7002686455234508  0.5096631747306714  0.7009193680951779
  0.6309686058298067  0.4754978540358067  0.7008967697224989
  0.6557613987067354  0.5125482375989572  0.7029651022164134
  0.6754987691698069  0.6040026278958066  0.6282180018809606
  0.6360664268402226  0.6040065745861546  0.6282107942548749
  0.7002806198126813  0.5611233838491330  0.6282406002536391
  0.6557733729959658  0.5640084467174188  0.6302863343748750
  0.6557851642671464  0.6153746245345638  0.6604298310974501
  0.6557754250709537  0.5412136775046632  0.6624751663576077
  0.6360591226148551  0.5753795667643392  0.6624994923772766
  0.6754930457992285  0.5753759428582844  0.6625054180225762
  0.6360544525509922  0.5525463654676932  0.7008895620964134
  0.7002795877575042  0.5895928023404958  0.7029651022164134
  0.6557720036188361  0.5867077394722099  0.7009193680951779
  0.6754867948805759  0.5525424187773452  0.7008967697224989
  0.7200073853636529  0.5784182722727298  0.5555392340394220
  0.7002960155540298  0.5670895310000480  0.5171176306745305
  0.7250763550025476  0.5242108555181854  0.5171419566941998
  0.7002842076040697  0.4871613485468713  0.5150722954143732
  0.7250643807133167  0.4727506463997240  0.5898207245357382
  0.7695778997002229  0.5269620098446164  0.6282107942548749
  0.7002840412647993  0.5156293218815864  0.5897963985160694
  0.7695825697640859  0.5497952111412623  0.5898207245357382
  0.7002937804609924  0.5897902689114868  0.5877510632559115
  0.7002925941019127  0.6125835929675945  0.5555618324121008
  0.7448001782405811  0.6154686558358804  0.5576075665333362
  0.7200136362823055  0.6012517963536689  0.5171478823394995
  0.7250812577956074  0.6040065745861546  0.6282107942548749
  0.7448022303155685  0.5926738866231248  0.5897963985160694
  0.7695898739894530  0.5784222189630777  0.5555320264133365
  0.7893074250572970  0.6125835929675945  0.5555618324121008
  0.8140960887509923  0.6040065745861546  0.6282107942548749
  0.7893086114163772  0.5897902689114868  0.5877510632559115
  0.7002818061717619  0.5383300597930252  0.6604298310974501
  0.7695705954748550  0.4983350020228009  0.6624994923772766
  0.7447762296621202  0.5125482375989572  0.7029651022164134
  0.7199834367851915  0.4754978540358067  0.7008967697224989
  0.7695659254109926  0.4755018007261546  0.7008895620964134
  0.7199954110744229  0.5269580631542683  0.6282180018809606
  0.7892834764788356  0.5096631747306714  0.7009193680951779
  0.7645016258359608  0.5525424187773452  0.7008967697224989
  0.7447902560263380  0.5412136775046632  0.6624751663576077
  0.7892966371271467  0.5383300597930252  0.6604298310974501
  0.7250692835063770  0.5525463654676932  0.7008895620964134
  0.7002936141217229  0.6182582422462017  0.6624751663576077
  0.7447882039513507  0.5640084467174188  0.6302863343748750
  0.7250739535702394  0.5753795667643392  0.6624994923772766
  0.7447868345742200  0.5867077394722099  0.7009193680951779
  0.7447999952225312  0.6153746245345638  0.6604298310974501
  0.7645078767546133  0.5753759428582844  0.6625054180225762
  0.7892944187128890  0.5895928023404958  0.7029651022164134
  0.7645136001251912  0.6040026278958066  0.6282180018809606
  0.7892954507680661  0.5611233838491330  0.6282406002536391
  0.8140887845256242  0.5753795667643392  0.6624994923772766
  0.8338016655296049  0.5867077394722099  0.7009193680951779
  0.8338148261779155  0.6153746245345638  0.6604298310974501
  0.8140841144617618  0.5525463654676932  0.7008895620964134
  0.2355272382679149  0.6301739259538469  0.2648169550471826
  0.1859447496421144  0.6301699792634988  0.2648241626732682
  0.1662333798324915  0.6188412379908173  0.2264025593083769
  0.2107395945940298  0.6444255936138943  0.2990813271499153
  0.1859510005607669  0.6530035033444381  0.2264328109733457
  0.2355319083317778  0.6530071272504931  0.2264268853280461
  0.1662311447394542  0.6415419759022558  0.2970359918897577
  0.2304572153223056  0.6785878589675151  0.2991115788148840
  0.2107375425190425  0.6672203628266496  0.2668924951671827
  0.1662299583803741  0.6643352999583637  0.2648467610459470
  0.1910186220740693  0.6557582815769241  0.3374957228887210
  0.1910232921379322  0.6785914828735701  0.2991056531695845
  0.2304691896115361  0.7300480680859768  0.2264328109733457
  0.2107515688832607  0.6958858027323557  0.2264025593083769
  0.2304629386928836  0.7072145440050376  0.2648241626732682
  0.1910305963632997  0.7072184906953853  0.2648169550471826
  0.2107481474311433  0.7413798646999025  0.2648467610459470
  0.2355368111248385  0.7328028463184625  0.3374957228887210
  0.1859605734176901  0.7556324237090536  0.2991115788148840
  0.1662429526894147  0.7214701583554326  0.2990813271499153
  0.2107493337902235  0.7185865406437942  0.2970359918897577
  0.2552447893357588  0.6643352999583637  0.2648467610459470
  0.2749658315161517  0.6530035033444381  0.2264328109733457
  0.2749595805974991  0.6301699792634988  0.2648241626732682
  0.3245467392871625  0.6530071272504931  0.2264268853280461
  0.2552482107878763  0.6188412379908173  0.2264025593083769
  0.3245420692232996  0.6301739259538469  0.2648169550471826
  0.2997523734744273  0.6672203628266496  0.2668924951671827
  0.2997544255494146  0.6444255936138943  0.2990813271499153
  0.2800381230933165  0.6785914828735701  0.2991056531695845
  0.2552459756948386  0.6415419759022558  0.2970359918897577
  0.3194720462776900  0.6785878589675151  0.2991115788148840
  0.2800334530294536  0.6557582815769241  0.3374957228887210
  0.3194840205669209  0.7300480680859768  0.2264328109733457
  0.2552579499840695  0.6930021850207173  0.2243572240482193
  0.2997663998386451  0.6958858027323557  0.2264025593083769
  0.2800500973825470  0.7300516919920317  0.2264268853280461
  0.2800454273186841  0.7072184906953853  0.2648169550471826
  0.3194777696482684  0.7072145440050376  0.2648241626732682
  0.2997629783865277  0.7413798646999025  0.2648467610459470
  0.2552557315698117  0.7442649275681880  0.2668924951671827
  0.2749754043730744  0.7556324237090536  0.2991115788148840
  0.3245516420802228  0.7328028463184625  0.3374957228887210
  0.2552577836447991  0.7214701583554326  0.2990813271499153
  0.2997641647456078  0.7185865406437942  0.2970359918897577
  0.2304509644036531  0.6557543348865756  0.3375029305148066
  0.1662309784001838  0.6700099492369711  0.3717600949914538
  0.2107373595009925  0.6671263315253327  0.3697147597312961
  0.1910113178487013  0.6271312737551087  0.3717844210111230
  0.2304452410330747  0.6271276498490536  0.3717903466564226
  0.1859423482098070  0.6813386905096530  0.4101816983563453
  0.2355175326102396  0.6527156293781854  0.4444631888526615
  0.1662190041109533  0.6185497401185094  0.4444388628329923
  0.1859366248392287  0.6527120054721307  0.4444691144979609
  0.2107241988526810  0.6384594464629790  0.4102042967290240
  0.1662169520359660  0.6413445093312649  0.4122500308502595
  0.1859485991284596  0.7041722145905921  0.3717903466564226
  0.2107361731419128  0.6899196555814405  0.3375255288874855
  0.1859543224990380  0.7327988996281144  0.3375029305148066
  0.2107491674509530  0.7470545139785095  0.3717600949914538
  0.1662407175963774  0.7441708962668712  0.3697147597312961
  0.1662289263251961  0.6928047184497266  0.3395712630087210
  0.2355248368356076  0.6813426372000012  0.4101744907302595
  0.1662275569480663  0.7155040112045175  0.4102042967290240
  0.2107351410867352  0.7183890740728034  0.4122500308502595
  0.2107371931617225  0.6955943048600478  0.4444388628329923
  0.2304548138899979  0.7297565702136690  0.4444691144979609
  0.1662287433071470  0.6927106871484097  0.4423935275728348
  0.1910208907056244  0.7297601941197238  0.4444631888526615
  0.3194600719884595  0.6271276498490536  0.3717903466564226
  0.3194657953590374  0.6557543348865756  0.3375029305148066
  0.2800261488040856  0.6271312737551087  0.3717844210111230
  0.2997521904563773  0.6671263315253327  0.3697147597312961
  0.3245396677909919  0.6813426372000012  0.4101744907302595
  0.2997390298080658  0.6384594464629790  0.4102042967290240
  0.2749571791651918  0.6813386905096530  0.4101816983563453
  0.2552317829913504  0.6413445093312649  0.4122500308502595
  0.2749514557946134  0.6527120054721307  0.4444691144979609
  0.2552338350663376  0.6185497401185094  0.4444388628329923
  0.2552555485517617  0.7441708962668712  0.3697147597312961
  0.2997639984063378  0.7470545139785095  0.3717600949914538
  0.2749691534544223  0.7327988996281144  0.3375029305148066
  0.2355295068994705  0.7041758384966469  0.3717844210111230
  0.3245443378548553  0.7041758384966469  0.3717844210111230
  0.2552423879034511  0.7155040112045175  0.4102042967290240
  0.2997499720421196  0.7183890740728034  0.4122500308502595
  0.2552435742625313  0.6927106871484097  0.4423935275728348
  0.2800357216610088  0.7297601941197238  0.4444631888526615
  0.3194696448453827  0.7297565702136690  0.4444691144979609
  0.2997520241171069  0.6955943048600478  0.4444388628329923
  0.2355414811887014  0.7556360476151086  0.2991056531695845
  0.1662395312372973  0.7669642203229792  0.3375255288874855
  0.2107471153759661  0.7698492831912649  0.3395712630087210
  0.2304725115498072  0.8098434643696528  0.3375029305148066
  0.2997761390348387  0.7700467497622560  0.2243572240482193
  0.2552697579340300  0.7729303674738939  0.2264025593083769
  0.2355487854140694  0.7842630554369239  0.2648169550471826
  0.2749811277436528  0.7842591087465759  0.2648241626732682
  0.2552675228409931  0.7956311053853328  0.2970359918897577
  0.3245563121440857  0.7556360476151086  0.2991056531695845
  0.2997619463313505  0.7698492831912649  0.3395712630087210
  0.2800550001756081  0.8098474110600008  0.3374957228887210
  0.2552543621926820  0.7669642203229792  0.3375255288874855
  0.3194873425051915  0.8098434643696528  0.3375029305148066
  0.2997759726955683  0.7985147230969708  0.2990813271499153
  0.2997739206205809  0.8213094923097264  0.2668924951671827
  0.3194935934238441  0.8326769884505920  0.2991115788148840
  0.2800596702394706  0.8326806123566469  0.2991056531695845
  0.2997725512434513  0.8440087850645175  0.3375255288874855
  0.2552653044267353  0.8468938479328035  0.3395712630087210
  0.2304667881792288  0.7812167793321307  0.3717903466564226
  0.1910328649948554  0.7812204032381855  0.3717844210111230
  0.1910281949309920  0.7583872019415393  0.4101744907302595
  0.2304605372605763  0.7583832552511915  0.4101816983563453
  0.2107457459988356  0.7925485759460561  0.4102042967290240
  0.1662384991821197  0.7954336388143420  0.4122500308502595
  0.2355390797563937  0.8068047588612623  0.4444631888526615
  0.1859581719853828  0.8068011349552073  0.4444691144979609
  0.2107469323579157  0.7697552518899480  0.4423935275728348
  0.1662405512571070  0.7726388696015863  0.4444388628329923
  0.2107589066471462  0.8212154610084097  0.3697147597312961
  0.2355463839817613  0.8354317666830777  0.4101744907302595
  0.2107587403078762  0.8496834343431248  0.4444388628329923
  0.3194816191346131  0.7812167793321307  0.3717903466564226
  0.2800476959502401  0.7812204032381855  0.3717844210111230
  0.2800430258863768  0.7583872019415393  0.4101744907302595
  0.3194753682159610  0.7583832552511915  0.4101816983563453
  0.2997605769542203  0.7925485759460561  0.4102042967290240
  0.2552533301375049  0.7954336388143420  0.4122500308502595
  0.2997617633133005  0.7697552518899480  0.4423935275728348
  0.2552553822124918  0.7726388696015863  0.4444388628329923
  0.2749730029407676  0.8068011349552073  0.4444691144979609
  0.3245539107117784  0.8068047588612623  0.4444631888526615
  0.3245612149371460  0.8354317666830777  0.4101744907302595
  0.2749849772299980  0.8582613440736691  0.3717903466564226
  0.2997737376025314  0.8212154610084097  0.3697147597312961
  0.2552673565017227  0.8240990787200483  0.3717600949914538
  0.2749787263113455  0.8354278199927297  0.4101816983563453
  0.2552639350496048  0.8695931406875949  0.4102042967290240
  0.2997715191882741  0.8724782035558803  0.4122500308502595
  0.2997735712632610  0.8496834343431248  0.4444388628329923
  0.2552651214086854  0.8467998166314866  0.4423935275728348
  0.3194911919915368  0.8838456996967458  0.4444691144979609
  0.2800572688071629  0.8838493236028010  0.4444631888526615
  0.4135569001786844  0.6301739259538469  0.2648169550471826
  0.4135615702425469  0.6530071272504931  0.2264268853280461
  0.4084868772330748  0.6785878589675151  0.2991115788148840
  0.3639744115528835  0.6301699792634988  0.2648241626732682
  0.3442630417432606  0.6188412379908173  0.2264025593083769
  0.3887692565047994  0.6444255936138943  0.2990813271499153
  0.3639806624715365  0.6530035033444381  0.2264328109733457
  0.3690529540487013  0.6785914828735701  0.2991056531695845
  0.3690482839848384  0.6557582815769241  0.3374957228887210
  0.3690649283379318  0.7300516919920317  0.2264268853280461
  0.3442727809394543  0.6930021850207173  0.2243572240482193
  0.3887812307940299  0.6958858027323557  0.2264025593083769
  0.3887778093419124  0.7413798646999025  0.2648467610459470
  0.4084926006036531  0.7072145440050376  0.2648241626732682
  0.3690602582740689  0.7072184906953853  0.2648169550471826
  0.4084988515223057  0.7300480680859768  0.2264328109733457
  0.3442705625251965  0.7442649275681880  0.2668924951671827
  0.3887789957009926  0.7185865406437942  0.2970359918897577
  0.3442726146001838  0.7214701583554326  0.2990813271499153
  0.3639902353284592  0.7556324237090536  0.2991115788148840
  0.4135664730356076  0.7328028463184625  0.3374957228887210
  0.5025764011979317  0.6530071272504931  0.2264268853280461
  0.5025717311340692  0.6301739259538469  0.2648169550471826
  0.4332756376056081  0.6415419759022558  0.2970359918897577
  0.4332778726986454  0.6188412379908173  0.2264025593083769
  0.4777840874601837  0.6444255936138943  0.2990813271499153
  0.4529892425082682  0.6301699792634988  0.2648241626732682
  0.4529954934269208  0.6530035033444381  0.2264328109733457
  0.4332744512465275  0.6643352999583637  0.2648467610459470
  0.4580631149402227  0.6557582815769241  0.3374957228887210
  0.4975017081884595  0.6785878589675151  0.2991115788148840
  0.4777820353851964  0.6672203628266496  0.2668924951671827
  0.4580677850040856  0.6785914828735701  0.2991056531695845
  0.4975074315590374  0.7072145440050376  0.2648241626732682
  0.4580797592933165  0.7300516919920317  0.2264268853280461
  0.4580750892294536  0.7072184906953853  0.2648169550471826
  0.4332876118948386  0.6930021850207173  0.2243572240482193
  0.4975136824776900  0.7300480680859768  0.2264328109733457
  0.4777960617494146  0.6958858027323557  0.2264025593083769
  0.4777926402972972  0.7413798646999025  0.2648467610459470
  0.4332853934805813  0.7442649275681880  0.2668924951671827
  0.4777938266563773  0.7185865406437942  0.2970359918897577
  0.4332874455555686  0.7214701583554326  0.2990813271499153
  0.4530050662838440  0.7556324237090536  0.2991115788148840
  0.4135711430994705  0.7556360476151086  0.2991056531695845
  0.4084806263144222  0.6557543348865756  0.3375029305148066
  0.3442606403109533  0.6700099492369711  0.3717600949914538
  0.3887670214117617  0.6671263315253327  0.3697147597312961
  0.3690409797594704  0.6271312737551087  0.3717844210111230
  0.4084749029438439  0.6271276498490536  0.3717903466564226
  0.3639720101205766  0.6813386905096530  0.4101816983563453
  0.4135471945210091  0.6527156293781854  0.4444631888526615
  0.3639662867499978  0.6527120054721307  0.4444691144979609
  0.3887538607634506  0.6384594464629790  0.4102042967290240
  0.3887658350526819  0.6899196555814405  0.3375255288874855
  0.3639839844098066  0.7327988996281144  0.3375029305148066
  0.4135544987463767  0.6813426372000012  0.4101744907302595
  0.3442585882359656  0.6928047184497266  0.3395712630087210
  0.3639782610392287  0.7041722145905921  0.3717903466564226
  0.3442703795071466  0.7441708962668712  0.3697147597312961
  0.3887788293617225  0.7470545139785095  0.3717600949914538
  0.3442572188588350  0.7155040112045175  0.4102042967290240
  0.3887648029975043  0.7183890740728034  0.4122500308502595
  0.3442584052179156  0.6927106871484097  0.4423935275728348
  0.3887668550724916  0.6955943048600478  0.4444388628329923
  0.3690505526163935  0.7297601941197238  0.4444631888526615
  0.4084844758007670  0.7297565702136690  0.4444691144979609
  0.4974954572698069  0.6557543348865756  0.3375029305148066
  0.4580558107148551  0.6271312737551087  0.3717844210111230
  0.4777818523671464  0.6671263315253327  0.3697147597312961
  0.4332754712663377  0.6700099492369711  0.3717600949914538
  0.5025693297017615  0.6813426372000012  0.4101744907302595
  0.4974897338992286  0.6271276498490536  0.3717903466564226
  0.4529868410759614  0.6813386905096530  0.4101816983563453
  0.4777686917188353  0.6384594464629790  0.4102042967290240
  0.4332614449021194  0.6413445093312649  0.4122500308502595
  0.5025620254763934  0.6527156293781854  0.4444631888526615
  0.4332634969771068  0.6185497401185094  0.4444388628329923
  0.4529811177053826  0.6527120054721307  0.4444691144979609
  0.4777936603171069  0.7470545139785095  0.3717600949914538
  0.4332852104625309  0.7441708962668712  0.3697147597312961
  0.4332734191913499  0.6928047184497266  0.3395712630087210
  0.4529988153651914  0.7327988996281144  0.3375029305148066
  0.4777806660080662  0.6899196555814405  0.3375255288874855
  0.5025739997656243  0.7041758384966469  0.3717844210111230
  0.4135591688102396  0.7041758384966469  0.3717844210111230
  0.4529930919946131  0.7041722145905921  0.3717903466564226
  0.4332720498142198  0.7155040112045175  0.4102042967290240
  0.4777816860278760  0.6955943048600478  0.4444388628329923
  0.4332732361733004  0.6927106871484097  0.4423935275728348
  0.3442691931480664  0.7669642203229792  0.3375255288874855
  0.3245682864333166  0.8070962567335701  0.2264268853280461
  0.3245636163694533  0.7842630554369239  0.2648169550471826
  0.3887909699902235  0.7700467497622560  0.2243572240482193
  0.3442823537963770  0.7956311053853328  0.2970359918897577
  0.3640022096176901  0.8070926328275151  0.2264328109733457
  0.3639959586990376  0.7842591087465759  0.2648241626732682
  0.3887908036509530  0.7985147230969708  0.2990813271499153
  0.3442845888894143  0.7729303674738939  0.2264025593083769
  0.3442811674372969  0.8184244294414407  0.2648467610459470
  0.3690698311309925  0.8098474110600008  0.3374957228887210
  0.4085021734605758  0.8098434643696528  0.3375029305148066
  0.3888027779401835  0.8499749322154324  0.2264025593083769
  0.3887887515759657  0.8213094923097264  0.2668924951671827
  0.4085141477498068  0.8613036734881145  0.2648241626732682
  0.3690818054202230  0.8613076201784625  0.2648169550471826
  0.3888005428471462  0.8726756701268710  0.2970359918897577
  0.4085084243792289  0.8326769884505920  0.2991115788148840
  0.3442941617463370  0.8755592878385093  0.2990813271499153
  0.3690745011948550  0.8326806123566469  0.2991056531695845
  0.3887873821988356  0.8440087850645175  0.3375255288874855
  0.4135831173887010  0.8070962567335701  0.2264268853280461
  0.4135784473248381  0.7842630554369239  0.2648169550471826
  0.4332840241034511  0.7669642203229792  0.3375255288874855
  0.4778058009456078  0.7700467497622560  0.2243572240482193
  0.4778056346063378  0.7985147230969708  0.2990813271499153
  0.4332994198447991  0.7729303674738939  0.2264025593083769
  0.4530170405730749  0.8070926328275151  0.2264328109733457
  0.4530107896544219  0.7842591087465759  0.2648241626732682
  0.4332971847517618  0.7956311053853328  0.2970359918897577
  0.4332959983926816  0.8184244294414407  0.2648467610459470
  0.4975170044159606  0.8098434643696528  0.3375029305148066
  0.4580846620863773  0.8098474110600008  0.3374957228887210
  0.4778035825313505  0.8213094923097264  0.2668924951671827
  0.4580966363756073  0.8613076201784625  0.2648169550471826
  0.4333091590409923  0.8470913145037943  0.2243572240482193
  0.4975289787051915  0.8613036734881145  0.2648241626732682
  0.4778176088955683  0.8499749322154324  0.2264025593083769
  0.4333089927017218  0.8755592878385093  0.2990813271499153
  0.4580893321502397  0.8326806123566469  0.2991056531695845
  0.4778153738025310  0.8726756701268710  0.2970359918897577
  0.4975232553346132  0.8326769884505920  0.2991115788148840
  0.4778022131542203  0.8440087850645175  0.3375255288874855
  0.3887767772867353  0.7698492831912649  0.3395712630087210
  0.4084964500899980  0.7812167793321307  0.3717903466564226
  0.3690625269056245  0.7812204032381855  0.3717844210111230
  0.3690578568417616  0.7583872019415393  0.4101744907302595
  0.4084901991713458  0.7583832552511915  0.4101816983563453
  0.3887754079096047  0.7925485759460561  0.4102042967290240
  0.3887765942686848  0.7697552518899480  0.4423935275728348
  0.3442702131678761  0.7726388696015863  0.4444388628329923
  0.3442681610928888  0.7954336388143420  0.4122500308502595
  0.3639878338961519  0.8068011349552073  0.4444691144979609
  0.3442821874571070  0.8240990787200483  0.3717600949914538
  0.3887885685579158  0.8212154610084097  0.3697147597312961
  0.3442801353821197  0.8468938479328035  0.3395712630087210
  0.3639998081853824  0.8582613440736691  0.3717903466564226
  0.3245658850010094  0.8582649679797238  0.3717844210111230
  0.3639935572667298  0.8354278199927297  0.4101816983563453
  0.3442787660049900  0.8695931406875949  0.4102042967290240
  0.3887863501436580  0.8724782035558803  0.4122500308502595
  0.3442799523640697  0.8467998166314866  0.4423935275728348
  0.3887884022186453  0.8496834343431248  0.4444388628329923
  0.3690720997625476  0.8838493236028010  0.4444631888526615
  0.4085060229469211  0.8838456996967458  0.4444691144979609
  0.4975112810453823  0.7812167793321307  0.3717903466564226
  0.4580773578610088  0.7812204032381855  0.3717844210111230
  0.4777916082421196  0.7698492831912649  0.3395712630087210
  0.4975050301267306  0.7583832552511915  0.4101816983563453
  0.4777902388649894  0.7925485759460561  0.4102042967290240
  0.4332829920482735  0.7954336388143420  0.4122500308502595
  0.4135687416671627  0.8068047588612623  0.4444631888526615
  0.4332850441232609  0.7726388696015863  0.4444388628329923
  0.4777914252240696  0.7697552518899480  0.4423935275728348
  0.4530026648515362  0.8068011349552073  0.4444691144979609
  0.4135807159563937  0.8582649679797238  0.3717844210111230
  0.4332970184124918  0.8240990787200483  0.3717600949914538
  0.4778033995133001  0.8212154610084097  0.3697147597312961
  0.4332949663375040  0.8468938479328035  0.3395712630087210
  0.4530146391407672  0.8582613440736691  0.3717903466564226
  0.4135760458925308  0.8354317666830777  0.4101744907302595
  0.4530083882221141  0.8354278199927297  0.4101816983563453
  0.4580869307179320  0.8838493236028010  0.4444631888526615
  0.4975208539023054  0.8838456996967458  0.4444691144979609
  0.4332947833194540  0.8467998166314866  0.4423935275728348
  0.4332935969603739  0.8695931406875949  0.4102042967290240
  0.4778032331740301  0.8496834343431248  0.4444388628329923
  0.4778011810990427  0.8724782035558803  0.4122500308502595
  0.1859303739205761  0.6298784813911913  0.4828604661978836
  0.2355128625463771  0.6298824280815394  0.4828532585717981
  0.1662155826588358  0.6640438020860560  0.4828830645705623
  0.2107231667975043  0.6669288649543421  0.4849287986917978
  0.2552304136142202  0.6640438020860560  0.4828830645705623
  0.1662167690179160  0.6412504780299479  0.5150722954143732
  0.2107252188724916  0.6441340957415865  0.5171176306745305
  0.1910089164163935  0.6782999850012623  0.5171419566941998
  0.2304365886821144  0.6554628370142682  0.5555392340394220
  0.1910042463525306  0.6554667837046166  0.5555320264133365
  0.2304428396007670  0.6782963610952077  0.5171478823394995
  0.2107217974203742  0.6896281577091331  0.5555618324121008
  0.2107337717096051  0.7410883668275944  0.4828830645705623
  0.1910162206417615  0.7069269928230778  0.4828532585717981
  0.2304485629713453  0.7069230461327298  0.4828604661978836
  0.1662265248928892  0.7439734296958803  0.4849287986917978
  0.2107349580686853  0.7182950427714867  0.5150722954143732
  0.1662285769678765  0.7211786604831250  0.5171176306745305
  0.1859461976961519  0.7553409258367459  0.5171478823394995
  0.2355271054671627  0.7553445497428009  0.5171419566941998
  0.1859399467774993  0.7325074017558068  0.5555392340394220
  0.1662145506036583  0.6925132205774190  0.5576075665333362
  0.2355224354032998  0.7325113484461547  0.5555320264133365
  0.2552293815590430  0.6925132205774190  0.5576075665333362
  0.2749452048759609  0.6298784813911913  0.4828604661978836
  0.3245276935017614  0.6298824280815394  0.4828532585717981
  0.2997379977528891  0.6669288649543421  0.4849287986917978
  0.3442452445696050  0.6640438020860560  0.4828830645705623
  0.2552315999733004  0.6412504780299479  0.5150722954143732
  0.2800237473717783  0.6782999850012623  0.5171419566941998
  0.3442464309286847  0.6412504780299479  0.5150722954143732
  0.2997400498278764  0.6441340957415865  0.5171176306745305
  0.2800190773079154  0.6554667837046166  0.5555320264133365
  0.3194514196374992  0.6554628370142682  0.5555392340394220
  0.3194576705561518  0.6782963610952077  0.5171478823394995
  0.2997486026649894  0.7410883668275944  0.4828830645705623
  0.2800310515971463  0.7069269928230778  0.4828532585717981
  0.2552413558482740  0.7439734296958803  0.4849287986917978
  0.3194633939267301  0.7069230461327298  0.4828604661978836
  0.2997497890240696  0.7182950427714867  0.5150722954143732
  0.2552434079232608  0.7211786604831250  0.5171176306745305
  0.3245419364225475  0.7553445497428009  0.5171419566941998
  0.2749610286515367  0.7553409258367459  0.5171478823394995
  0.2749547777328841  0.7325074017558068  0.5555392340394220
  0.3245372663586842  0.7325113484461547  0.5555320264133365
  0.3442442125144274  0.6925132205774190  0.5576075665333362
  0.2997366283757589  0.6896281577091331  0.5555618324121008
  0.2304308653115365  0.6268361519767458  0.5898266501810381
  0.1909969421271630  0.6268397758828009  0.5898207245357382
  0.1662166026786451  0.6697184513646635  0.5897963985160694
  0.2552314336340299  0.6697184513646635  0.5897963985160694
  0.2107229837794543  0.6668348336530249  0.5877510632559115
  0.2749490543623057  0.7038807167182847  0.5898266501810381
  0.1859342234069210  0.7038807167182847  0.5898266501810381
  0.2355151311779322  0.7038843406243390  0.5898207245357382
  0.1662263418748388  0.7438793983945636  0.5877510632559115
  0.2107347917294148  0.7467630161062020  0.5897963985160694
  0.2552411728302236  0.7438793983945636  0.5877510632559115
  0.2749428034436532  0.6810471926373450  0.6282180018809606
  0.2749370800730748  0.6524205075998227  0.6625054180225762
  0.2355031568887013  0.6524241315058777  0.6624994923772766
  0.2552194593447994  0.6182582422462017  0.6624751663576077
  0.2552174072698126  0.6410530114589573  0.6302863343748750
  0.2355104611140689  0.6810511393276932  0.6282107942548749
  0.2552291985409926  0.6924191892761019  0.6604298310974501
  0.2107228174401839  0.6953028069877403  0.6624751663576077
  0.2107207653651966  0.7180975762004960  0.6302863343748750
  0.1910065149840862  0.7294686962474158  0.6624994923772766
  0.2552280121819133  0.7152125133322100  0.6282406002536391
  0.2304404381684601  0.7294650723413616  0.6625054180225762
  0.2552269801267353  0.7436819318235726  0.7029651022164134
  0.3442462645894147  0.6697184513646635  0.5897963985160694
  0.3442322382251964  0.6410530114589573  0.6302863343748750
  0.2800117730825474  0.6268397758828009  0.5898207245357382
  0.2997246540865276  0.6381679485906714  0.6282406002536391
  0.2997378147348387  0.6668348336530249  0.5877510632559115
  0.3194456962669208  0.6268361519767458  0.5898266501810381
  0.3245252920694537  0.6810511393276932  0.6282107942548749
  0.3245299621333166  0.7038843406243390  0.5898207245357382
  0.2997496226847992  0.7467630161062020  0.5897963985160694
  0.3442428431372968  0.7152125133322100  0.6282406002536391
  0.3442308688480668  0.6637523042137483  0.7009193680951779
  0.3245179878440856  0.6524241315058777  0.6624994923772766
  0.3442342903001838  0.6182582422462017  0.6624751663576077
  0.3245133177802227  0.6295909302092315  0.7008895620964134
  0.2997236220313508  0.6666373670820342  0.7029651022164134
  0.3442440294963774  0.6924191892761019  0.6604298310974501
  0.2997376483955687  0.6953028069877403  0.6624751663576077
  0.2800166758756076  0.7066354949507697  0.7008895620964134
  0.3442418110821201  0.7436819318235726  0.7029651022164134
  0.2997342269434512  0.7407968689552871  0.7009193680951779
  0.3194490182051914  0.7066315482604222  0.7008967697224989
  0.2355344096925308  0.7839715575646162  0.4828532585717981
  0.2107327396544275  0.7695577853189572  0.5576075665333362
  0.1859519210667302  0.7839676108742685  0.4828604661978836
  0.1662251555157586  0.7666727224506712  0.5555618324121008
  0.2107467660186453  0.7982232252246633  0.5171176306745305
  0.1662383161640697  0.7953396075130249  0.5150722954143732
  0.1662371298049895  0.8181329315691329  0.4828830645705623
  0.2304581358282685  0.8095519664973453  0.5555392340394220
  0.2107447139436584  0.8210179944374191  0.4849287986917978
  0.2304701101174990  0.8610121756158066  0.4828604661978836
  0.2304643867469211  0.8323854905782843  0.5171478823394995
  0.1910304635625476  0.8323891144843393  0.5171419566941998
  0.2749667520221146  0.7839676108742685  0.4828604661978836
  0.3245492406479155  0.7839715575646162  0.4828532585717981
  0.2552531471194545  0.7953396075130249  0.5150722954143732
  0.2552519607603743  0.8181329315691329  0.4828830645705623
  0.2997615969740296  0.7982232252246633  0.5171176306745305
  0.2997475706098123  0.7695577853189572  0.5576075665333362
  0.2800406244540695  0.8095559131876933  0.5555320264133365
  0.2552399864711434  0.7666727224506712  0.5555618324121008
  0.3194729667836533  0.8095519664973453  0.5555392340394220
  0.2997593618809928  0.8209239631361018  0.5877510632559115
  0.2997595448990432  0.8210179944374191  0.4849287986917978
  0.2800525987433000  0.8610161223061548  0.4828532585717981
  0.3194849410728838  0.8610121756158066  0.4828604661978836
  0.2997713361702237  0.8723841722545634  0.5150722954143732
  0.2552649550694149  0.8752677899662016  0.5171176306745305
  0.2800452945179320  0.8323891144843393  0.5171419566941998
  0.2552509287051967  0.8466023500604960  0.5576075665333362
  0.2997581755219126  0.8437172871922098  0.5555618324121008
  0.3194792177023059  0.8323854905782843  0.5171478823394995
  0.2552529807801836  0.8238075808477404  0.5897963985160694
  0.2304461615390376  0.7580917573788835  0.6282180018809606
  0.1910184892733167  0.7809289053658776  0.5898207245357382
  0.2304524124576902  0.7809252814598228  0.5898266501810381
  0.2355366783240855  0.8579734701074162  0.5898207245357382
  0.2355320082602230  0.8351402688107702  0.6282107942548749
  0.2355200339709921  0.7836800596923085  0.7008895620964134
  0.2355247040348559  0.8065132609889545  0.6624994923772766
  0.2552375850388356  0.8178414336968253  0.7009193680951779
  0.2800333202287015  0.7809289053658776  0.5898207245357382
  0.3194672434130750  0.7809252814598228  0.5898266501810381
  0.2552389544159658  0.7951421409420341  0.6302863343748750
  0.2997462012326821  0.7922570780737483  0.6282406002536391
  0.2749643505898073  0.8351363221204222  0.6282180018809606
  0.3245468392156073  0.8351402688107702  0.6282107942548749
  0.2749706015084594  0.8579698462013614  0.5898266501810381
  0.3245515092794707  0.8579734701074162  0.5898207245357382
  0.2997571434667350  0.8721867056835727  0.6302863343748750
  0.2552495593280666  0.8693016428152868  0.6282406002536391
  0.2749523763005759  0.7836761130019603  0.7008967697224989
  0.2552410064909531  0.7723473717292789  0.6624751663576077
  0.2997451691775045  0.8207264965651110  0.7029651022164134
  0.3245395349902402  0.8065132609889545  0.6624994923772766
  0.3442524159942204  0.8178414336968253  0.7009193680951779
  0.3245348649263769  0.7836800596923085  0.7008895620964134
  0.2749586272192294  0.8065096370828997  0.6625054180225762
  0.2552507456871467  0.8465083187591789  0.6604298310974501
  0.2997591955417223  0.8493919364708172  0.6624751663576077
  0.3194705653513455  0.8607206777434991  0.7008967697224989
  0.3194768162699981  0.8835542018244382  0.6625054180225762
  0.3887528287082734  0.6669288649543421  0.4849287986917978
  0.4135425244571462  0.6298824280815394  0.4828532585717981
  0.4332600755249893  0.6640438020860560  0.4828830645705623
  0.3639600358313452  0.6298784813911913  0.4828604661978836
  0.3887548807832607  0.6441340957415865  0.5171176306745305
  0.3690385783271626  0.6782999850012623  0.5171419566941998
  0.4084725015115361  0.6782963610952077  0.5171478823394995
  0.3690339082632997  0.6554667837046166  0.5555320264133365
  0.3887514593311432  0.6896281577091331  0.5555618324121008
  0.4084662505928836  0.6554628370142682  0.5555392340394220
  0.4084782248821144  0.7069230461327298  0.4828604661978836
  0.3690458825525306  0.7069269928230778  0.4828532585717981
  0.3442561868036583  0.7439734296958803  0.4849287986917978
  0.3887634336203737  0.7410883668275944  0.4828830645705623
  0.3887646199794539  0.7182950427714867  0.5150722954143732
  0.3442582388786456  0.7211786604831250  0.5171176306745305
  0.3639758596069210  0.7553409258367459  0.5171478823394995
  0.4135520973140685  0.7325113484461547  0.5555320264133365
  0.4332590434698121  0.6925132205774190  0.5576075665333362
  0.3639696086882684  0.7325074017558068  0.5555392340394220
  0.4777676596636582  0.6669288649543421  0.4849287986917978
  0.4529748667867300  0.6298784813911913  0.4828604661978836
  0.5025573554125305  0.6298824280815394  0.4828532585717981
  0.4777697117386455  0.6441340957415865  0.5171176306745305
  0.4332612618840695  0.6412504780299479  0.5150722954143732
  0.4580534092825474  0.6782999850012623  0.5171419566941998
  0.4974873324669209  0.6782963610952077  0.5171478823394995
  0.4580487392186845  0.6554667837046166  0.5555320264133365
  0.4777662902865280  0.6896281577091331  0.5555618324121008
  0.4974810815482683  0.6554628370142682  0.5555392340394220
  0.4580607135079150  0.7069269928230778  0.4828532585717981
  0.4974930558374992  0.7069230461327298  0.4828604661978836
  0.4777782645757581  0.7410883668275944  0.4828830645705623
  0.4777794509348387  0.7182950427714867  0.5150722954143732
  0.4332730698340299  0.7211786604831250  0.5171176306745305
  0.5025715983333167  0.7553445497428009  0.5171419566941998
  0.5025669282694533  0.7325113484461547  0.5555320264133365
  0.4529844396436532  0.7325074017558068  0.5555392340394220
  0.4332470691805812  0.6410530114589573  0.6302863343748750
  0.3887394850419124  0.6381679485906714  0.6282406002536391
  0.4084605272223056  0.6268361519767458  0.5898266501810381
  0.3690266040379321  0.6268397758828009  0.5898207245357382
  0.3639576343990375  0.6810471926373450  0.6282180018809606
  0.3887526456902234  0.6668348336530249  0.5877510632559115
  0.4135401230248380  0.6810511393276932  0.6282107942548749
  0.3639638853176901  0.7038807167182847  0.5898266501810381
  0.4135447930887013  0.7038843406243390  0.5898207245357382
  0.3887504272759661  0.7180975762004960  0.6302863343748750
  0.3887644536401839  0.7467630161062020  0.5897963985160694
  0.3442560037856079  0.7438793983945636  0.5877510632559115
  0.4332491212555685  0.6182582422462017  0.6624751663576077
  0.3639456601098070  0.6295869835188835  0.7008967697224989
  0.4135281487356071  0.6295909302092315  0.7008895620964134
  0.3639519110284596  0.6524205075998227  0.6625054180225762
  0.4135328187994705  0.6524241315058777  0.6624994923772766
  0.3887384529867352  0.6666373670820342  0.7029651022164134
  0.4332456998034511  0.6637523042137483  0.7009193680951779
  0.3887524793509530  0.6953028069877403  0.6624751663576077
  0.4084638491605762  0.7066315482604222  0.7008967697224989
  0.3690315068309924  0.7066354949507697  0.7008895620964134
  0.3887490578988360  0.7407968689552871  0.7009193680951779
  0.4084701000792288  0.7294650723413616  0.6625054180225762
  0.4580414349933169  0.6268397758828009  0.5898207245357382
  0.4974753581776904  0.6268361519767458  0.5898266501810381
  0.4777674766456082  0.6668348336530249  0.5877510632559115
  0.4777543159972976  0.6381679485906714  0.6282406002536391
  0.5025549539802228  0.6810511393276932  0.6282107942548749
  0.4332610955447995  0.6697184513646635  0.5897963985160694
  0.4529724653544223  0.6810471926373450  0.6282180018809606
  0.4529787162730748  0.7038807167182847  0.5898266501810381
  0.5025596240440857  0.7038843406243390  0.5898207245357382
  0.4332576740926816  0.7152125133322100  0.6282406002536391
  0.4777652582313505  0.7180975762004960  0.6302863343748750
  0.4332708347409926  0.7438793983945636  0.5877510632559115
  0.4777792845955682  0.7467630161062020  0.5897963985160694
  0.4332588604517617  0.6924191892761019  0.6604298310974501
  0.4529604910651913  0.6295869835188835  0.7008967697224989
  0.5025429796909915  0.6295909302092315  0.7008895620964134
  0.4777532839421195  0.6666373670820342  0.7029651022164134
  0.4529667419838439  0.6524205075998227  0.6625054180225762
  0.4974786801159606  0.7066315482604222  0.7008967697224989
  0.4777673103063377  0.6953028069877403  0.6624751663576077
  0.4580463377863768  0.7066354949507697  0.7008895620964134
  0.4580510078502397  0.7294686962474158  0.6624994923772766
  0.4974849310346131  0.7294650723413616  0.6625054180225762
  0.4777638888542203  0.7407968689552871  0.7009193680951779
  0.4332566420375044  0.7436819318235726  0.7029651022164134
  0.3442679780748388  0.7953396075130249  0.5150722954143732
  0.3639815829774993  0.7839676108742685  0.4828604661978836
  0.3442667917157586  0.8181329315691329  0.4828830645705623
  0.3887764279294144  0.7982232252246633  0.5171176306745305
  0.3887741928363771  0.8209239631361018  0.5877510632559115
  0.3690554554094538  0.8095559131876933  0.5555320264133365
  0.3442548174265281  0.7666727224506712  0.5555618324121008
  0.3690481511840858  0.7809289053658776  0.5898207245357382
  0.4084877977390377  0.8095519664973453  0.5555392340394220
  0.3887624015651961  0.7695577853189572  0.5576075665333362
  0.3887743758544275  0.8210179944374191  0.4849287986917978
  0.3690674296986852  0.8610161223061548  0.4828532585717981
  0.4084997720282685  0.8610121756158066  0.4828604661978836
  0.3887861671256080  0.8723841722545634  0.5150722954143732
  0.3442797860247993  0.8752677899662016  0.5171176306745305
  0.3690601254733167  0.8323891144843393  0.5171419566941998
  0.4084940486576902  0.8323854905782843  0.5171478823394995
  0.3442657596605815  0.8466023500604960  0.5576075665333362
  0.3887730064772973  0.8437172871922098  0.5555618324121008
  0.3442678117355684  0.8238075808477404  0.5897963985160694
  0.4975146029836529  0.8610121756158066  0.4828604661978836
  0.4580822606540695  0.8610161223061548  0.4828532585717981
  0.4777892068098119  0.8210179944374191  0.4849287986917978
  0.4529964139328836  0.7839676108742685  0.4828604661978836
  0.4332816226711434  0.8181329315691329  0.4828830645705623
  0.4778009980809924  0.8723841722545634  0.5150722954143732
  0.4332828090302231  0.7953396075130249  0.5150722954143732
  0.4332696483819125  0.7666727224506712  0.5555618324121008
  0.4777912588847987  0.7982232252246633  0.5171176306745305
  0.4580702863648382  0.8095559131876933  0.5555320264133365
  0.4777890237917619  0.8209239631361018  0.5877510632559115
  0.4332826426909531  0.8238075808477404  0.5897963985160694
  0.4975088796130750  0.8323854905782843  0.5171478823394995
  0.4580749564287011  0.8323891144843393  0.5171419566941998
  0.4777878374326817  0.8437172871922098  0.5555618324121008
  0.4332805906159658  0.8466023500604960  0.5576075665333362
  0.4135663402348554  0.8579734701074162  0.5898207245357382
  0.4332946169801841  0.8752677899662016  0.5171176306745305
  0.4084820743684593  0.7809252814598228  0.5898266501810381
  0.3887610321880665  0.7922570780737483  0.6282406002536391
  0.3442537853713505  0.7951421409420341  0.6302863343748750
  0.4135616701709921  0.8351402688107702  0.6282107942548749
  0.3639791815451920  0.8351363221204222  0.6282180018809606
  0.3887719744221197  0.8721867056835727  0.6302863343748750
  0.3442643902834513  0.8693016428152868  0.6282406002536391
  0.3639854324638442  0.8579698462013614  0.5898266501810381
  0.3442558374463383  0.7723473717292789  0.6624751663576077
  0.4135496958817608  0.7836800596923085  0.7008895620964134
  0.4135543659456246  0.8065132609889545  0.6624994923772766
  0.3639672072559607  0.7836761130019603  0.7008967697224989
  0.3639734581746132  0.8065096370828997  0.6625054180225762
  0.4332672469496052  0.8178414336968253  0.7009193680951779
  0.3887600001328893  0.8207264965651110  0.7029651022164134
  0.3887740264971066  0.8493919364708172  0.6624751663576077
  0.3690530539771461  0.8607246244338471  0.7008895620964134
  0.4084853963067299  0.8607206777434991  0.7008967697224989
  0.4084916472253829  0.8835542018244382  0.6625054180225762
  0.3442655766425310  0.8465083187591789  0.6604298310974501
  0.3690577240410090  0.8835578257304930  0.6624994923772766
  0.4580583120756073  0.7580957040692314  0.6282107942548749
  0.4974906544051915  0.7580917573788835  0.6282180018809606
  0.4777758631434508  0.7922570780737483  0.6282406002536391
  0.4332686163267349  0.7951421409420341  0.6302863343748750
  0.4529940125005764  0.8351363221204222  0.6282180018809606
  0.5025765011263769  0.8351402688107702  0.6282107942548749
  0.4530002634192285  0.8579698462013614  0.5898266501810381
  0.4777868053775041  0.8721867056835727  0.6302863343748750
  0.4332792212388357  0.8693016428152868  0.6282406002536391
  0.4529882891299980  0.8065096370828997  0.6625054180225762
  0.4777770495025310  0.7694637540176406  0.6604298310974501
  0.4529820382113455  0.7836761130019603  0.7008967697224989
  0.4332706684017231  0.7723473717292789  0.6624751663576077
  0.5025645268371456  0.7836800596923085  0.7008895620964134
  0.4777748310882736  0.8207264965651110  0.7029651022164134
  0.4580725549963938  0.8835578257304930  0.6624994923772766
  0.4777888574524914  0.8493919364708172  0.6624751663576077
  0.4975002272621147  0.8607206777434991  0.7008967697224989
  0.4580678849325309  0.8607246244338471  0.7008895620964134
  0.4332804075979159  0.8465083187591789  0.6604298310974501
  0.4975064781807673  0.8835542018244382  0.6625054180225762
  0.5222904685609925  0.6415419759022558  0.2970359918897577
  0.5420040734636530  0.6301699792634988  0.2648241626732682
  0.5222927036540297  0.6188412379908173  0.2264025593083769
  0.5223024428502234  0.6930021850207173  0.2243572240482193
  0.5222892822019123  0.6643352999583637  0.2648467610459470
  0.5667989184155685  0.6444255936138943  0.2990813271499153
  0.5865165391438438  0.6785878589675151  0.2991115788148840
  0.5667968663405811  0.6672203628266496  0.2668924951671827
  0.5470826159594704  0.6785914828735701  0.2991056531695845
  0.5470779458956074  0.6557582815769241  0.3374957228887210
  0.5420103243823056  0.6530035033444381  0.2264328109733457
  0.5668108927047990  0.6958858027323557  0.2264025593083769
  0.5865222625144222  0.7072145440050376  0.2648241626732682
  0.5470899201848379  0.7072184906953853  0.2648169550471826
  0.5420198972392283  0.7556324237090536  0.2991115788148840
  0.5223022765109534  0.7214701583554326  0.2990813271499153
  0.5470945902487009  0.7300516919920317  0.2264268853280461
  0.5668086576117621  0.7185865406437942  0.2970359918897577
  0.5025813039909919  0.7328028463184625  0.3374957228887210
  0.5668074712526815  0.7413798646999025  0.2648467610459470
  0.5025859740548548  0.7556360476151086  0.2991056531695845
  0.5865285134330748  0.7300480680859768  0.2264328109733457
  0.5223002244359656  0.7442649275681880  0.2668924951671827
  0.5915912321533164  0.6530071272504931  0.2264268853280461
  0.6113052995163772  0.6415419759022558  0.2970359918897577
  0.5915865620894535  0.6301739259538469  0.2648169550471826
  0.6310189044190373  0.6301699792634988  0.2648241626732682
  0.6113075346094146  0.6188412379908173  0.2264025593083769
  0.6310251553376899  0.6530035033444381  0.2264328109733457
  0.6558137493709528  0.6444255936138943  0.2990813271499153
  0.6360927768509919  0.6557582815769241  0.3374957228887210
  0.6755313700992286  0.6785878589675151  0.2991115788148840
  0.6113041131572970  0.6643352999583637  0.2648467610459470
  0.6558116972959654  0.6672203628266496  0.2668924951671827
  0.6360974469148551  0.6785914828735701  0.2991056531695845
  0.6113172738056077  0.6930021850207173  0.2243572240482193
  0.6558257236601829  0.6958858027323557  0.2264025593083769
  0.6361094212040856  0.7300516919920317  0.2264268853280461
  0.6755433443884595  0.7300480680859768  0.2264328109733457
  0.6755370934698065  0.7072145440050376  0.2648241626732682
  0.6361047511402227  0.7072184906953853  0.2648169550471826
  0.6558223022080663  0.7413798646999025  0.2648467610459470
  0.6113150553913503  0.7442649275681880  0.2668924951671827
  0.6558234885671465  0.7185865406437942  0.2970359918897577
  0.5916008050102396  0.7556360476151086  0.2991056531695845
  0.6113171074663377  0.7214701583554326  0.2990813271499153
  0.5915961349463768  0.7328028463184625  0.3374957228887210
  0.6310347281946126  0.7556324237090536  0.2991115788148840
  0.5865045648546133  0.6271276498490536  0.3717903466564226
  0.5222903022217225  0.6700099492369711  0.3717600949914538
  0.5667966833225312  0.6671263315253327  0.3697147597312961
  0.5470706416702399  0.6271312737551087  0.3717844210111230
  0.5865102882251912  0.6557543348865756  0.3375029305148066
  0.5420016720313456  0.6813386905096530  0.4101816983563453
  0.5667835226742205  0.6384594464629790  0.4102042967290240
  0.5915768564317782  0.6527156293781854  0.4444631888526615
  0.5222762758575042  0.6413445093312649  0.4122500308502595
  0.5222783279324915  0.6185497401185094  0.4444388628329923
  0.5419959486607669  0.6527120054721307  0.4444691144979609
  0.5222882501467347  0.6928047184497266  0.3395712630087210
  0.5420136463205761  0.7327988996281144  0.3375029305148066
  0.5420079229499978  0.7041722145905921  0.3717903466564226
  0.5223000414179156  0.7441708962668712  0.3697147597312961
  0.5668084912724917  0.7470545139785095  0.3717600949914538
  0.5667954969634510  0.6899196555814405  0.3375255288874855
  0.5222868807696045  0.7155040112045175  0.4102042967290240
  0.5667944649082735  0.7183890740728034  0.4122500308502595
  0.5667965169832607  0.6955943048600478  0.4444388628329923
  0.5470802145271626  0.7297601941197238  0.4444631888526615
  0.5865141377115366  0.7297565702136690  0.4444691144979609
  0.5222880671286851  0.6927106871484097  0.4423935275728348
  0.6755193958099978  0.6271276498490536  0.3717903466564226
  0.6113051331771068  0.6700099492369711  0.3717600949914538
  0.6360854726256246  0.6271312737551087  0.3717844210111230
  0.6755251191805760  0.6557543348865756  0.3375029305148066
  0.6558115142779155  0.6671263315253327  0.3697147597312961
  0.5915841606571458  0.6813426372000012  0.4101744907302595
  0.6310165029867305  0.6813386905096530  0.4101816983563453
  0.6557983536296045  0.6384594464629790  0.4102042967290240
  0.6112911068128890  0.6413445093312649  0.4122500308502595
  0.6112931588878767  0.6185497401185094  0.4444388628329923
  0.6310107796161517  0.6527120054721307  0.4444691144979609
  0.6113148723733004  0.7441708962668712  0.3697147597312961
  0.6310284772759609  0.7327988996281144  0.3375029305148066
  0.6113030811021191  0.6928047184497266  0.3395712630087210
  0.6558103279188358  0.6899196555814405  0.3375255288874855
  0.6310227539053826  0.7041722145905921  0.3717903466564226
  0.5915888307210091  0.7041758384966469  0.3717844210111230
  0.6558233222278760  0.7470545139785095  0.3717600949914538
  0.6113017117249889  0.7155040112045175  0.4102042967290240
  0.6558092958636582  0.7183890740728034  0.4122500308502595
  0.6360950454825474  0.7297601941197238  0.4444631888526615
  0.6755289686669209  0.7297565702136690  0.4444691144979609
  0.6558113479386459  0.6955943048600478  0.4444388628329923
  0.6113028980840695  0.6927106871484097  0.4423935275728348
  0.5223108293480664  0.8184244294414407  0.2648467610459470
  0.5668206319009926  0.7700467497622560  0.2243572240482193
  0.5420256206098066  0.7842591087465759  0.2648241626732682
  0.5420318715284592  0.8070926328275151  0.2264328109733457
  0.5025979483440858  0.8070962567335701  0.2264268853280461
  0.5223142508001839  0.7729303674738939  0.2264025593083769
  0.5025932782802228  0.7842630554369239  0.2648169550471826
  0.5223120157071466  0.7956311053853328  0.2970359918897577
  0.5470994930417620  0.8098474110600008  0.3374957228887210
  0.5668204655617226  0.7985147230969708  0.2990813271499153
  0.5222988550588354  0.7669642203229792  0.3375255288874855
  0.5865318353713453  0.8098434643696528  0.3375029305148066
  0.5668064391975044  0.7698492831912649  0.3395712630087210
  0.5223239899963771  0.8470913145037943  0.2243572240482193
  0.5668184134867357  0.8213094923097264  0.2668924951671827
  0.5668302047579158  0.8726756701268710  0.2970359918897577
  0.5223238236571066  0.8755592878385093  0.2990813271499153
  0.5471041631056240  0.8326806123566469  0.2991056531695845
  0.5865380862899979  0.8326769884505920  0.2991115788148840
  0.5223097972928888  0.8468938479328035  0.3395712630087210
  0.5668170441096047  0.8440087850645175  0.3375255288874855
  0.6310404515651914  0.7842591087465759  0.2648241626732682
  0.5916081092356076  0.7842630554369239  0.2648169550471826
  0.6558354628563769  0.7700467497622560  0.2243572240482193
  0.6310467024838440  0.8070926328275151  0.2264328109733457
  0.5916127792994701  0.8070962567335701  0.2264268853280461
  0.6113290817555682  0.7729303674738939  0.2264025593083769
  0.6113256603034507  0.8184244294414407  0.2648467610459470
  0.6558352965171069  0.7985147230969708  0.2990813271499153
  0.6113268466625313  0.7956311053853328  0.2970359918897577
  0.6755466663267298  0.8098434643696528  0.3375029305148066
  0.6361143239971464  0.8098474110600008  0.3374957228887210
  0.6113136860142206  0.7669642203229792  0.3375255288874855
  0.6558212701528887  0.7698492831912649  0.3395712630087210
  0.6113388209517618  0.8470913145037943  0.2243572240482193
  0.6361262982863768  0.8613076201784625  0.2648169550471826
  0.6558332444421197  0.8213094923097264  0.2668924951671827
  0.6558450357133006  0.8726756701268710  0.2970359918897577
  0.6113386546124914  0.8755592878385093  0.2990813271499153
  0.6558318750649899  0.8440087850645175  0.3375255288874855
  0.6113246282482736  0.8468938479328035  0.3395712630087210
  0.6361189940610088  0.8326806123566469  0.2991056531695845
  0.6755529172453822  0.8326769884505920  0.2991115788148840
  0.5470921888163935  0.7812204032381855  0.3717844210111230
  0.5865198610821150  0.7583832552511915  0.4101816983563453
  0.5470875187525307  0.7583872019415393  0.4101744907302595
  0.5865261120007671  0.7812167793321307  0.3717903466564226
  0.5668050698203742  0.7925485759460561  0.4102042967290240
  0.5222978230036583  0.7954336388143420  0.4122500308502595
  0.5420174958069210  0.8068011349552073  0.4444691144979609
  0.5025835726225475  0.8068047588612623  0.4444631888526615
  0.5668062561794539  0.7697552518899480  0.4423935275728348
  0.5222998750786452  0.7726388696015863  0.4444388628329923
  0.5420294700961519  0.8582613440736691  0.3717903466564226
  0.5223118493678761  0.8240990787200483  0.3717600949914538
  0.5668182304686848  0.8212154610084097  0.3697147597312961
  0.5025955469117780  0.8582649679797238  0.3717844210111230
  0.5025908768479151  0.8354317666830777  0.4101744907302595
  0.5420232191774994  0.8354278199927297  0.4101816983563453
  0.5668160120544276  0.8724782035558803  0.4122500308502595
  0.5223084279157587  0.8695931406875949  0.4102042967290240
  0.5223096142748388  0.8467998166314866  0.4423935275728348
  0.5865356848576903  0.8838456996967458  0.4444691144979609
  0.5668180641294144  0.8496834343431248  0.4444388628329923
  0.5471017616733167  0.8838493236028010  0.4444631888526615
  0.6755409429561519  0.7812167793321307  0.3717903466564226
  0.6361070197717783  0.7812204032381855  0.3717844210111230
  0.6361023497079150  0.7583872019415393  0.4101744907302595
  0.6755346920374993  0.7583832552511915  0.4101816983563453
  0.6558199007757586  0.7925485759460561  0.4102042967290240
  0.6113126539590427  0.7954336388143420  0.4122500308502595
  0.6113147060340299  0.7726388696015863  0.4444388628329923
  0.6310323267623058  0.8068011349552073  0.4444691144979609
  0.6558210871348387  0.7697552518899480  0.4423935275728348
  0.5915984035779318  0.8068047588612623  0.4444631888526615
  0.5916103778671628  0.8582649679797238  0.3717844210111230
  0.6113266803232609  0.8240990787200483  0.3717600949914538
  0.6558330614240696  0.8212154610084097  0.3697147597312961
  0.6310443010515363  0.8582613440736691  0.3717903466564226
  0.5916057078032999  0.8354317666830777  0.4101744907302595
  0.6310380501328837  0.8354278199927297  0.4101816983563453
  0.6113232588711435  0.8695931406875949  0.4102042967290240
  0.6558308430098119  0.8724782035558803  0.4122500308502595
  0.6361165926287011  0.8838493236028010  0.4444631888526615
  0.6558328950847991  0.8496834343431248  0.4444388628329923
  0.6755505158130750  0.8838456996967458  0.4444691144979609
  0.6113244452302231  0.8467998166314866  0.4423935275728348
  0.5915721863679153  0.6298824280815394  0.4828532585717981
  0.5419896977421144  0.6298784813911913  0.4828604661978836
  0.5222749064803741  0.6640438020860560  0.4828830645705623
  0.5222760928394542  0.6412504780299479  0.5150722954143732
  0.5667824906190430  0.6669288649543421  0.4849287986917978
  0.5865078867928836  0.7069230461327298  0.4828604661978836
  0.5470755444632998  0.7069269928230778  0.4828532585717981
  0.5667942818902234  0.7182950427714867  0.5150722954143732
  0.5667930955311429  0.7410883668275944  0.4828830645705623
  0.5222858487144274  0.7439734296958803  0.4849287986917978
  0.5470635701740693  0.6554667837046166  0.5555320264133365
  0.5667845426940302  0.6441340957415865  0.5171176306745305
  0.5864959125036531  0.6554628370142682  0.5555392340394220
  0.5865021634223057  0.6782963610952077  0.5171478823394995
  0.5667823076009930  0.6668348336530249  0.5877510632559115
  0.5470682402379318  0.6782999850012623  0.5171419566941998
  0.5667811212419124  0.6896281577091331  0.5555618324121008
  0.5222738744251965  0.6925132205774190  0.5576075665333362
  0.5222856656963775  0.7438793983945636  0.5877510632559115
  0.5222879007894147  0.7211786604831250  0.5171176306745305
  0.5419992705990375  0.7325074017558068  0.5555392340394220
  0.6557973215744273  0.6669288649543421  0.4849287986917978
  0.6755227177482683  0.7069230461327298  0.4828604661978836
  0.6112897374357584  0.6640438020860560  0.4828830645705623
  0.6310045286974991  0.6298784813911913  0.4828604661978836
  0.6113006796698126  0.7439734296958803  0.4849287986917978
  0.6558079264865281  0.7410883668275944  0.4828830645705623
  0.6360903754186845  0.7069269928230778  0.4828532585717981
  0.6558091128456083  0.7182950427714867  0.5150722954143732
  0.6112909237948390  0.6412504780299479  0.5150722954143732
  0.6557993736494145  0.6441340957415865  0.5171176306745305
  0.6755107434590374  0.6554628370142682  0.5555392340394220
  0.6557971385563773  0.6668348336530249  0.5877510632559115
  0.6360784011294536  0.6554667837046166  0.5555320264133365
  0.6360830711933165  0.6782999850012623  0.5171419566941998
  0.6755169943776904  0.6782963610952077  0.5171478823394995
  0.6112887053805812  0.6925132205774190  0.5576075665333362
  0.6557959521972976  0.6896281577091331  0.5555618324121008
  0.5915817592248380  0.7325113484461547  0.5555320264133365
  0.6113004966517618  0.7438793983945636  0.5877510632559115
  0.6310141015544223  0.7325074017558068  0.5555392340394220
  0.6113027317447994  0.7211786604831250  0.5171176306745305
  0.5222759265001838  0.6697184513646635  0.5897963985160694
  0.5667691469526819  0.6381679485906714  0.6282406002536391
  0.5419872963098070  0.6810471926373450  0.6282180018809606
  0.5419815729392287  0.6524205075998227  0.6625054180225762
  0.5419753220205761  0.6295869835188835  0.7008967697224989
  0.5222605307588358  0.6637523042137483  0.7009193680951779
  0.5667681148975043  0.6666373670820342  0.7029651022164134
  0.5915578106463762  0.6295909302092315  0.7008895620964134
  0.5222725050480668  0.7152125133322100  0.6282406002536391
  0.5667941155509530  0.7467630161062020  0.5897963985160694
  0.5419935472284596  0.7038807167182847  0.5898266501810381
  0.5667800891867352  0.7180975762004960  0.6302863343748750
  0.5222736914071465  0.6924191892761019  0.6604298310974501
  0.5667821412617221  0.6953028069877403  0.6624751663576077
  0.5470658388056244  0.7294686962474158  0.6624994923772766
  0.5864997619899979  0.7294650723413616  0.6625054180225762
  0.5667787198096050  0.7407968689552871  0.7009193680951779
  0.5470611687417615  0.7066354949507697  0.7008895620964134
  0.5864935110713453  0.7066315482604222  0.7008967697224989
  0.5222714729928888  0.7436819318235726  0.7029651022164134
  0.5915697849356075  0.6810511393276932  0.6282107942548749
  0.6360710969040860  0.6268397758828009  0.5898207245357382
  0.6755050200884595  0.6268361519767458  0.5898266501810381
  0.6112907574555686  0.6697184513646635  0.5897963985160694
  0.6557839779080662  0.6381679485906714  0.6282406002536391
  0.6112753617142201  0.6637523042137483  0.7009193680951779
  0.6112787831663377  0.6182582422462017  0.6624751663576077
  0.6309901529759604  0.6295869835188835  0.7008967697224989
  0.6557829458528891  0.6666373670820342  0.7029651022164134
  0.6310083781838439  0.7038807167182847  0.5898266501810381
  0.6558089465063378  0.7467630161062020  0.5897963985160694
  0.5915744549994705  0.7038843406243390  0.5898207245357382
  0.6112873360034511  0.7152125133322100  0.6282406002536391
  0.6557949201421196  0.7180975762004960  0.6302863343748750
  0.6557969722171069  0.6953028069877403  0.6624751663576077
  0.6360806697610087  0.7294686962474158  0.6624994923772766
  0.6755145929453826  0.7294650723413616  0.6625054180225762
  0.6112863039482735  0.7436819318235726  0.7029651022164134
  0.6557935507649894  0.7407968689552871  0.7009193680951779
  0.6360759996971459  0.7066354949507697  0.7008895620964134
  0.6755083420267297  0.7066315482604222  0.7008967697224989
  0.5222964536265278  0.8181329315691329  0.4828830645705623
  0.5025789025586842  0.7839715575646162  0.4828532585717981
  0.5668060898401834  0.7982232252246633  0.5171176306745305
  0.5420055215176901  0.7553409258367459  0.5171478823394995
  0.5470851173202229  0.8095559131876933  0.5555320264133365
  0.5865174596498067  0.8095519664973453  0.5555392340394220
  0.5667920634759652  0.7695577853189572  0.5576075665333362
  0.5222844793372973  0.7666727224506712  0.5555618324121008
  0.5470970916094539  0.8610161223061548  0.4828532585717981
  0.5865294339390377  0.8610121756158066  0.4828604661978836
  0.5223094479355683  0.8752677899662016  0.5171176306745305
  0.5668158290363772  0.8723841722545634  0.5150722954143732
  0.5865237105684593  0.8323854905782843  0.5171478823394995
  0.5222954215713506  0.8466023500604960  0.5576075665333362
  0.5668026683880665  0.8437172871922098  0.5555618324121008
  0.5668038547471467  0.8209239631361018  0.5877510632559115
  0.6113112845819125  0.8181329315691329  0.4828830645705623
  0.5915937335140690  0.7839715575646162  0.4828532585717981
  0.6310260758436528  0.7839676108742685  0.4828604661978836
  0.6113124709409927  0.7953396075130249  0.5150722954143732
  0.6558209207955683  0.7982232252246633  0.5171176306745305
  0.5915864292887010  0.7553445497428009  0.5171419566941998
  0.6310203524730749  0.7553409258367459  0.5171478823394995
  0.6755322906051915  0.8095519664973453  0.5555392340394220
  0.6112993102926816  0.7666727224506712  0.5555618324121008
  0.6558068944313500  0.7695577853189572  0.5576075665333362
  0.6360999482756077  0.8095559131876933  0.5555320264133365
  0.6558306599917619  0.8723841722545634  0.5150722954143732
  0.6361119225648386  0.8610161223061548  0.4828532585717981
  0.6558188687205814  0.8210179944374191  0.4849287986917978
  0.6755442648944220  0.8610121756158066  0.4828604661978836
  0.6113242788909532  0.8752677899662016  0.5171176306745305
  0.6361046183394702  0.8323891144843393  0.5171419566941998
  0.6558174993434512  0.8437172871922098  0.5555618324121008
  0.6755385415238441  0.8323854905782843  0.5171478823394995
  0.6113102525267353  0.8466023500604960  0.5576075665333362
  0.6558186857025310  0.8209239631361018  0.5877510632559115
  0.5865054853605762  0.7580917573788835  0.6282180018809606
  0.5470731430309920  0.7580957040692314  0.6282107942548749
  0.5865117362792288  0.7809252814598228  0.5898266501810381
  0.5667906940988360  0.7922570780737483  0.6282406002536391
  0.5470778130948549  0.7809289053658776  0.5898207245357382
  0.5668016363328888  0.8721867056835727  0.6302863343748750
  0.5420088434559611  0.8351363221204222  0.6282180018809606
  0.5667918804579153  0.7694637540176406  0.6604298310974501
  0.5915840278563941  0.8065132609889545  0.6624994923772766
  0.5915793577925299  0.7836800596923085  0.7008895620964134
  0.5419968691667302  0.7836761130019603  0.7008967697224989
  0.5222854993571074  0.7723473717292789  0.6624751663576077
  0.5222820779049895  0.8178414336968253  0.7009193680951779
  0.5667896620436580  0.8207264965651110  0.7029651022164134
  0.5470827158879152  0.8607246244338471  0.7008895620964134
  0.5865213091361515  0.8835542018244382  0.6625054180225762
  0.5668036884078762  0.8493919364708172  0.6624751663576077
  0.5470873859517781  0.8835578257304930  0.6624994923772766
  0.5865150582174994  0.8607206777434991  0.7008967697224989
  0.6360926440502397  0.7809289053658776  0.5898207245357382
  0.6755203163159605  0.7580917573788835  0.6282180018809606
  0.6360879739863767  0.7580957040692314  0.6282107942548749
  0.6755265672346131  0.7809252814598228  0.5898266501810381
  0.6558055250542203  0.7922570780737483  0.6282406002536391
  0.6112982782375040  0.7951421409420341  0.6302863343748750
  0.6113123046017223  0.8238075808477404  0.5897963985160694
  0.6310236744113459  0.8351363221204222  0.6282180018809606
  0.6310299253299980  0.8579698462013614  0.5898266501810381
  0.6113088831496052  0.8693016428152868  0.6282406002536391
  0.6558164672882733  0.8721867056835727  0.6302863343748750
  0.5915913320817612  0.8351402688107702  0.6282107942548749
  0.5915960021456241  0.8579734701074162  0.5898207245357382
  0.6310179510407671  0.8065096370828997  0.6625054180225762
  0.6310117001221146  0.7836761130019603  0.7008967697224989
  0.6558067114132996  0.7694637540176406  0.6604298310974501
  0.6113003303124918  0.7723473717292789  0.6624751663576077
  0.6112969088603742  0.8178414336968253  0.7009193680951779
  0.6558044929990428  0.8207264965651110  0.7029651022164134
  0.6113100695086849  0.8465083187591789  0.6604298310974501
  0.6558185193632605  0.8493919364708172  0.6624751663576077
  0.6360975468432996  0.8607246244338471  0.7008895620964134
  0.6755298891728838  0.8607206777434991  0.7008967697224989
  0.6755361400915364  0.8835542018244382  0.6625054180225762
  0.6361022169071628  0.8835578257304930  0.6624994923772766
  0.7251122778702395  0.6785914828735701  0.2991056531695845
  0.6806013930448378  0.6301739259538469  0.2648169550471826
  0.7251076078063766  0.6557582815769241  0.3374957228887210
  0.7003201304717611  0.6415419759022558  0.2970359918897577
  0.7003189441126818  0.6643352999583637  0.2648467610459470
  0.6806060631087012  0.6530071272504931  0.2264268853280461
  0.7251242521594704  0.7300516919920317  0.2264268853280461
  0.7448383195225303  0.7185865406437942  0.2970359918897577
  0.7003321047609925  0.6930021850207173  0.2243572240482193
  0.7251195820956071  0.7072184906953853  0.2648169550471826
  0.7003319384217220  0.7214701583554326  0.2990813271499153
  0.7448371331634510  0.7413798646999025  0.2648467610459470
  0.7200552825205766  0.7842591087465759  0.2648241626732682
  0.6806229401909920  0.7842630554369239  0.2648169550471826
  0.7696377711463768  0.7842630554369239  0.2648169550471826
  0.7003439127109530  0.7729303674738939  0.2264025593083769
  0.7448502938117622  0.7700467497622560  0.2243572240482193
  0.7003298863467352  0.7442649275681880  0.2668924951671827
  0.7893565085733004  0.7956311053853328  0.2970359918897577
  0.7696304669210091  0.7556360476151086  0.2991056531695845
  0.7003416776179161  0.7956311053853328  0.2970359918897577
  0.6806156359656244  0.7556360476151086  0.2991056531695845
  0.7200495591499975  0.7556324237090536  0.2991115788148840
  0.7696257968571458  0.7328028463184625  0.3374957228887210
  0.6806109659017615  0.7328028463184625  0.3374957228887210
  0.7200375848607670  0.7041722145905921  0.3717903466564226
  0.7251003035810085  0.6271312737551087  0.3717844210111230
  0.7448251588742201  0.6899196555814405  0.3375255288874855
  0.7003179120575038  0.6928047184497266  0.3395712630087210
  0.7003199641324911  0.6700099492369711  0.3717600949914538
  0.7448263452333003  0.6671263315253327  0.3697147597312961
  0.7200313339421148  0.6813386905096530  0.4101816983563453
  0.6805989916125306  0.6813426372000012  0.4101744907302595
  0.7696138225679153  0.6813426372000012  0.4101744907302595
  0.7696184926317782  0.7041758384966469  0.3717844210111230
  0.6806036616763939  0.7041758384966469  0.3717844210111230
  0.7200433082313453  0.7327988996281144  0.3375029305148066
  0.7251171806632998  0.7583872019415393  0.4101744907302595
  0.7003297033286847  0.7441708962668712  0.3697147597312961
  0.7003285169696050  0.7669642203229792  0.3375255288874855
  0.7251218507271631  0.7812204032381855  0.3717844210111230
  0.7448361011082735  0.7698492831912649  0.3395712630087210
  0.7448381531832607  0.7470545139785095  0.3717600949914538
  0.7645495229928840  0.7583832552511915  0.4101816983563453
  0.7893445342840695  0.7441708962668712  0.3697147597312961
  0.7645557739115366  0.7812167793321307  0.3717903466564226
  0.7893433479249894  0.7669642203229792  0.3375255288874855
  0.8141320116186845  0.7583872019415393  0.4101744907302595
  0.8141366816825475  0.7812204032381855  0.3717844210111230
  0.6806276102548549  0.8070962567335701  0.2264268853280461
  0.7003404912588355  0.8184244294414407  0.2648467610459470
  0.7448501274724917  0.7985147230969708  0.2990813271499153
  0.7251338250163936  0.8326806123566469  0.2991056531695845
  0.7448467060203743  0.8440087850645175  0.3375255288874855
  0.7251291549525303  0.8098474110600008  0.3374957228887210
  0.7003394592036579  0.8468938479328035  0.3395712630087210
  0.7200528810882685  0.8354278199927297  0.4101816983563453
  0.7003415112786452  0.8240990787200483  0.3717600949914538
  0.7200591320069211  0.8582613440736691  0.3717903466564226
  0.6806252088225475  0.8582649679797238  0.3717844210111230
  0.7448478923794539  0.8212154610084097  0.3697147597312961
  0.6806205387586842  0.8354317666830777  0.4101744907302595
  0.7696353697140690  0.8354317666830777  0.4101744907302595
  0.7645614972821145  0.8098434643696528  0.3375029305148066
  0.7893563422340300  0.8240990787200483  0.3717600949914538
  0.6805916873871626  0.6527156293781854  0.4444631888526615
  0.7448131845849888  0.6384594464629790  0.4102042967290240
  0.7003059377682733  0.6413445093312649  0.4122500308502595
  0.7003079898432606  0.6185497401185094  0.4444388628329923
  0.7200256105715365  0.6527120054721307  0.4444691144979609
  0.6805870173233001  0.6298824280815394  0.4828532585717981
  0.7200193596528839  0.6298784813911913  0.4828604661978836
  0.7003045683911432  0.6640438020860560  0.4828830645705623
  0.7448121525298120  0.6669288649543421  0.4849287986917978
  0.7448142046047994  0.6441340957415865  0.5171176306745305
  0.7250979021487013  0.6782999850012623  0.5171419566941998
  0.7003057547502234  0.6412504780299479  0.5150722954143732
  0.7003165426803737  0.7155040112045175  0.4102042967290240
  0.7448241268190425  0.7183890740728034  0.4122500308502595
  0.7003295369894151  0.7726388696015863  0.4444388628329923
  0.7251098764379318  0.7297601941197238  0.4444631888526615
  0.7003177290394547  0.6927106871484097  0.4423935275728348
  0.6806085644694537  0.7839715575646162  0.4828532585717981
  0.7251052063740697  0.7069269928230778  0.4828532585717981
  0.7200409067990375  0.7839676108742685  0.4828604661978836
  0.7448227574419120  0.7410883668275944  0.4828830645705623
  0.6806012602440857  0.7553445497428009  0.5171419566941998
  0.7003175627001839  0.7211786604831250  0.5171176306745305
  0.7003155106251965  0.7439734296958803  0.4849287986917978
  0.7448239438009926  0.7182950427714867  0.5150722954143732
  0.7696065183425473  0.6527156293781854  0.4444631888526615
  0.8141247073933165  0.7297601941197238  0.4444631888526615
  0.7893313736357584  0.7155040112045175  0.4102042967290240
  0.7448261788940298  0.6955943048600478  0.4444388628329923
  0.7893325599948391  0.6927106871484097  0.4423935275728348
  0.7645437996223057  0.7297565702136690  0.4444691144979609
  0.7696018482786848  0.6298824280815394  0.4828532585717981
  0.8141200373294536  0.7069269928230778  0.4828532585717981
  0.7893193993465280  0.6640438020860560  0.4828830645705623
  0.7645375487036531  0.7069230461327298  0.4828604661978836
  0.7893323936555686  0.7211786604831250  0.5171176306745305
  0.8338387747563778  0.7182950427714867  0.5150722954143732
  0.7893205857056081  0.6412504780299479  0.5150722954143732
  0.8141127331040856  0.6782999850012623  0.5171419566941998
  0.7448359180902239  0.7697552518899480  0.4423935275728348
  0.7448347317311433  0.7925485759460561  0.4102042967290240
  0.7893303415805812  0.7439734296958803  0.4849287986917978
  0.7696160911994705  0.7553445497428009  0.5171419566941998
  0.7696233954248380  0.7839715575646162  0.4828532585717981
  0.7893443679447995  0.7726388696015863  0.4444388628329923
  0.8090557377544223  0.7839676108742685  0.4828604661978836
  0.8338507490456083  0.7697552518899480  0.4423935275728348
  0.8586382263802228  0.7839715575646162  0.4828532585717981
  0.8338375883972972  0.7410883668275944  0.4828830645705623
  0.8338495626865281  0.7925485759460561  0.4102042967290240
  0.8586309221548553  0.7553445497428009  0.5171419566941998
  0.7003392761856080  0.8467998166314866  0.4423935275728348
  0.7003274849144274  0.7954336388143420  0.4122500308502595
  0.7003380898265278  0.8695931406875949  0.4102042967290240
  0.6806132345333167  0.8068047588612623  0.4444631888526615
  0.7200471577176901  0.8068011349552073  0.4444691144979609
  0.7251267535202234  0.8610161223061548  0.4828532585717981
  0.7003261155372973  0.8181329315691329  0.4828830645705623
  0.7251194492948549  0.8323891144843393  0.5171419566941998
  0.7003391098463380  0.8752677899662016  0.5171176306745305
  0.7003273018963775  0.7953396075130249  0.5150722954143732
  0.7696280654887010  0.8068047588612623  0.4444631888526615
  0.7893423158698122  0.7954336388143420  0.4122500308502595
  0.7448456739651966  0.8724782035558803  0.4122500308502595
  0.7251314235840859  0.8838493236028010  0.4444631888526615
  0.7448477260401843  0.8496834343431248  0.4444388628329923
  0.7645590958498067  0.8610121756158066  0.4828604661978836
  0.7448336996759657  0.8210179944374191  0.4849287986917978
  0.7893409464926816  0.8181329315691329  0.4828830645705623
  0.7448357517509526  0.7982232252246633  0.5171176306745305
  0.7893421328517618  0.7953396075130249  0.5150722954143732
  0.7448454909471467  0.8723841722545634  0.5150722954143732
  0.7893541071409932  0.8467998166314866  0.4423935275728348
  0.8090619886730749  0.8068011349552073  0.4444691144979609
  0.8141342802502397  0.8323891144843393  0.5171419566941998
  0.8338505827063378  0.7982232252246633  0.5171176306745305
  0.7448107831526819  0.6896281577091331  0.5555618324121008
  0.7645318253330747  0.6782963610952077  0.5171478823394995
  0.7250932320848379  0.6554667837046166  0.5555320264133365
  0.7645255744144217  0.6554628370142682  0.5555392340394220
  0.7448119695117617  0.6668348336530249  0.5877510632559115
  0.7645198510438442  0.6268361519767458  0.5898266501810381
  0.7893204193663377  0.6697184513646635  0.5897963985160694
  0.7250859278594703  0.6268397758828009  0.5898207245357382
  0.7447988088634510  0.6381679485906714  0.6282406002536391
  0.6805846158909923  0.6810511393276932  0.6282107942548749
  0.7200169582205761  0.6810471926373450  0.6282180018809606
  0.7695994468463767  0.6810511393276932  0.6282107942548749
  0.7003055884109529  0.6697184513646635  0.5897963985160694
  0.6805965901802228  0.7325113484461547  0.5555320264133365
  0.6805892859548548  0.7038843406243390  0.5898207245357382
  0.7003021669588354  0.7152125133322100  0.6282406002536391
  0.7003035363359660  0.6925132205774190  0.5576075665333362
  0.7200232091392287  0.7038807167182847  0.5898266501810381
  0.7003153276071465  0.7438793983945636  0.5877510632559115
  0.7200289325098070  0.7325074017558068  0.5555392340394220
  0.7696041169102396  0.7038843406243390  0.5898207245357382
  0.7696114211356068  0.7325113484461547  0.5555320264133365
  0.7893169979142202  0.7152125133322100  0.6282406002536391
  0.7893183672913503  0.6925132205774190  0.5576075665333362
  0.7893301585625309  0.7438793983945636  0.5877510632559115
  0.7200112348499977  0.6524205075998227  0.6625054180225762
  0.7002915620467347  0.6410530114589573  0.6302863343748750
  0.6805726416017615  0.6295909302092315  0.7008895620964134
  0.7002901926696053  0.6637523042137483  0.7009193680951779
  0.7200049839313453  0.6295869835188835  0.7008967697224989
  0.6805773116656243  0.6524241315058777  0.6624994923772766
  0.7447977768082734  0.6666373670820342  0.7029651022164134
  0.7695874725571458  0.6295909302092315  0.7008895620964134
  0.7893050236249893  0.6637523042137483  0.7009193680951779
  0.7695921426210086  0.6524241315058777  0.6624994923772766
  0.7893084450771067  0.6182582422462017  0.6624751663576077
  0.7893063930021199  0.6410530114589573  0.6302863343748750
  0.7250955007163935  0.7294686962474158  0.6624994923772766
  0.7250908306525307  0.7066354949507697  0.7008895620964134
  0.7003033533179156  0.6924191892761019  0.6604298310974501
  0.7003011349036583  0.7436819318235726  0.7029651022164134
  0.7448083817203746  0.7407968689552871  0.7009193680951779
  0.7448097510975044  0.7180975762004960  0.6302863343748750
  0.7448118031724916  0.6953028069877403  0.6624751663576077
  0.7893181842733004  0.6924191892761019  0.6604298310974501
  0.7645231729821145  0.7066315482604222  0.7008967697224989
  0.7645294239007671  0.7294650723413616  0.6625054180225762
  0.7893159658590426  0.7436819318235726  0.7029651022164134
  0.7251147792309920  0.8095559131876933  0.5555320264133365
  0.7200351834284596  0.7553409258367459  0.5171478823394995
  0.7448217253867347  0.7695577853189572  0.5576075665333362
  0.7003141412480663  0.7666727224506712  0.5555618324121008
  0.7645471215605762  0.8095519664973453  0.5555392340394220
  0.7893289722034511  0.7666727224506712  0.5555618324121008
  0.7448237774617221  0.7467630161062020  0.5897963985160694
  0.7448335166579158  0.8209239631361018  0.5877510632559115
  0.7645413981899979  0.7809252814598228  0.5898266501810381
  0.7251074750056244  0.7809289053658776  0.5898207245357382
  0.7645351472713453  0.7580917573788835  0.6282180018809606
  0.7251028049417612  0.7580957040692314  0.6282107942548749
  0.7003250834821196  0.8466023500604960  0.5576075665333362
  0.7893399144375045  0.8466023500604960  0.5576075665333362
  0.7645533724792288  0.8323854905782843  0.5171478823394995
  0.7448323302988360  0.8437172871922098  0.5555618324121008
  0.7003271355571066  0.8238075808477404  0.5897963985160694
  0.7893419665124913  0.8238075808477404  0.5897963985160694
  0.7696256640563937  0.8579734701074162  0.5898207245357382
  0.6806108331010089  0.8579734701074162  0.5898207245357382
  0.7200447562853823  0.8579698462013614  0.5898266501810381
  0.7200385053667302  0.8351363221204222  0.6282180018809606
  0.6806061630371461  0.8351402688107702  0.6282107942548749
  0.7696209939925308  0.8351402688107702  0.6282107942548749
  0.6805941887479147  0.7836800596923085  0.7008895620964134
  0.7003117398157587  0.8178414336968253  0.7009193680951779
  0.6805988588117784  0.8065132609889545  0.6624994923772766
  0.7200327819961519  0.8065096370828997  0.6625054180225762
  0.7003151612678765  0.7723473717292789  0.6624751663576077
  0.7003131091928888  0.7951421409420341  0.6302863343748750
  0.7200265310774989  0.7836761130019603  0.7008967697224989
  0.7448203560096046  0.7922570780737483  0.6282406002536391
  0.7448215423686848  0.7694637540176406  0.6604298310974501
  0.7696136897671632  0.8065132609889545  0.6624994923772766
  0.7696090197032999  0.7836800596923085  0.7008895620964134
  0.7893279401482736  0.7951421409420341  0.6302863343748750
  0.7893299922232613  0.7723473717292789  0.6624751663576077
  0.7003237141049895  0.8693016428152868  0.6282406002536391
  0.7003249004640693  0.8465083187591789  0.6604298310974501
  0.7448333503186453  0.8493919364708172  0.6624751663576077
  0.7448193239544275  0.8207264965651110  0.7029651022164134
  0.8090437634651914  0.7325074017558068  0.5555392340394220
  0.8141080630402227  0.6554667837046166  0.5555320264133365
  0.8090317891759604  0.6810471926373450  0.6282180018809606
  0.8090380400946134  0.7038807167182847  0.5898266501810381
  0.8338268004671464  0.6668348336530249  0.5877510632559115
  0.8338256141080662  0.6896281577091331  0.5555618324121008
  0.8141007588148551  0.6268397758828009  0.5898207245357382
  0.8338136398188353  0.6381679485906714  0.6282406002536391
  0.8783318288696046  0.7152125133322100  0.6282406002536391
  0.8338245820528891  0.7180975762004960  0.6302863343748750
  0.8586189478656243  0.7038843406243390  0.5898207245357382
  0.8586142778017615  0.6810511393276932  0.6282107942548749
  0.8586262520909920  0.7325113484461547  0.5555320264133365
  0.8783449895179156  0.7438793983945636  0.5877510632559115
  0.8090500143838439  0.7553409258367459  0.5171478823394995
  0.8338386084171069  0.7467630161062020  0.5897963985160694
  0.8535499782267297  0.7580917573788835  0.6282180018809606
  0.8141223059610092  0.7809289053658776  0.5898207245357382
  0.8535562291453827  0.7809252814598228  0.5898266501810381
  0.8338365563421192  0.7695577853189572  0.5576075665333362
  0.8141176358971459  0.7580957040692314  0.6282107942548749
  0.8090260658053826  0.6524205075998227  0.6625054180225762
  0.8090198148867300  0.6295869835188835  0.7008967697224989
  0.8338126077636582  0.6666373670820342  0.7029651022164134
  0.8141056616079150  0.7066354949507697  0.7008895620964134
  0.8535380039374992  0.7066315482604222  0.7008967697224989
  0.8338266341278764  0.6953028069877403  0.6624751663576077
  0.8586069735763934  0.6524241315058777  0.6624994923772766
  0.8783198545803741  0.6637523042137483  0.7009193680951779
  0.8783330152286847  0.6924191892761019  0.6604298310974501
  0.8586023035125301  0.6295909302092315  0.7008895620964134
  0.8338232126757585  0.7407968689552871  0.7009193680951779
  0.8338363733240691  0.7694637540176406  0.6604298310974501
  0.8535442548561518  0.7294650723413616  0.6625054180225762
  0.8141103316717783  0.7294686962474158  0.6624994923772766
  0.8141296101863768  0.8095559131876933  0.5555320264133365
  0.3245731892263770  0.8868919758015393  0.3374957228887210
  0.3640055315559607  0.8868880291111914  0.3375029305148066
  0.3442919266533007  0.8982600257499479  0.3697147597312961
  0.3194969153621152  0.9124723847342683  0.4101816983563453
  0.3442917603140302  0.9267279990846633  0.4444388628329923
  0.3690794039879152  0.9124763314246163  0.4101744907302595
  0.4778141874434513  0.8954689941829790  0.2648467610459470
  0.4530266134299977  0.9097215531921305  0.2991115788148840
  0.5026075212010089  0.9097251770981853  0.2991056531695845
  0.5420414443853824  0.9097215531921305  0.2991115788148840
  0.4778152074632606  0.9011436434615865  0.3717600949914538
  0.4135880201817613  0.8868919758015393  0.3374957228887210
  0.3888003765078762  0.9011436434615865  0.3717600949914538
  0.4530203625113451  0.8868880291111914  0.3375029305148066
  0.4333067576086850  0.8982600257499479  0.3697147597312961
  0.4333055712496048  0.9210533498060559  0.3375255288874855
  0.4778131553882737  0.9239384126743418  0.3395712630087210
  0.4085117463174995  0.9124723847342683  0.4101816983563453
  0.3887981414148389  0.9238443813730252  0.4423935275728348
  0.4333065912694145  0.9267279990846633  0.4444388628329923
  0.4778117860111435  0.9466377054291332  0.4102042967290240
  0.4580942349433000  0.9124763314246163  0.4101744907302595
  0.4778129723702233  0.9238443813730252  0.4423935275728348
  0.4580989050071629  0.9353095327212623  0.3717844210111230
  0.5223215885640693  0.8982600257499479  0.3697147597312961
  0.5026028511371461  0.8868919758015393  0.3374957228887210
  0.5420351934667298  0.8868880291111914  0.3375029305148066
  0.5916176820925308  0.8868919758015393  0.3374957228887210
  0.5223204022049895  0.9210533498060559  0.3375255288874855
  0.5668279863436585  0.9239384126743418  0.3395712630087210
  0.5471090658986844  0.9124763314246163  0.4101744907302595
  0.5223193701498120  0.9495227682974188  0.4122500308502595
  0.5223214222247993  0.9267279990846633  0.4444388628329923
  0.4975328281915364  0.9353059088152075  0.3717903466564226
  0.4975265772728842  0.9124723847342683  0.4101816983563453
  0.5471137359625476  0.9353095327212623  0.3717844210111230
  0.5668266169665279  0.9466377054291332  0.4102042967290240
  0.5865414082282691  0.9124723847342683  0.4101816983563453
  0.5668278033256080  0.9238443813730252  0.4423935275728348
  0.5668300384186453  0.9011436434615865  0.3717600949914538
  0.2997701498111435  0.8951774963106718  0.4828830645705623
  0.3442777339498124  0.8980625591789575  0.4849287986917978
  0.3640031301236530  0.9380567403573452  0.4828604661978836
  0.3639911558344221  0.8865965312388837  0.5555392340394220
  0.2749763248790377  0.8865965312388837  0.5555392340394220
  0.3245588135048383  0.8866004779292317  0.5555320264133365
  0.3245634835687012  0.9094336792258778  0.5171419566941998
  0.3639974067530751  0.9094300553198231  0.5171478823394995
  0.3442763645726818  0.9207618519337484  0.5555618324121008
  0.2997711698309533  0.9008521455892787  0.5897963985160694
  0.3442775509317620  0.8979685278776404  0.5877510632559115
  0.3690650282663765  0.9121848335523086  0.6282107942548749
  0.4135856187494544  0.9380606870476932  0.4828532585717981
  0.3887849807665283  0.8951774963106718  0.4828830645705623
  0.4332925649051967  0.8980625591789575  0.4849287986917978
  0.4333043561763772  0.9494287369961021  0.5150722954143732
  0.4777998117219126  0.8951774963106718  0.4828830645705623
  0.4530179610790377  0.9380567403573452  0.4828604661978836
  0.4778128060309533  0.9523123547077402  0.5171176306745305
  0.4332911955280666  0.9207618519337484  0.5555618324121008
  0.4135783145240859  0.9094336792258778  0.5171419566941998
  0.4135736444602230  0.8866004779292317  0.5555320264133365
  0.3887839487113507  0.9236469148020344  0.5576075665333362
  0.4530059867898069  0.8865965312388837  0.5555392340394220
  0.4530122377084594  0.9094300553198231  0.5171478823394995
  0.4777987796667350  0.9236469148020344  0.5576075665333362
  0.5026004497048387  0.9380606870476932  0.4828532585717981
  0.5223191871317621  0.9494287369961021  0.5150722954143732
  0.5223073958605811  0.8980625591789575  0.4849287986917978
  0.5420327920344221  0.9380567403573452  0.4828604661978836
  0.5668146426772970  0.8951774963106718  0.4828830645705623
  0.5668276369863376  0.9523123547077402  0.5171176306745305
  0.5916152806602231  0.9380606870476932  0.4828532585717981
  0.5025884754156074  0.8866004779292317  0.5555320264133365
  0.5916033063709921  0.8866004779292317  0.5555320264133365
  0.5420208177451916  0.8865965312388837  0.5555392340394220
  0.5916079764348551  0.9094336792258778  0.5171419566941998
  0.5025931454794703  0.9094336792258778  0.5171419566941998
  0.5420270686638442  0.9094300553198231  0.5171478823394995
  0.5668136106221198  0.9236469148020344  0.5576075665333362
  0.5223060264834509  0.9207618519337484  0.5555618324121008
  0.4084973705959608  0.9121808868619606  0.6282180018809606
  0.4085036215146138  0.9350144109428999  0.5898266501810381
  0.3887860007863376  0.9008521455892787  0.5897963985160694
  0.4332923818871467  0.8979685278776404  0.5877510632559115
  0.4580798592217614  0.9121848335523086  0.6282107942548749
  0.4580845292856247  0.9350180348489547  0.5898207245357382
  0.4778008317417223  0.9008521455892787  0.5897963985160694
  0.3887706050449896  0.8948859984383636  0.7009193680951779
  0.4332781891836585  0.8977710613066495  0.7029651022164134
  0.4332922155478767  0.9264365012123557  0.6624751663576077
  0.4777854360003744  0.8948859984383636  0.7009193680951779
  0.4777985966486851  0.9235528835007175  0.6604298310974501
  0.4975122015513451  0.9121808868619606  0.6282180018809606
  0.4975184524699986  0.9350144109428999  0.5898266501810381
  0.5223072128425311  0.8979685278776404  0.5877510632559115
  0.5470946901771461  0.9121848335523086  0.6282107942548749
  0.5668156626971071  0.9008521455892787  0.5897963985160694
  0.5865270325067299  0.9121808868619606  0.6282180018809606
  0.5865332834253829  0.9350144109428999  0.5898266501810381
  0.5470993602410090  0.9350180348489547  0.5898207245357382
  0.5222930201390429  0.8977710613066495  0.7029651022164134
  0.5223070465032611  0.9264365012123557  0.6624751663576077
  0.5668002669557587  0.8948859984383636  0.7009193680951779
  0.5668134276040694  0.9235528835007175  0.6604298310974501
  0.6806325130479152  0.8868919758015393  0.3374957228887210
  0.6310500244221147  0.8868880291111914  0.3375029305148066
  0.6113364195194541  0.8982600257499479  0.3697147597312961
  0.6113362531801836  0.9267279990846633  0.4444388628329923
  0.6361238968540691  0.9124763314246163  0.4101744907302595
  0.6558426342809924  0.9238443813730252  0.4423935275728348
  0.6558448693740301  0.9011436434615865  0.3717600949914538
  0.6755562391836534  0.9124723847342683  0.4101816983563453
  0.7003370577713506  0.8980625591789575  0.4849287986917978
  0.6310476229898069  0.9380567403573452  0.4828604661978836
  0.6558294736326817  0.8951774963106718  0.4828830645705623
  0.6113222268159658  0.8980625591789575  0.4849287986917978
  0.6310356487005759  0.8865965312388837  0.5555392340394220
  0.6113208574388357  0.9207618519337484  0.5555618324121008
  0.6558284415775041  0.9236469148020344  0.5576075665333362
  0.6310418996192290  0.9094300553198231  0.5171478823394995
  0.6806228073902394  0.9094336792258778  0.5171419566941998
  0.6806181373263769  0.8866004779292317  0.5555320264133365
  0.7200504796559607  0.8865965312388837  0.5555392340394220
  0.6361095211325301  0.9121848335523086  0.6282107942548749
  0.7003368747533002  0.8979685278776404  0.5877510632559115
  0.6113220437979159  0.8979685278776404  0.5877510632559115
  0.6558304936524915  0.9008521455892787  0.5897963985160694
  0.6113078510944272  0.8977710613066495  0.7029651022164134
  0.1216676429821199  0.3075818947420342  0.3395712630087210
  0.1019533926010089  0.3189530147889548  0.3717844210111230
  0.1216696950571070  0.2847871255292789  0.3717600949914538
  0.1413873157853826  0.3189493908828999  0.3717903466564226
  0.1019487225371460  0.2961198134923086  0.4101744907302595
  0.1413810648667303  0.2961158668019605  0.4101816983563453
  0.1413753414961515  0.2674891817644382  0.4444691144979609
  0.1413690905774991  0.2446556576834991  0.4828604661978836
  0.1216556686928892  0.2561216856235726  0.4122500308502595
  0.1216542993157589  0.2788209783783638  0.4828830645705623
  0.1216674599640697  0.3074878634407174  0.4423935275728348
  0.1216662736049891  0.3302811874968253  0.4102042967290240
  0.0968724486728838  0.3217002224250374  0.4828604661978836
  0.1413633672069206  0.2160289726459767  0.5171478823394995
  0.1216554856748388  0.2560276543222560  0.5150722954143732
  0.0771588437702235  0.3330722190637943  0.5150722954143732
  0.0968667253023055  0.2930735373875153  0.5171478823394995
  0.1216532672605813  0.3072903968697266  0.5576075665333362
  0.1216553193355688  0.2844956276569710  0.5897963985160694
  0.1413729400638442  0.3186578930105922  0.5898266501810381
  0.1019390168794705  0.3186615169166470  0.5898207245357382
  0.1216518978834511  0.3299896896245177  0.6282406002536391
  0.1413666891451916  0.2958243689296529  0.6282180018809606
  0.1413609657746133  0.2671976838921306  0.6625054180225762
  0.1216530842425309  0.3071963655684098  0.6604298310974501
  0.3441722166333009  0.0763541692161021  0.4423935275728348
  0.3689523897425475  0.0619434670689547  0.5171419566941998
  0.4083863129269206  0.0619398431628998  0.5171478823394995
  0.4331738869403742  0.0476872841537484  0.4828830645705623
  0.3638776967330750  0.0875241987859768  0.5898266501810381
  0.3441580239298118  0.0761567026451112  0.5576075665333362
  0.3244437735487010  0.0875278226920316  0.5898207245357382
  0.4134586045040858  0.0875278226920316  0.5898207245357382
  0.4776801017019129  0.0732716397768254  0.5555618324121008
  0.4528925276884597  0.0875241987859768  0.5898266501810381
  0.4776812880609926  0.0504783157207173  0.5877510632559115
  0.4331749069601835  0.0533619334323556  0.5897963985160694
  0.4331728548851966  0.0761567026451112  0.5576075665333362
  0.3886652707465282  0.0732716397768254  0.5555618324121008
  0.4528862767698071  0.0646906747050375  0.6282180018809606
  0.5024687653956073  0.0646946213953852  0.6282107942548749
  0.4331726718671466  0.0760626713437941  0.6604298310974501
  0.4579601492017612  0.0902789770184624  0.7008895620964134
  0.4973924915313459  0.0902750303281144  0.7008967697224989
  0.4776811217217222  0.0789462890554325  0.6624751663576077
  0.5469749801571460  0.0902789770184624  0.7008895620964134
  0.5221875028225310  0.0760626713437941  0.6604298310974501
  0.2551681736080665  0.1506077023906715  0.3375255288874855
  0.2106595574142205  0.1761920580137483  0.4102042967290240
  0.2303743486759607  0.1420267373188836  0.4101816983563453
  0.2303805995946133  0.1648602613998228  0.3717903466564226
  0.2551671415528889  0.1790771208820342  0.4122500308502595
  0.1858657324821147  0.1676110929419606  0.4828604661978836
  0.1858719834007673  0.1904446170228998  0.4444691144979609
  0.2551551672636588  0.1276169117635727  0.4849287986917978
  0.2106607437733006  0.1533987339576404  0.4423935275728348
  0.2354528911717781  0.1904482409289548  0.4444631888526615
  0.2551669585348390  0.1789830895807174  0.5150722954143732
  0.2551691936278762  0.1562823516692787  0.4444388628329923
  0.2354482211079152  0.1676150396323086  0.4828532585717981
  0.2106605774340302  0.1818667072923558  0.5171176306745305
  0.1661642848867350  0.2305373300004957  0.3395712630087210
  0.2303863229651916  0.1934869464373453  0.3375029305148066
  0.2106715317034509  0.2276522671322101  0.3375255288874855
  0.2106727180625311  0.2048589430761020  0.3697147597312961
  0.1464500345056245  0.2419084500474163  0.3717844210111230
  0.1464453644417614  0.2190752487507702  0.4101744907302595
  0.1858839576899977  0.2419048261413614  0.3717903466564226
  0.1858777067713456  0.2190713020604221  0.4101816983563453
  0.2354601953971461  0.2190752487507702  0.4101744907302595
  0.1464573387309923  0.2705354578692318  0.3374957228887210
  0.1858896810605761  0.2705315111788836  0.3375029305148066
  0.1661748897988358  0.3046968318737482  0.3375255288874855
  0.1661760761579155  0.2819035078176405  0.3697147597312961
  0.1661629155096049  0.2532366227552870  0.4102042967290240
  0.2303958958221148  0.2961158668019605  0.4101816983563453
  0.2106811045603741  0.3302811874968253  0.4102042967290240
  0.1661738577436587  0.3331662503651112  0.4122500308502595
  0.1661509412203740  0.2017764136368255  0.4828830645705623
  0.1661639355294146  0.2589112720338940  0.5171176306745305
  0.1909515792032997  0.2446596043738470  0.4828532585717981
  0.1661641018686851  0.2304432986991790  0.4423935275728348
  0.2106585253590429  0.2046614765051112  0.4849287986917978
  0.2106725517232607  0.2333269164108171  0.4444388628329923
  0.2303839215328839  0.2446556576834991  0.4828604661978836
  0.2551657721757588  0.2017764136368255  0.4828830645705623
  0.2106703166302234  0.2560276543222560  0.5150722954143732
  0.1464549372986846  0.3217041691153855  0.4828532585717981
  0.1661736747256078  0.3330722190637943  0.5150722954143732
  0.1661618834544273  0.2817060412466496  0.4849287986917978
  0.1661759098186456  0.3103714811523556  0.4444388628329923
  0.1858872796282683  0.3217002224250374  0.4828604661978836
  0.2106691302711432  0.2788209783783638  0.4828830645705623
  0.2106822909194543  0.3074878634407174  0.4423935275728348
  0.2354697682540689  0.3217041691153855  0.4828532585717981
  0.2354409168825472  0.1389880318104932  0.5171419566941998
  0.2551549842456080  0.1275228804622558  0.5877510632559115
  0.1661519612401841  0.2074510629154326  0.5897963985160694
  0.2106465510698119  0.1532012673866496  0.5576075665333362
  0.1909442749779321  0.2160325965520317  0.5171419566941998
  0.1909396049140692  0.1931993952553855  0.5555320264133365
  0.2106583423409929  0.2045674452037945  0.5877510632559115
  0.2303719472436530  0.1931954485650375  0.5555392340394220
  0.2303781981623056  0.2160289726459767  0.5171478823394995
  0.2551667921955685  0.2074510629154326  0.5897963985160694
  0.2551537978865278  0.1503162045183638  0.5555618324121008
  0.2551548179063380  0.1559908537969711  0.6624751663576077
  0.1858633310498070  0.2187798041881144  0.6282180018809606
  0.2106441496375042  0.2043699786328034  0.7029651022164134
  0.2551527658313502  0.1787856230097265  0.6302863343748750
  0.2551513964542205  0.2014849157645175  0.7009193680951779
  0.2354385154502399  0.1901567430566471  0.6624994923772766
  0.1858695819684600  0.2416133282690537  0.5898266501810381
  0.1464429630094536  0.2702439599969241  0.5555320264133365
  0.1661617004363773  0.2816120099453329  0.5877510632559115
  0.1464356587840858  0.2416169521751085  0.5898207245357382
  0.1661499091651968  0.2302458321281881  0.5576075665333362
  0.1858753053390379  0.2702400133065759  0.5555392340394220
  0.2106571559819127  0.2273607692599023  0.5555618324121008
  0.2354458196756075  0.2187837508784624  0.6282107942548749
  0.2354504897394704  0.2416169521751085  0.5898207245357382
  0.2551647401205812  0.2302458321281881  0.5576075665333362
  0.2354577939648384  0.2702439599969241  0.5555320264133365
  0.2551765313917621  0.2816120099453329  0.5877510632559115
  0.1909491777709919  0.2958283156200010  0.6282107942548749
  0.1661605140772972  0.3044053340014406  0.5555618324121008
  0.1858815562576905  0.2930735373875153  0.5171478823394995
  0.1464476330733167  0.2930771612935701  0.5171419566941998
  0.1909538478348553  0.3186615169166470  0.5898207245357382
  0.2106680982159660  0.3072903968697266  0.5576075665333362
  0.2106701502909529  0.2844956276569710  0.5897963985160694
  0.2303815201005762  0.2958243689296529  0.6282180018809606
  0.2303877710192287  0.3186578930105922  0.5898266501810381
  0.2551753450326820  0.3044053340014406  0.5555618324121008
  0.1661497261471464  0.2301518008268712  0.6604298310974501
  0.2106547545496050  0.2785294805060559  0.7009193680951779
  0.1661485397880662  0.2529451248829792  0.6282406002536391
  0.1909372034817614  0.2443681065015393  0.7008895620964134
  0.1909418735456243  0.2672013077981855  0.6624994923772766
  0.1661475077328891  0.2814145433743419  0.7029651022164134
  0.1464405615771457  0.3214126712430780  0.7008895620964134
  0.1858729039067301  0.3214087245527300  0.7008967697224989
  0.1661594820221196  0.3328747524928035  0.6302863343748750
  0.1661615340971073  0.3100799832800478  0.6624751663576077
  0.2106561239267351  0.2558301877512651  0.6302863343748750
  0.2551633707434510  0.2529451248829792  0.6282406002536391
  0.2303695458113452  0.2443641598111913  0.7008967697224989
  0.2106581760017224  0.2330354185385095  0.6624751663576077
  0.2551645571025312  0.2301518008268712  0.6604298310974501
  0.2303757967299978  0.2671976838921306  0.6625054180225762
  0.2551623386882734  0.2814145433743419  0.7029651022164134
  0.2551763650524916  0.3100799832800478  0.6624751663576077
  0.2106679151979161  0.3071963655684098  0.6604298310974501
  0.2106667288388355  0.3299896896245177  0.6282406002536391
  0.2551743129775044  0.3328747524928035  0.6302863343748750
  0.2354553925325307  0.3214126712430780  0.7008895620964134
  0.2996755747286849  0.1533987339576404  0.4423935275728348
  0.2799568373017612  0.1420306840092317  0.4101744907302595
  0.3441710302742204  0.0991474932722099  0.4102042967290240
  0.3193891796313455  0.1420267373188836  0.4101816983563453
  0.2996637834575044  0.1020325561404957  0.4122500308502595
  0.2799495330763936  0.1134036761874162  0.4444631888526615
  0.3193834562607671  0.1134000522813614  0.4444691144979609
  0.3193772053421146  0.0905665282004221  0.4828604661978836
  0.2996636004394545  0.1019385248391790  0.5150722954143732
  0.2996624140803739  0.1247318488952869  0.4828830645705623
  0.2748748400669211  0.1389844079044383  0.5171478823394995
  0.3244557478379320  0.1389880318104932  0.5171419566941998
  0.3441699982190428  0.1276169117635727  0.4849287986917978
  0.3441720502940301  0.1048221425508173  0.5171176306745305
  0.3886772450357586  0.1247318488952869  0.4828830645705623
  0.3886784313948388  0.1019385248391790  0.5150722954143732
  0.4083920362974993  0.0905665282004221  0.4828604661978836
  0.3638896710223055  0.1389844079044383  0.5171478823394995
  0.3689596939679159  0.0905704748907701  0.4828532585717981
  0.2748925377267299  0.2190713020604221  0.4101816983563453
  0.3638953943928838  0.1676110929419606  0.4828604661978836
  0.2996743883696052  0.1761920580137483  0.4102042967290240
  0.2996754083894149  0.1818667072923558  0.5171176306745305
  0.3441817894902237  0.1789830895807174  0.5150722954143732
  0.2748868143561516  0.1904446170228998  0.4444691144979609
  0.3244630520633000  0.1676150396323086  0.4828532585717981
  0.3193930291176904  0.2160289726459767  0.5171478823394995
  0.2996733563144281  0.2046614765051112  0.4849287986917978
  0.3441806031311431  0.2017764136368255  0.4828830645705623
  0.2799591059333164  0.2160325965520317  0.5171419566941998
  0.2748805634374990  0.1676110929419606  0.4828604661978836
  0.2551789328240698  0.2304432986991790  0.4423935275728348
  0.2551777464649897  0.2532366227552870  0.4102042967290240
  0.2799664101586845  0.2446596043738470  0.4828532585717981
  0.3193987524882682  0.2446556576834991  0.4828604661978836
  0.2996839612265280  0.2788209783783638  0.4828830645705623
  0.2996851475856082  0.2560276543222560  0.5150722954143732
  0.2551787664847994  0.2589112720338940  0.5171176306745305
  0.2551885056809926  0.3330722190637943  0.5150722954143732
  0.3244510777740691  0.1161548305138470  0.5555320264133365
  0.3441698152009928  0.1275228804622558  0.5877510632559115
  0.3638834201036529  0.1161508838234990  0.5555392340394220
  0.2748685891482686  0.1161508838234990  0.5555392340394220
  0.2996634341001840  0.1304064981738941  0.5897963985160694
  0.3441686288419126  0.1503162045183638  0.5555618324121008
  0.2996613820251967  0.1532012673866496  0.5576075665333362
  0.2799471316440859  0.1645723874335700  0.5898207245357382
  0.3193810548284594  0.1645687635275152  0.5898266501810381
  0.3193867781990378  0.1931954485650375  0.5555392340394220
  0.2799544358694540  0.1931993952553855  0.5555320264133365
  0.3689619625994707  0.1645723874335700  0.5898207245357382
  0.4083958857838442  0.1645687635275152  0.5898266501810381
  0.3886782650555684  0.1304064981738941  0.5897963985160694
  0.3886762129805810  0.1532012673866496  0.5576075665333362
  0.4331846461563771  0.1275228804622558  0.5877510632559115
  0.4331834597972974  0.1503162045183638  0.5555618324121008
  0.4134659087294534  0.1161548305138470  0.5555320264133365
  0.4528982510590376  0.1161508838234990  0.5555392340394220
  0.2996731732963777  0.2045674452037945  0.5877510632559115
  0.2996719869372971  0.2273607692599023  0.5555618324121008
  0.2748844129238447  0.2416133282690537  0.5898266501810381
  0.2748901362944222  0.2702400133065759  0.5555392340394220
  0.2996849812463377  0.2844956276569710  0.5897963985160694
  0.2799686787902396  0.3186615169166470  0.5898207245357382
  0.2996829291713504  0.3072903968697266  0.5576075665333362
  0.3194026019746135  0.3186578930105922  0.5898266501810381
  0.3244726249202232  0.2702439599969241  0.5555320264133365
  0.3244653206948551  0.2416169521751085  0.5898207245357382
  0.3441901759880663  0.3044053340014406  0.5555618324121008
  0.3441913623471464  0.2816120099453329  0.5877510632559115
  0.3639049672498070  0.2702400133065759  0.5555392340394220
  0.3886868178926818  0.2273607692599023  0.5555618324121008
  0.3886880042517620  0.2045674452037945  0.5877510632559115
  0.2799424615802230  0.1417391861369240  0.6282107942548749
  0.2996611990071463  0.1531072360853328  0.6604298310974501
  0.3193690805392289  0.1131085544090536  0.6625054180225762
  0.3193748039098068  0.1417352394465760  0.6282180018809606
  0.3689499883102398  0.1131121783151085  0.6624994923772766
  0.3441556224975045  0.1273254138912650  0.7029651022164134
  0.3886628693142204  0.1244403510229792  0.7009193680951779
  0.3441566545526821  0.0988559953999023  0.6282406002536391
  0.3689572925356074  0.1417391861369240  0.6282107942548749
  0.2748781620051917  0.2187798041881144  0.6282180018809606
  0.2748661877159608  0.1673195950696529  0.7008967697224989
  0.2996589805928890  0.2043699786328034  0.7029651022164134
  0.2748724386346134  0.1901531191505921  0.6625054180225762
  0.2996600126480666  0.1759005601414408  0.6282406002536391
  0.3244486763417613  0.1673235417600009  0.7008895620964134
  0.3244533464056242  0.1901567430566471  0.6624994923772766
  0.3441675967867350  0.1787856230097265  0.6302863343748750
  0.3441662274096048  0.2014849157645175  0.7009193680951779
  0.3441696488617223  0.1559908537969711  0.6624751663576077
  0.3638810186713451  0.1673195950696529  0.7008967697224989
  0.3638872695899981  0.1901531191505921  0.6625054180225762
  0.2996730069571067  0.2330354185385095  0.6624751663576077
  0.2799567045010091  0.2672013077981855  0.6624994923772766
  0.2799520344371462  0.2443681065015393  0.7008895620964134
  0.2996709548821199  0.2558301877512651  0.6302863343748750
  0.3193906276853826  0.2671976838921306  0.6625054180225762
  0.3193843767667300  0.2443641598111913  0.7008967697224989
  0.3244606506309922  0.2187837508784624  0.6282107942548749
  0.3441782016988358  0.2529451248829792  0.6282406002536391
  0.3441793880579155  0.2301518008268712  0.6604298310974501
  0.3638929929605760  0.2187798041881144  0.6282180018809606
  0.3689668653925305  0.2443681065015393  0.7008895620964134
  0.3689715354563934  0.2672013077981855  0.6624994923772766
  0.2996695855049897  0.2785294805060559  0.7009193680951779
  0.2748877348621149  0.3214087245527300  0.7008967697224989
  0.2799640087263767  0.2958283156200010  0.6282107942548749
  0.2996827461533004  0.3071963655684098  0.6604298310974501
  0.2996815597942207  0.3299896896245177  0.6282406002536391
  0.3193963510559609  0.2958243689296529  0.6282180018809606
  0.3441891439328887  0.3328747524928035  0.6302863343748750
  0.3441911960078760  0.3100799832800478  0.6624751663576077
  0.3689788396817615  0.2958283156200010  0.6282107942548749
  0.3886642386913506  0.1017410582681880  0.6302863343748750
  0.3886748436034509  0.1759005601414408  0.6282406002536391
  0.4331714855080660  0.0988559953999023  0.6282406002536391
  0.4331824277421193  0.1787856230097265  0.6302863343748750
  0.4083896348651916  0.1417352394465760  0.6282180018809606
  0.3886760299625311  0.1531072360853328  0.6604298310974501
  0.4083839114946133  0.1131085544090536  0.6625054180225762
  0.4331844798171075  0.1559908537969711  0.6624751663576077
  0.4579648192656245  0.1131121783151085  0.6624994923772766
  0.4528958496267299  0.1673195950696529  0.7008967697224989
  0.4331704534528888  0.1273254138912650  0.7029651022164134
  0.4134635072971461  0.1673235417600009  0.7008895620964134
  0.4776777002696048  0.1244403510229792  0.7009193680951779
  0.4579721234909921  0.1417391861369240  0.6282107942548749
  0.4776896745588357  0.1759005601414408  0.6282406002536391
  0.4776790696467353  0.1017410582681880  0.6302863343748750
  0.4974044658205760  0.1417352394465760  0.6282180018809606
  0.4776908609179158  0.1531072360853328  0.6604298310974501
  0.4973987424499980  0.1131085544090536  0.6625054180225762
  0.5024783382525309  0.1673235417600009  0.7008895620964134
  0.5419106805821147  0.1673195950696529  0.7008967697224989
  0.5666925312249900  0.1244403510229792  0.7009193680951779
  0.5221852844082736  0.1273254138912650  0.7029651022164134
  0.5221863164634508  0.0988559953999023  0.6282406002536391
  0.4134681773610090  0.1901567430566471  0.6624994923772766
  0.3886878379124916  0.2330354185385095  0.6624751663576077
  0.3886738115482737  0.2043699786328034  0.7029651022164134
  0.4083992077221144  0.2443641598111913  0.7008967697224989
  0.4134754815863766  0.2187837508784624  0.6282107942548749
  0.4331810583649897  0.2014849157645175  0.7009193680951779
  0.4529021005453825  0.1901531191505921  0.6625054180225762
  0.4331942190133003  0.2301518008268712  0.6604298310974501
  0.4529078239159608  0.2187798041881144  0.6282180018809606
  0.4776886425036581  0.2043699786328034  0.7029651022164134
  0.5221958893203740  0.2014849157645175  0.7009193680951779
  0.4974140386774991  0.2443641598111913  0.7008967697224989
  0.3886963907496050  0.3299896896245177  0.6282406002536391
  0.4084111820113453  0.2958243689296529  0.6282180018809606
  0.4331930326542205  0.2529451248829792  0.6282406002536391
  0.3886857858375042  0.2558301877512651  0.6302863343748750
  0.4084054586407674  0.2671976838921306  0.6625054180225762
  0.3886975771086847  0.3071963655684098  0.6604298310974501
  0.4529173967728836  0.3214087245527300  0.7008967697224989
  0.3886844164603741  0.2785294805060559  0.7009193680951779
  0.4776992474157589  0.2785294805060559  0.7009193680951779
  0.4331920005990429  0.2814145433743419  0.7029651022164134
  0.4134850544432997  0.3214126712430780  0.7008895620964134
  0.4579816963479153  0.2443681065015393  0.7008895620964134
  0.1019606968263767  0.3475800226107702  0.3374957228887210
  0.0968844229621147  0.3731604315434991  0.4101816983563453
  0.0771696317003742  0.4073257522383638  0.4102042967290240
  0.0968963972513452  0.4246206406619605  0.3375029305148066
  0.0968906738807671  0.3959939556244382  0.3717903466564226
  0.1216794342533002  0.3589480725591791  0.3697147597312961
  0.1464669115879155  0.3731643782338471  0.4101744907302595
  0.1858992539174988  0.3731604315434991  0.4101816983563453
  0.0771816059896052  0.4587859613568253  0.3375255288874855
  0.0523877810574992  0.4502049962850376  0.4101816983563453
  0.0771827923486851  0.4359926373007175  0.3697147597312961
  0.1019702696832999  0.4502089429753857  0.4101744907302595
  0.1414026120128839  0.4502049962850376  0.4101816983563453
  0.1216878207511435  0.4843703169799022  0.4102042967290240
  0.0771911788465277  0.5614148817214406  0.4102042967290240
  0.0574736277786844  0.5272535077169240  0.4101744907302595
  0.0969059701082688  0.5272495610265758  0.4101816983563453
  0.0771576574111435  0.3558655431199022  0.4828830645705623
  0.0523758067682685  0.3987447871665760  0.4828604661978836
  0.0523820576869210  0.4215783112475150  0.4444691144979609
  0.0771708180594542  0.3845324281822559  0.4423935275728348
  0.0968786995915362  0.3445337465059768  0.4444691144979609
  0.1413906377236530  0.3987447871665760  0.4828604661978836
  0.1019582953940690  0.3987487338569239  0.4828532585717981
  0.1019629654579317  0.4215819351535702  0.4444631888526615
  0.1216652415498120  0.3587506059881880  0.4849287986917978
  0.0771706517201837  0.4130004015169711  0.5171176306745305
  0.0968820215298065  0.4243291427896528  0.5555392340394220
  0.0574496792002230  0.4243330894800009  0.5555320264133365
  0.1019463211048385  0.3472885247384625  0.5555320264133365
  0.1413849143530747  0.3701181021290537  0.5171478823394995
  0.1216770328209927  0.4101167838053327  0.5150722954143732
  0.1019509911687010  0.3701217260351085  0.5171419566941998
  0.1216672936247993  0.3359558367754326  0.5171176306745305
  0.1413786634344221  0.3472845780481144  0.5555392340394220
  0.1216890071102234  0.4615769929237944  0.4423935275728348
  0.0771805739344276  0.4872553798481879  0.4122500308502595
  0.0574616534894541  0.4757932985984625  0.4828532585717981
  0.0969002467376903  0.4986228759890536  0.4444691144979609
  0.0771826260094149  0.4644606106354325  0.4444388628329923
  0.0574663235533166  0.4986264998951085  0.4444631888526615
  0.0771792045572972  0.5099546726029791  0.4828830645705623
  0.1216758464619128  0.4329101078614407  0.4828830645705623
  0.0968939958190377  0.4757893519081144  0.4828604661978836
  0.0523853796251914  0.5013737075311914  0.5555392340394220
  0.0574543492640859  0.4471662907766471  0.5171419566941998
  0.0771685996451969  0.4357951707297265  0.4849287986917978
  0.0771803909163774  0.4871613485468713  0.5150722954143732
  0.0968882724484591  0.4471626668705920  0.5171478823394995
  0.1216888407709530  0.4900449662585094  0.5171176306745305
  0.1019678682509924  0.5013776542215395  0.5555320264133365
  0.1414002105805758  0.5013737075311914  0.5555392340394220
  0.1414064614992288  0.5242072316121306  0.5171478823394995
  0.1216867886959661  0.5128397354712650  0.4849287986917978
  0.1216638721726821  0.3814498987429792  0.5555618324121008
  0.0771566253559657  0.3843349616112650  0.5576075665333362
  0.1216650585317618  0.3586565746868713  0.5877510632559115
  0.0771586774309533  0.3615401923985095  0.5897963985160694
  0.0968762981592289  0.3957024577521306  0.5898266501810381
  0.0968700472405761  0.3728689336711913  0.6282180018809606
  0.0771552559788356  0.4070342543660561  0.6282406002536391
  0.1216628401175042  0.4099193172343419  0.6302863343748750
  0.1019439196725301  0.3984572359846161  0.7008895620964134
  0.1216648921924913  0.3871245480215864  0.6624751663576077
  0.1216508658282733  0.3584591081158802  0.7029651022164134
  0.1216614707403741  0.4326186099891330  0.7009193680951779
  0.1019485897363935  0.4212904372812625  0.6624994923772766
  0.1413762620021146  0.3984532892942683  0.7008967697224989
  0.1413825129207674  0.4212868133752075  0.6625054180225762
  0.1019605640256242  0.4727506463997240  0.5898207245357382
  0.1216748144067349  0.4613795263528034  0.5576075665333362
  0.0771684166271469  0.4357011394284098  0.5877510632559115
  0.1216768664817225  0.4385847571400481  0.5897963985160694
  0.0771802245771071  0.5156293218815864  0.5897963985160694
  0.0771672302680667  0.4584944634845177  0.5555618324121008
  0.1216866056779161  0.5127457041699482  0.5877510632559115
  0.0523796562546135  0.4727470224936689  0.5898266501810381
  0.1019558939617613  0.4499174451030779  0.6282107942548749
  0.1413944872099981  0.4727470224936689  0.5898266501810381
  0.1413882362913453  0.4499134984127299  0.6282180018809606
  0.1216734450296048  0.4840788191075945  0.6282406002536391
  0.0771661982128889  0.4869638819758804  0.6302863343748750
  0.1216746313886850  0.4612854950514866  0.6604298310974501
  0.0771682502878762  0.4641691127631248  0.6624751663576077
  0.0968858710161518  0.4983313781167458  0.6625054180225762
  0.1216724129744274  0.5125482375989572  0.7029651022164134
  0.0968796200974990  0.4754978540358067  0.7008967697224989
  0.1216985799671468  0.5642059132884099  0.5150722954143732
  0.0523973539144224  0.5528339166496529  0.4828604661978836
  0.1414121848698069  0.5528339166496529  0.4828604661978836
  0.1019798425402231  0.5528378633400008  0.4828532585717981
  0.0771923652056085  0.5386215576653330  0.4423935275728348
  0.0524036048330747  0.5756674407305920  0.4444691144979609
  0.1216973936080666  0.5869992373445176  0.4828830645705623
  0.0771901467913507  0.5898843002128034  0.4849287986917978
  0.0969155429651916  0.6298784813911913  0.4828604661978836
  0.0574832006356076  0.6298824280815394  0.4828532585717981
  0.0772019380625310  0.6412504780299479  0.5150722954143732
  0.0772007517034511  0.6640438020860560  0.4828830645705623
  0.0771887774142204  0.6125835929675945  0.5555618324121008
  0.0771781725021198  0.5384240910943419  0.5576075665333362
  0.0574712263463766  0.5784222189630777  0.5555320264133365
  0.0523916305438440  0.5242072316121306  0.5171478823394995
  0.0574758964102400  0.6012554202597240  0.5171419566941998
  0.0771899637733003  0.5897902689114868  0.5877510632559115
  0.0771921988663376  0.5670895310000480  0.5171176306745305
  0.1019725383148551  0.5242108555181854  0.5171419566941998
  0.1216854193188359  0.5355390282260560  0.5555618324121008
  0.0969035686759606  0.5784182722727298  0.5555392340394220
  0.0969098195946132  0.6012517963536689  0.5171478823394995
  0.1019894153971463  0.6554667837046166  0.5555320264133365
  0.1216963615528893  0.6154686558358804  0.5576075665333362
  0.1217069664649898  0.6896281577091331  0.5555618324121008
  0.1217081528240696  0.6668348336530249  0.5877510632559115
  0.1414217577267299  0.6554628370142682  0.5555392340394220
  0.0574639221210093  0.5497952111412623  0.5898207245357382
  0.0574592520571457  0.5269620098446164  0.6282107942548749
  0.0771768031249895  0.5611233838491330  0.6282406002536391
  0.0968915943867302  0.5269580631542683  0.6282180018809606
  0.0968978453053825  0.5497915872352075  0.5898266501810381
  0.1019774411079154  0.6040065745861546  0.6282107942548749
  0.1216843872636581  0.5640084467174188  0.6302863343748750
  0.1216984136278764  0.5926738866231248  0.5897963985160694
  0.1414097834374994  0.6040026278958066  0.6282180018809606
  0.0771779894840694  0.5383300597930252  0.6604298310974501
  0.1019701368825476  0.5753795667643392  0.6624994923772766
  0.1019654668186844  0.5525463654676932  0.7008895620964134
  0.1216830178865280  0.5867077394722099  0.7009193680951779
  0.1216864393386454  0.5412136775046632  0.6624751663576077
  0.1414040600669215  0.5753759428582844  0.6625054180225762
  0.1413978091482685  0.5525424187773452  0.7008967697224989
  0.1216961785348391  0.6153746245345638  0.6604298310974501
  0.0969131415328845  0.6810471926373450  0.6282180018809606
  0.1414160343561517  0.6268361519767458  0.5898266501810381
  0.1019821111717780  0.6268397758828009  0.5898207245357382
  0.0969193924515366  0.7038807167182847  0.5898266501810381
  0.1216949921757589  0.6381679485906714  0.6282406002536391
  0.0969074181623059  0.6524205075998227  0.6625054180225762
  0.1216939601205811  0.6666373670820342  0.7029651022164134
  0.1414193562944226  0.7066315482604222  0.7008967697224989
  0.1217079864847993  0.6953028069877403  0.6624751663576077
  0.1464691802194704  0.4471662907766471  0.5171419566941998
  0.1909731263494538  0.3987487338569239  0.4828532585717981
  0.1661724883665281  0.3558655431199022  0.4828830645705623
  0.1661854826755687  0.4130004015169711  0.5171176306745305
  0.1661834306005814  0.4357951707297265  0.4849287986917978
  0.1464596073625472  0.3445373704120315  0.4444631888526615
  0.1661856490148387  0.3845324281822559  0.4423935275728348
  0.1858935305469209  0.3445337465059768  0.4444691144979609
  0.1909658221240853  0.3701217260351085  0.5171419566941998
  0.1858911291146132  0.3957024577521306  0.5898266501810381
  0.1661735083863378  0.3615401923985095  0.5897963985160694
  0.2106787031280664  0.3814498987429792  0.5555618324121008
  0.1909611520602228  0.3472885247384625  0.5555320264133365
  0.1661714563113505  0.3843349616112650  0.5576075665333362
  0.1464572059302397  0.3957060816581855  0.5898207245357382
  0.1464645101556077  0.4243330894800009  0.5555320264133365
  0.1858968524851915  0.4243291427896528  0.5555392340394220
  0.1661832475825310  0.4357011394284098  0.5877510632559115
  0.1859031034038441  0.4471626668705920  0.5171478823394995
  0.2106800725051965  0.3587506059881880  0.4849287986917978
  0.2551873193219124  0.3558655431199022  0.4828830645705623
  0.2106906774172973  0.4329101078614407  0.4828830645705623
  0.2304054686790376  0.3987447871665760  0.4828604661978836
  0.2106821245801838  0.3359558367754326  0.5171176306745305
  0.2106918637763771  0.4101167838053327  0.5150722954143732
  0.2354793411109921  0.4243330894800009  0.5555320264133365
  0.2303997453084597  0.3701181021290537  0.5171478823394995
  0.2799759830156076  0.3472885247384625  0.5555320264133365
  0.2106916974371070  0.4385847571400481  0.5897963985160694
  0.2354720368856245  0.3957060816581855  0.5898207245357382
  0.2303934943898071  0.3472845780481144  0.5555392340394220
  0.2551862872667353  0.3843349616112650  0.5576075665333362
  0.2551883393417226  0.3615401923985095  0.5897963985160694
  0.2106798894871466  0.3586565746868713  0.5877510632559115
  0.2551980785379158  0.4357011394284098  0.5877510632559115
  0.2749059600699980  0.3957024577521306  0.5898266501810381
  0.2749116834405763  0.4243291427896528  0.5555392340394220
  0.3194083253451914  0.3472845780481144  0.5555392340394220
  0.2996947204425313  0.3586565746868713  0.5877510632559115
  0.2996935340834512  0.3814498987429792  0.5555618324121008
  0.1661700869342204  0.4070342543660561  0.6282406002536391
  0.1464525358663768  0.3728728803615394  0.6282107942548749
  0.1909707249171460  0.4499174451030779  0.6282107942548749
  0.1661712732933001  0.3842409303099482  0.6604298310974501
  0.1858848781959606  0.3728689336711913  0.6282180018809606
  0.2106776710728888  0.4099193172343419  0.6302863343748750
  0.2304030672467298  0.4499134984127299  0.6282180018809606
  0.2354673668217616  0.3728728803615394  0.6282107942548749
  0.2551849178896047  0.4070342543660561  0.6282406002536391
  0.2551861042486849  0.3842409303099482  0.6604298310974501
  0.1661690548790432  0.4355036728574188  0.7029651022164134
  0.1661581126449894  0.3555740452475945  0.7009193680951779
  0.1464452316410088  0.3442458725397238  0.6624994923772766
  0.1858791548253827  0.3442422486336690  0.6625054180225762
  0.2106763016957591  0.4326186099891330  0.7009193680951779
  0.1909587506279151  0.3984572359846161  0.7008895620964134
  0.2106656967836583  0.3584591081158802  0.7029651022164134
  0.1909634206917784  0.4212904372812625  0.6624994923772766
  0.2106797231478761  0.3871245480215864  0.6624751663576077
  0.2303973438761519  0.4212868133752075  0.6625054180225762
  0.2551729436003742  0.3555740452475945  0.7009193680951779
  0.2354600625963936  0.3442458725397238  0.6624994923772766
  0.2551838858344275  0.4355036728574188  0.7029651022164134
  0.2303910929574993  0.3984532892942683  0.7008967697224989
  0.2996945541032609  0.3871245480215864  0.6624751663576077
  0.2996805277390426  0.3584591081158802  0.7029651022164134
  0.3244748935517783  0.3442458725397238  0.6624994923772766
  0.2748997091513454  0.3728689336711913  0.6282180018809606
  0.2748939857807670  0.3442422486336690  0.6625054180225762
  0.3194059239128841  0.3984532892942683  0.7008967697224989
  0.2799735815832999  0.3984572359846161  0.7008895620964134
  0.2996925020282736  0.4099193172343419  0.6302863343748750
  0.2799782516471628  0.4212904372812625  0.6624994923772766
  0.3194121748315363  0.4212868133752075  0.6625054180225762
  0.3194178982021146  0.4499134984127299  0.6282180018809606
  0.2996911326511434  0.4326186099891330  0.7009193680951779
  0.3441997488449899  0.4070342543660561  0.6282406002536391
  0.3442009352040696  0.3842409303099482  0.6604298310974501
  0.3639145401067301  0.3728689336711913  0.6282180018809606
  0.3244821977771459  0.3728728803615394  0.6282107942548749
  0.3639088167361518  0.3442422486336690  0.6625054180225762
  0.3689884125386842  0.3984572359846161  0.7008895620964134
  0.4084207548682685  0.3984532892942683  0.7008967697224989
  0.4332026055111433  0.3555740452475945  0.7009193680951779
  0.3887059636065282  0.4326186099891330  0.7009193680951779
  0.3886953586944274  0.3584591081158802  0.7029651022164134
  0.3441987167898118  0.4355036728574188  0.7029651022164134
  0.3441877745557590  0.3555740452475945  0.7009193680951779
  0.1661820612234513  0.4584944634845177  0.5555618324121008
  0.2551968921788356  0.4584944634845177  0.5555618324121008
  0.1661940355126817  0.5099546726029791  0.4828830645705623
  0.1909826992063765  0.5013776542215395  0.5555320264133365
  0.1464764844448387  0.4757932985984625  0.4828532585717981
  0.2304150415359608  0.5013737075311914  0.5555392340394220
  0.1859088267744224  0.4757893519081144  0.4828604661978836
  0.2106896453621197  0.4613795263528034  0.5576075665333362
  0.1661952218717619  0.4871613485468713  0.5150722954143732
  0.2106882759849896  0.4840788191075945  0.6282406002536391
  0.1859064253421147  0.5269580631542683  0.6282180018809606
  0.1909753949810089  0.4727506463997240  0.5898207245357382
  0.1661950555324915  0.5156293218815864  0.5897963985160694
  0.1661810291682732  0.4869638819758804  0.6302863343748750
  0.2107014366333002  0.5127457041699482  0.5877510632559115
  0.2304093181653828  0.4727470224936689  0.5898266501810381
  0.2749212562974990  0.5269580631542683  0.6282180018809606
  0.2551958601236580  0.4869638819758804  0.6302863343748750
  0.2997031069403739  0.4840788191075945  0.6282406002536391
  0.2799855558725308  0.4499174451030779  0.6282107942548749
  0.1464787530763934  0.5497952111412623  0.5898207245357382
  0.1661930034575046  0.5384240910943419  0.5576075665333362
  0.1859183996313456  0.5784182722727298  0.5555392340394220
  0.2107002502742205  0.5355390282260560  0.5555618324121008
  0.1859126762607673  0.5497915872352075  0.5898266501810381
  0.1464740830125305  0.5269620098446164  0.6282107942548749
  0.1661916340803740  0.5611233838491330  0.6282406002536391
  0.2106992182190429  0.5640084467174188  0.6302863343748750
  0.2552064650357588  0.5611233838491330  0.6282406002536391
  0.2354889139679152  0.5269620098446164  0.6282107942548749
  0.1662047947286851  0.5897902689114868  0.5877510632559115
  0.1464860573017614  0.5784222189630777  0.5555320264133365
  0.1662036083696049  0.6125835929675945  0.5555618324121008
  0.2304246143928839  0.6040026278958066  0.6282180018809606
  0.1909922720632997  0.6040065745861546  0.6282107942548749
  0.2107098231311432  0.6381679485906714  0.6282406002536391
  0.1464956301586844  0.6810511393276932  0.6282107942548749
  0.1859279724882684  0.6810471926373450  0.6282180018809606
  0.1662025763144273  0.6410530114589573  0.6302863343748750
  0.1859007019715364  0.4983313781167458  0.6625054180225762
  0.1661830812432610  0.4641691127631248  0.6624751663576077
  0.1464621087232998  0.4755018007261546  0.7008895620964134
  0.1858944510528838  0.4754978540358067  0.7008967697224989
  0.2106894623440697  0.4612854950514866  0.6604298310974501
  0.1464667787871627  0.4983350020228009  0.6624994923772766
  0.1661796597911431  0.5096631747306714  0.7009193680951779
  0.2106872439298124  0.5125482375989572  0.7029651022164134
  0.1661928204394542  0.5383300597930252  0.6604298310974501
  0.2107012702940302  0.5412136775046632  0.6624751663576077
  0.2552076513948390  0.5383300597930252  0.6604298310974501
  0.2551979121986453  0.4641691127631248  0.6624751663576077
  0.2354769396786848  0.4755018007261546  0.7008895620964134
  0.2354816097425472  0.4983350020228009  0.6624994923772766
  0.2551944907465279  0.5096631747306714  0.7009193680951779
  0.2749092820082686  0.4754978540358067  0.7008967697224989
  0.2749155329269212  0.4983313781167458  0.6625054180225762
  0.2997020748851967  0.5125482375989572  0.7029651022164134
  0.2997042932994541  0.4612854950514866  0.6604298310974501
  0.3442093217019127  0.5096631747306714  0.7009193680951779
  0.3639241129636533  0.4754978540358067  0.7008967697224989
  0.3244917706340691  0.4755018007261546  0.7008895620964134
  0.1661906020251969  0.5895928023404958  0.7029651022164134
  0.2106978488419128  0.5867077394722099  0.7009193680951779
  0.1909802977740692  0.5525463654676932  0.7008895620964134
  0.1909849678379321  0.5753795667643392  0.6624994923772766
  0.1662046283894147  0.6182582422462017  0.6624751663576077
  0.1859222491176905  0.6524205075998227  0.6625054180225762
  0.1464883259333168  0.6524241315058777  0.6624994923772766
  0.1662143675856079  0.6924191892761019  0.6604298310974501
  0.2304188910223056  0.5753759428582844  0.6625054180225762
  0.3194274710590378  0.5525424187773452  0.7008967697224989
  0.2799951287294540  0.5525463654676932  0.7008895620964134
  0.2304126401036530  0.5525424187773452  0.7008967697224989
  0.2552054329805812  0.5895928023404958  0.7029651022164134
  0.2997126797972975  0.5867077394722099  0.7009193680951779
  0.2107110094902234  0.6153746245345638  0.6604298310974501
  0.2304341872498067  0.7066315482604222  0.7008967697224989
  0.2749308291544222  0.6295869835188835  0.7008967697224989
  0.2552160378926820  0.6637523042137483  0.7009193680951779
  0.2354984868248384  0.6295909302092315  0.7008895620964134
  0.1414313305836535  0.7580917573788835  0.6282180018809606
  0.1662131812265281  0.7152125133322100  0.6282406002536391
  0.1217059344098124  0.7180975762004960  0.6302863343748750
  0.1414256072130751  0.7294650723413616  0.6625054180225762
  0.1662121491713505  0.7436819318235726  0.7029651022164134
  0.1910018449202229  0.7066354949507697  0.7008895620964134
  0.2107193959880669  0.7407968689552871  0.7009193680951779
  0.6309197881669211  0.1386929100321306  0.7351841858641148
  0.6754317262990377  0.1929039506927298  0.7735755375640375
  0.7002267375902237  0.1786915917084097  0.7331085989389885
  0.6557203564894150  0.1815752094200480  0.7351539341991462
  0.7250188849887016  0.2157410986797240  0.7351782602188154
  0.6754379772176903  0.2157374747736690  0.7351841858641148
  0.7199499153498070  0.2699485154342682  0.7735755375640375
  0.7447449266409929  0.2557361564499481  0.7331085989389885
  0.7695324039756075  0.2699524621246162  0.7735683299379518
  0.7447317659926818  0.2270692713875946  0.7735981359367164
  0.7002245191759660  0.2299543342558804  0.7756438700579520
  0.7002385455401842  0.2586197741615865  0.7351539341991462
  0.7199441919792291  0.2413218303967459  0.8078629537056534
  0.7447447603017224  0.2842041297846635  0.8078327020406846
  0.7695370740394708  0.2927856634212624  0.7351782602188154
  0.7199561662684595  0.2927820395152075  0.7351841858641148
  0.7644681044005762  0.3469930801758068  0.7735755375640375
  0.7892631156917621  0.3327807211914867  0.7331085989389885
  0.8140505930263767  0.3469970268661548  0.7735683299379518
  0.7892499550434511  0.3041138361291331  0.7735981359367164
  0.7447427082267352  0.3069988989974188  0.7756438700579520
  0.7447567345909529  0.3356643389031249  0.7351539341991462
  0.7644623810299983  0.3183663951382845  0.8078629537056534
  0.7892629493524916  0.3612486945262018  0.8078327020406846
  0.8140552630902400  0.3698302281628009  0.7351782602188154
  0.7644743553192288  0.3698266042567459  0.7351841858641148
  0.8089862934513454  0.4240376449173451  0.7735755375640375
  0.8337813047425313  0.4098252859330250  0.7331085989389885
  0.8585687820771464  0.4240415916076933  0.7735683299379518
  0.8337681440942207  0.3811584008706715  0.7735981359367164
  0.7892608972775044  0.3840434637389573  0.7756438700579520
  0.7892749236417226  0.4127089036446633  0.7351539341991462
  0.8337811384032608  0.4382932592677403  0.8078327020406846
  0.8585734521410088  0.4468747929043393  0.7351782602188154
  0.8089925443699980  0.4468711689982844  0.7351841858641148
  0.8535044825021151  0.5010822096588837  0.7735755375640375
  0.8782994937933005  0.4868698506745635  0.7331085989389885
  0.8337790863282736  0.4610880284804957  0.7756438700579520
  0.8337931126924918  0.4897534683862015  0.7351539341991462
  0.8535107334207672  0.5239157337398227  0.7351841858641148
  0.7644528081730750  0.2157374747736690  0.7351841858641148
  0.7892533764955685  0.2586197741615865  0.7351539341991462
  0.8089709972238444  0.2927820395152075  0.7351841858641148
  0.8337715655463377  0.3356643389031249  0.7351539341991462
  0.8534891862746136  0.3698266042567459  0.7351841858641148
  0.8782897545971073  0.4127089036446633  0.7351539341991462
  0.1216842042456081  0.5639144154161019  0.7331085989389885
  0.1464716815802232  0.5781307210907702  0.7735683299379518
  0.1661904190071465  0.5894987710391789  0.8057873667805271
  0.1216626570994540  0.4098252859330250  0.7331085989389885
  0.1464501344340691  0.4240415916076933  0.7735683299379518
  0.1661688718609928  0.4354096415561022  0.8057873667805271
  0.1464548044979320  0.4468747929043393  0.7351782602188154
  0.1413858348590378  0.5010822096588837  0.7735755375640375
  0.1661808461502233  0.4868698506745635  0.7331085989389885
  0.1909683234848383  0.5010861563492316  0.7735683299379518
  0.1661676855019126  0.4582029656122100  0.7735981359367164
  0.1216744650494145  0.4897534683862015  0.7351539341991462
  0.1909610192594703  0.4724591485274163  0.8078570280603536
  0.2106870609117616  0.5124542062976406  0.8057873667805271
  0.2354745382463770  0.5266705119723086  0.8462470977794904
  0.2106739002634509  0.4837873212352868  0.8462769037782548
  0.1661806798109532  0.5153378240092787  0.8078327020406846
  0.2551932756733003  0.5380385619207174  0.8784661346220655
  0.1909729935487012  0.5239193576458778  0.7351782602188154
  0.1413920857776903  0.5239157337398227  0.7351841858641148
  0.1859040239098070  0.5781267744004221  0.7735755375640375
  0.2106990352009925  0.5639144154161019  0.7331085989389885
  0.2354865125356075  0.5781307210907702  0.7735683299379518
  0.2106858745526818  0.5352475303537484  0.7735981359367164
  0.1661786277359660  0.5381325932220342  0.7756438700579520
  0.1661926541001842  0.5667980331277402  0.7351539341991462
  0.2354792083102395  0.5495037132689548  0.8078570280603536
  0.1858983005392287  0.5495000893628997  0.8078629537056534
  0.2304102386713453  0.6037111300234991  0.8462543054055761
  0.2552052499625308  0.5894987710391789  0.8057873667805271
  0.2799927272971462  0.6037150767138472  0.8462470977794904
  0.2551920893142202  0.5608318859768252  0.8462769037782548
  0.2106848424975042  0.5637169488451110  0.8483226378994904
  0.2106988688617225  0.5923823887508172  0.8078327020406846
  0.2799854230717782  0.5750880688920317  0.8805357959018922
  0.2997114647240700  0.6150831266622560  0.8784661346220655
  0.1661592990040696  0.3327807211914867  0.7331085989389885
  0.1909467763386846  0.3469970268661548  0.7735683299379518
  0.2106655137656079  0.3583650768145637  0.8057873667805271
  0.2354529911002229  0.3725813824892317  0.8462470977794904
  0.1909514464025475  0.3698302281628009  0.7351782602188154
  0.1413705386315362  0.3698266042567459  0.7351841858641148
  0.1858824767636529  0.4240376449173451  0.7735755375640375
  0.2106774880548388  0.4098252859330250  0.7331085989389885
  0.2354649653894539  0.4240415916076933  0.7735683299379518
  0.2106643274065282  0.3811584008706715  0.7735981359367164
  0.1661570805898119  0.3840434637389573  0.7756438700579520
  0.1661711069540301  0.4127089036446633  0.7351539341991462
  0.2354576611640858  0.3954145837858778  0.8078570280603536
  0.1858767533930750  0.3954109598798229  0.8078629537056534
  0.2303886915251912  0.4496220005404221  0.8462543054055761
  0.2551837028163771  0.4354096415561022  0.8057873667805271
  0.2799711801509921  0.4496259472307703  0.8462470977794904
  0.2551705421680664  0.4067427564937484  0.8462769037782548
  0.2106773217155684  0.4382932592677403  0.8078327020406846
  0.2799638759256241  0.4209989394089547  0.8805357959018922
  0.2996899175779159  0.4609939971791789  0.8784661346220655
  0.3244773949125309  0.4752103028538469  0.9189258656210287
  0.2551835364771071  0.4638776148908173  0.8805114698822230
  0.2354696354533168  0.4468747929043393  0.7351782602188154
  0.1858887276823059  0.4468711689982844  0.7351841858641148
  0.2304006658144221  0.5010822096588837  0.7735755375640375
  0.2551956771056080  0.4868698506745635  0.7331085989389885
  0.2799831544402230  0.5010861563492316  0.7735683299379518
  0.2551825164572974  0.4582029656122100  0.7735981359367164
  0.2106752696405815  0.4610880284804957  0.7756438700579520
  0.2106892960047993  0.4897534683862015  0.7351539341991462
  0.2799758502148550  0.4724591485274163  0.8078570280603536
  0.2303949424438442  0.4724555246213614  0.8078629537056534
  0.2749068805759609  0.5266665652819607  0.8462543054055761
  0.2997018918671468  0.5124542062976406  0.8057873667805271
  0.3244893692017618  0.5266705119723086  0.8462470977794904
  0.2996887312188357  0.4837873212352868  0.8462769037782548
  0.2551814844021194  0.4866723841035727  0.8483226378994904
  0.2551955107663380  0.5153378240092787  0.8078327020406846
  0.3244820649763938  0.4980435041504931  0.8805357959018922
  0.2749011572053825  0.4980398802444383  0.8805417215471920
  0.3194130953374991  0.5522509209050375  0.9189330732471145
  0.3442081066286851  0.5380385619207174  0.8784661346220655
  0.3689955839633001  0.5522548675953856  0.9189258656210287
  0.3441949459803744  0.5093716768583638  0.9189556716197932
  0.2997017255278763  0.5409221796323554  0.8805114698822230
  0.2799878245040859  0.5239193576458778  0.7351782602188154
  0.2304069167330751  0.5239157337398227  0.7351841858641148
  0.2749188548651917  0.5781267744004221  0.7735755375640375
  0.2997138661563772  0.5639144154161019  0.7331085989389885
  0.3245013434909923  0.5781307210907702  0.7735683299379518
  0.2997007055080666  0.5352475303537484  0.7735981359367164
  0.2551934586913507  0.5381325932220342  0.7756438700579520
  0.2552074850555685  0.5667980331277402  0.7351539341991462
  0.3244940392656247  0.5495037132689548  0.8078570280603536
  0.2749131314946134  0.5495000893628997  0.8078629537056534
  0.3194250696267301  0.6037111300234991  0.8462543054055761
  0.3442200809179160  0.5894987710391789  0.8057873667805271
  0.3690075582525310  0.6037150767138472  0.8462470977794904
  0.3442069202696049  0.5608318859768252  0.8462769037782548
  0.2996996734528886  0.5637169488451110  0.8483226378994904
  0.2997136998171072  0.5923823887508172  0.8078327020406846
  0.3690002540271630  0.5750880688920317  0.8805357959018922
  0.3194193462561521  0.5750844449859767  0.8805417215471920
  0.3639312843882683  0.6292954856465760  0.9189330732471145
  0.3887262956794543  0.6150831266622560  0.8784661346220655
  0.4135137730140693  0.6292994323369240  0.9189258656210287
  0.3887131350311432  0.5864162415999022  0.9189556716197932
  0.3442058882144278  0.5893013044681881  0.9210014057410287
  0.3442199145786455  0.6179667443738940  0.8805114698822230
  0.2106559409086847  0.2557361564499481  0.7331085989389885
  0.2354434182432997  0.2699524621246162  0.7735683299379518
  0.2551621556702230  0.2813205120730251  0.8057873667805271
  0.2799496330048385  0.2955368177476932  0.8462470977794904
  0.2354480883071626  0.2927856634212624  0.7351782602188154
  0.1858671805361518  0.2927820395152075  0.7351841858641148
  0.2303791186682684  0.3469930801758068  0.7735755375640375
  0.2551741299594544  0.3327807211914867  0.7331085989389885
  0.2799616072940689  0.3469970268661548  0.7735683299379518
  0.2551609693111433  0.3041138361291331  0.7735981359367164
  0.2106537224944274  0.3069988989974188  0.7756438700579520
  0.2106677488586452  0.3356643389031249  0.7351539341991462
  0.2799543030687014  0.3183700190443394  0.8078570280603536
  0.2303733952976905  0.3183663951382845  0.8078629537056534
  0.2748853334298071  0.3725774357988837  0.8462543054055761
  0.2996803447209927  0.3583650768145637  0.8057873667805271
  0.3244678220556077  0.3725813824892317  0.8462470977794904
  0.2996671840726820  0.3296981917522098  0.8462769037782548
  0.2551599372559657  0.3325832546204958  0.8483226378994904
  0.2551739636201839  0.3612486945262018  0.8078327020406846
  0.3244605178302397  0.3439543746674164  0.8805357959018922
  0.3441865594825310  0.3839494324376403  0.8784661346220655
  0.3689740368171460  0.3981657381123085  0.9189258656210287
  0.2996801783817222  0.3868330501492787  0.8805114698822230
  0.2799662773579318  0.3698302281628009  0.7351782602188154
  0.2303853695869210  0.3698266042567459  0.7351841858641148
  0.2748973077190376  0.4240376449173451  0.7735755375640375
  0.2996923190102236  0.4098252859330250  0.7331085989389885
  0.3244797963448382  0.4240415916076933  0.7735683299379518
  0.2996791583619125  0.3811584008706715  0.7735981359367164
  0.2551719115451966  0.3840434637389573  0.7756438700579520
  0.2551859379094149  0.4127089036446633  0.7351539341991462
  0.3244724921194706  0.3954145837858778  0.8078570280603536
  0.2748915843484593  0.3954109598798229  0.8078629537056534
  0.3194035224805764  0.4496220005404221  0.8462543054055761
  0.3441985337717619  0.4354096415561022  0.8057873667805271
  0.3689860111063769  0.4496259472307703  0.8462470977794904
  0.3441853731234512  0.4067427564937484  0.8462769037782548
  0.2996781263067349  0.4096278193620341  0.8483226378994904
  0.2996921526709536  0.4382932592677403  0.8078327020406846
  0.3689787068810089  0.4209989394089547  0.8805357959018922
  0.3193977991099976  0.4209953155028997  0.8805417215471920
  0.3639097372421147  0.4752063561634989  0.9189330732471145
  0.3887047485333006  0.4609939971791789  0.8784661346220655
  0.4134922258679152  0.4752103028538469  0.9189258656210287
  0.3886915878849895  0.4323271121168253  0.9189556716197932
  0.3441843410682737  0.4352121749851111  0.9210014057410287
  0.3441983674324914  0.4638776148908173  0.8805114698822230
  0.4332109632948389  0.4865783528022558  0.9511449024636039
  0.3244844664087011  0.4468747929043393  0.7351782602188154
  0.2749035586376902  0.4468711689982844  0.7351841858641148
  0.3194154967698069  0.5010822096588837  0.7735755375640375
  0.3442105080609928  0.4868698506745635  0.7331085989389885
  0.3689979853956074  0.5010861563492316  0.7735683299379518
  0.3441973474126822  0.4582029656122100  0.7735981359367164
  0.2996901005959658  0.4610880284804957  0.7756438700579520
  0.2997041269601841  0.4897534683862015  0.7351539341991462
  0.3194097733992285  0.4724555246213614  0.8078629537056534
  0.3639217115313456  0.5266665652819607  0.8462543054055761
  0.3887167228225311  0.5124542062976406  0.8057873667805271
  0.4135042001571461  0.5266705119723086  0.8462470977794904
  0.3887035621742205  0.4837873212352868  0.8462769037782548
  0.3441963153575041  0.4866723841035727  0.8483226378994904
  0.3442103417217228  0.5153378240092787  0.8078327020406846
  0.4134968959317781  0.4980435041504931  0.8805357959018922
  0.3639159881607673  0.4980398802444383  0.8805417215471920
  0.4084279262928839  0.5522509209050375  0.9189330732471145
  0.4332229375840698  0.5380385619207174  0.8784661346220655
  0.4580104149186844  0.5522548675953856  0.9189258656210287
  0.4332097769357587  0.5093716768583638  0.9189556716197932
  0.3887025301190429  0.5122567397266496  0.9210014057410287
  0.3887165564832606  0.5409221796323554  0.8805114698822230
  0.4580031106933164  0.5236278597735702  0.9532145637434306
  0.3690026554594708  0.5239193576458778  0.7351782602188154
  0.3194217476884599  0.5239157337398227  0.7351841858641148
  0.3639336858205761  0.5781267744004221  0.7735755375640375
  0.3887286971117621  0.5639144154161019  0.7331085989389885
  0.4135161744463771  0.5781307210907702  0.7735683299379518
  0.3887155364634509  0.5352475303537484  0.7735981359367164
  0.3442082896467351  0.5381325932220342  0.7756438700579520
  0.3442223160109533  0.5667980331277402  0.7351539341991462
  0.3639279624499982  0.5495000893628997  0.8078629537056534
  0.4084399005821144  0.6037111300234991  0.8462543054055761
  0.4332349118733003  0.5894987710391789  0.8057873667805271
  0.3887145044082733  0.5637169488451110  0.8483226378994904
  0.3887285307724916  0.5923823887508172  0.8078327020406846
  0.4084341772115365  0.5750844449859767  0.8805417215471920
  0.4529461153436531  0.6292954856465760  0.9189330732471145
  0.4777411266348391  0.6150831266622560  0.8784661346220655
  0.5025286039694541  0.6292994323369240  0.9189258656210287
  0.4777279659865276  0.5864162415999022  0.9189556716197932
  0.4332207191698121  0.5893013044681881  0.9210014057410287
  0.4332347455340299  0.6179667443738940  0.8805114698822230
  0.2799447302117782  0.2157410986797240  0.7351782602188154
  0.2303638224407669  0.2157374747736690  0.7351841858641148
  0.2748757605728840  0.2699485154342682  0.7735755375640375
  0.2996707718640695  0.2557361564499481  0.7331085989389885
  0.3244582491986845  0.2699524621246162  0.7735683299379518
  0.2996576112157588  0.2270692713875946  0.7735981359367164
  0.2551503643990429  0.2299543342558804  0.7756438700579520
  0.2551643907632608  0.2586197741615865  0.7351539341991462
  0.3244509449733165  0.2413254543028009  0.8078570280603536
  0.2748700372023056  0.2413218303967459  0.8078629537056534
  0.3193819753344223  0.2955328710573452  0.8462543054055761
  0.3441769866256078  0.2813205120730251  0.8057873667805271
  0.3441638259772971  0.2526536270106715  0.8462769037782548
  0.2996706055247995  0.2842041297846635  0.8078327020406846
  0.3441768202863378  0.3097884854077401  0.8805114698822230
  0.2748820114915366  0.2927820395152075  0.7351841858641148
  0.3193939496236532  0.3469930801758068  0.7735755375640375
  0.3689764382494538  0.3469970268661548  0.7735683299379518
  0.3441758002665281  0.3041138361291331  0.7735981359367164
  0.2996685534498121  0.3069988989974188  0.7756438700579520
  0.2996825798140300  0.3356643389031249  0.7351539341991462
  0.3689691340240862  0.3183700190443394  0.8078570280603536
  0.3193882262530748  0.3183663951382845  0.8078629537056534
  0.3639001643851915  0.3725774357988837  0.8462543054055761
  0.3886951756763770  0.3583650768145637  0.8057873667805271
  0.4134826530109925  0.3725813824892317  0.8462470977794904
  0.3886820150280664  0.3296981917522098  0.8462769037782548
  0.3441747682113505  0.3325832546204958  0.8483226378994904
  0.3441887945755687  0.3612486945262018  0.8078327020406846
  0.4134753487856244  0.3439543746674164  0.8805357959018922
  0.3638944410146136  0.3439507507613614  0.8805417215471920
  0.4084063791467302  0.3981617914219606  0.9189330732471145
  0.4332013904379157  0.3839494324376403  0.8784661346220655
  0.4579888677725308  0.3981657381123085  0.9189258656210287
  0.4331882297896051  0.3552825473752869  0.9189556716197932
  0.3886809829728892  0.3581676102435727  0.9210014057410287
  0.3886950093371070  0.3868330501492787  0.8805114698822230
  0.4777076051994545  0.4095337880607177  0.9511449024636039
  0.3689811083133167  0.3698302281628009  0.7351782602188154
  0.3194002005423053  0.3698266042567459  0.7351841858641148
  0.3639121386744224  0.4240376449173451  0.7735755375640375
  0.3887071499656083  0.4098252859330250  0.7331085989389885
  0.4134946273002230  0.4240415916076933  0.7735683299379518
  0.3886939893172973  0.3811584008706715  0.7735981359367164
  0.3441867425005814  0.3840434637389573  0.7756438700579520
  0.3442007688647996  0.4127089036446633  0.7351539341991462
  0.4134873230748554  0.3954145837858778  0.8078570280603536
  0.3639064153038441  0.3954109598798229  0.8078629537056534
  0.4084183534359607  0.4496220005404221  0.8462543054055761
  0.4332133647271467  0.4354096415561022  0.8057873667805271
  0.4580008420617617  0.4496259472307703  0.8462470977794904
  0.4332002040788356  0.4067427564937484  0.8462769037782548
  0.3886929572621192  0.4096278193620341  0.8483226378994904
  0.3887069836263379  0.4382932592677403  0.8078327020406846
  0.4579935378363937  0.4209989394089547  0.8805357959018922
  0.4084126300653824  0.4209953155028997  0.8805417215471920
  0.4529245681974994  0.4752063561634989  0.9189330732471145
  0.4777195794886850  0.4609939971791789  0.8784661346220655
  0.5025070568233000  0.4752103028538469  0.9189258656210287
  0.4777064188403743  0.4323271121168253  0.9189556716197932
  0.4331991720236584  0.4352121749851111  0.9210014057410287
  0.4332131983878762  0.4638776148908173  0.8805114698822230
  0.5024997525979320  0.4465832950320316  0.9532145637434306
  0.4529188448269211  0.4465796711259769  0.9532204893887304
  0.5222257942502236  0.4865783528022558  0.9511449024636039
  0.4777194131494150  0.4894619705138942  0.9531902377237615
  0.4134992973640859  0.4468747929043393  0.7351782602188154
  0.3639183895930750  0.4468711689982844  0.7351841858641148
  0.4332253390163772  0.4868698506745635  0.7331085989389885
  0.4580128163509922  0.5010861563492316  0.7735683299379518
  0.4332121783680665  0.4582029656122100  0.7735981359367164
  0.3887189579155684  0.4897534683862015  0.7351539341991462
  0.4580055121256246  0.4724591485274163  0.8078570280603536
  0.4777315537779154  0.5124542062976406  0.8057873667805271
  0.5025190311125309  0.5266705119723086  0.8462470977794904
  0.4777183931296048  0.4837873212352868  0.8462769037782548
  0.4332111463128885  0.4866723841035727  0.8483226378994904
  0.5025117268871628  0.4980435041504931  0.8805357959018922
  0.4529308191161516  0.4980398802444383  0.8805417215471920
  0.5222377685394541  0.5380385619207174  0.8784661346220655
  0.5470252458740692  0.5522548675953856  0.9189258656210287
  0.5222246078911436  0.5093716768583638  0.9189556716197932
  0.4777173610744276  0.5122567397266496  0.9210014057410287
  0.4777313874386454  0.5409221796323554  0.8805114698822230
  0.5470179416487012  0.5236278597735702  0.9532145637434306
  0.4974370338776903  0.5236242358675152  0.9532204893887304
  0.5667439833009930  0.5636229175437945  0.9511449024636039
  0.4580174864148551  0.5239193576458778  0.7351782602188154
  0.4084365786438442  0.5239157337398227  0.7351841858641148
  0.4529485167759609  0.5781267744004221  0.7735755375640375
  0.4777435280671464  0.5639144154161019  0.7331085989389885
  0.5025310054017614  0.5781307210907702  0.7735683299379518
  0.4777303674188353  0.5352475303537484  0.7735981359367164
  0.4332231206021198  0.5381325932220342  0.7756438700579520
  0.4332371469663376  0.5667980331277402  0.7351539341991462
  0.5025237011763938  0.5495037132689548  0.8078570280603536
  0.5222497428286846  0.5894987710391789  0.8057873667805271
  0.5470372201633001  0.6037150767138472  0.8462470977794904
  0.5222365821803736  0.5608318859768252  0.8462769037782548
  0.4777433617278763  0.5923823887508172  0.8078327020406846
  0.5470299159379322  0.5750880688920317  0.8805357959018922
  0.4974490081669212  0.5750844449859767  0.8805417215471920
  0.5667559575902233  0.6150831266622560  0.8784661346220655
  0.5915434349248384  0.6292994323369240  0.9189258656210287
  0.5667427969419128  0.5864162415999022  0.9189556716197932
  0.5222355501251964  0.5893013044681881  0.9210014057410287
  0.5222495764894146  0.6179667443738940  0.8805114698822230
  0.3193724024774991  0.1929039506927298  0.7735755375640375
  0.3441674137686850  0.1786915917084097  0.7331085989389885
  0.3689548911033000  0.1929078973830778  0.7735683299379518
  0.2996610326678763  0.1815752094200480  0.7351539341991462
  0.4134611058648384  0.2184922530061547  0.8462470977794904
  0.3441672474294150  0.2071595650431249  0.8078327020406846
  0.3689595611671625  0.2157410986797240  0.7351782602188154
  0.3193786533961517  0.2157374747736690  0.7351841858641148
  0.3638905915282683  0.2699485154342682  0.7735755375640375
  0.3886856028194542  0.2557361564499481  0.7331085989389885
  0.4134730801540693  0.2699524621246162  0.7735683299379518
  0.3441651953544273  0.2299543342558804  0.7756438700579520
  0.3441792217186455  0.2586197741615865  0.7351539341991462
  0.3638848681576904  0.2413218303967459  0.8078629537056534
  0.4331918175809921  0.2813205120730251  0.8057873667805271
  0.4579792949156076  0.2955368177476932  0.8462470977794904
  0.4331786569326819  0.2526536270106715  0.8462769037782548
  0.3886854364801842  0.2842041297846635  0.8078327020406846
  0.4579719906902396  0.2669098099258778  0.8805357959018922
  0.4083910829192287  0.2669061860198229  0.8805417215471920
  0.4529030210513453  0.3211172266804221  0.9189330732471145
  0.4776980323425308  0.3069048676961020  0.8784661346220655
  0.5024855096771459  0.3211211733707701  0.9189258656210287
  0.4331916512417221  0.3097884854077401  0.8805114698822230
  0.4134777502179322  0.2927856634212624  0.7351782602188154
  0.4084087805790375  0.3469930801758068  0.7735755375640375
  0.4332037918702235  0.3327807211914867  0.7331085989389885
  0.4579912692048385  0.3469970268661548  0.7735683299379518
  0.4331906312219128  0.3041138361291331  0.7735981359367164
  0.3886833844051965  0.3069988989974188  0.7756438700579520
  0.3886974107694147  0.3356643389031249  0.7351539341991462
  0.4579839649794705  0.3183700190443394  0.8078570280603536
  0.4084030572084597  0.3183663951382845  0.8078629537056534
  0.4529149953405763  0.3725774357988837  0.8462543054055761
  0.4777100066317618  0.3583650768145637  0.8057873667805271
  0.5024974839663768  0.3725813824892317  0.8462470977794904
  0.4776968459834511  0.3296981917522098  0.8462769037782548
  0.4331895991667348  0.3325832546204958  0.8483226378994904
  0.4332036255309535  0.3612486945262018  0.8078327020406846
  0.4529092719699979  0.3439507507613614  0.8805417215471920
  0.4974212101021145  0.3981617914219606  0.9189330732471145
  0.5222162213933000  0.3839494324376403  0.8784661346220655
  0.5470036987279151  0.3981657381123085  0.9189258656210287
  0.5222030607449895  0.3552825473752869  0.9189556716197932
  0.4776958139282735  0.3581676102435727  0.9210014057410287
  0.4777098402924913  0.3868330501492787  0.8805114698822230
  0.4579959392687010  0.3698302281628009  0.7351782602188154
  0.4084150314976901  0.3698266042567459  0.7351841858641148
  0.4529269696298068  0.4240376449173451  0.7735755375640375
  0.4777219809209927  0.4098252859330250  0.7331085989389885
  0.5025094582556077  0.4240415916076933  0.7735683299379518
  0.4777088202726820  0.3811584008706715  0.7735981359367164
  0.4332015734559657  0.3840434637389573  0.7756438700579520
  0.4332155998201839  0.4127089036446633  0.7351539341991462
  0.5025021540302397  0.3954145837858778  0.8078570280603536
  0.4529212462592289  0.3954109598798229  0.8078629537056534
  0.4974331843913455  0.4496220005404221  0.8462543054055761
  0.5222281956825310  0.4354096415561022  0.8057873667805271
  0.5470156730171460  0.4496259472307703  0.8462470977794904
  0.5222150350342203  0.4067427564937484  0.8462769037782548
  0.4777077882175040  0.4096278193620341  0.8483226378994904
  0.4777218145817227  0.4382932592677403  0.8078327020406846
  0.4974274610207671  0.4209953155028997  0.8805417215471920
  0.5419393991528838  0.4752063561634989  0.9189330732471145
  0.5667344104440697  0.4609939971791789  0.8784661346220655
  0.5915218877786848  0.4752103028538469  0.9189258656210287
  0.5667212497957587  0.4323271121168253  0.9189556716197932
  0.5222140029790427  0.4352121749851111  0.9210014057410287
  0.5222280293432610  0.4638776148908173  0.8805114698822230
  0.5419336757823059  0.4465796711259769  0.9532204893887304
  0.5667342441047992  0.4894619705138942  0.9531902377237615
  0.5025141283194706  0.4468747929043393  0.7351782602188154
  0.4529332205484597  0.4468711689982844  0.7351841858641148
  0.4974451586805760  0.5010822096588837  0.7735755375640375
  0.5222401699717619  0.4868698506745635  0.7331085989389885
  0.5470276473063770  0.5010861563492316  0.7735683299379518
  0.5222270093234512  0.4582029656122100  0.7735981359367164
  0.4777197625067349  0.4610880284804957  0.7756438700579520
  0.4777337888709531  0.4897534683862015  0.7351539341991462
  0.5470203430810089  0.4724591485274163  0.8078570280603536
  0.4974394353099981  0.4724555246213614  0.8078629537056534
  0.5419513734421147  0.5266665652819607  0.8462543054055761
  0.5667463847333002  0.5124542062976406  0.8057873667805271
  0.5915338620679157  0.5266705119723086  0.8462470977794904
  0.5667332240849896  0.4837873212352868  0.8462769037782548
  0.5222259772682732  0.4866723841035727  0.8483226378994904
  0.5222400036324919  0.5153378240092787  0.8078327020406846
  0.5915265578425473  0.4980435041504931  0.8805357959018922
  0.5419456500715364  0.4980398802444383  0.8805417215471920
  0.5864575882036530  0.5522509209050375  0.9189330732471145
  0.6112525994948389  0.5380385619207174  0.8784661346220655
  0.6360400768294540  0.5522548675953856  0.9189258656210287
  0.6112394388465279  0.5093716768583638  0.9189556716197932
  0.5667321920298120  0.5122567397266496  0.9210014057410287
  0.5667462183940302  0.5409221796323554  0.8805114698822230
  0.5470323173702398  0.5239193576458778  0.7351782602188154
  0.4974514095992290  0.5239157337398227  0.7351841858641148
  0.5419633477313456  0.5781267744004221  0.7735755375640375
  0.5667583590225311  0.5639144154161019  0.7331085989389885
  0.5915458363571462  0.5781307210907702  0.7735683299379518
  0.5667451983742195  0.5352475303537484  0.7735981359367164
  0.5222379515575046  0.5381325932220342  0.7756438700579520
  0.5222519779217224  0.5667980331277402  0.7351539341991462
  0.5915385321317781  0.5495037132689548  0.8078570280603536
  0.5419576243607673  0.5495000893628997  0.8078629537056534
  0.5864695624928840  0.6037111300234991  0.8462543054055761
  0.6112645737840694  0.5894987710391789  0.8057873667805271
  0.6360520511186849  0.6037150767138472  0.8462470977794904
  0.6112514131357584  0.5608318859768252  0.8462769037782548
  0.5667441663190425  0.5637169488451110  0.8483226378994904
  0.5667581926832611  0.5923823887508172  0.8078327020406846
  0.6360447468933169  0.5750880688920317  0.8805357959018922
  0.5864638391223056  0.5750844449859767  0.8805417215471920
  0.6309757772544222  0.6292954856465760  0.9189330732471145
  0.6557707885456082  0.6150831266622560  0.8784661346220655
  0.6557576278972971  0.5864162415999022  0.9189556716197932
  0.6112503810805812  0.5893013044681881  0.9210014057410287
  0.6112644074447994  0.6179667443738940  0.8805114698822230
  0.4134562030717781  0.1386965339381854  0.7351782602188154
  0.3638752953007672  0.1386929100321306  0.7351841858641148
  0.4331822447240698  0.1786915917084097  0.7331085989389885
  0.4579697220586844  0.1929078973830778  0.7735683299379518
  0.4331690840757587  0.1500247066460561  0.7735981359367164
  0.3886618372590429  0.1529097695143419  0.7756438700579520
  0.3886758636232611  0.1815752094200480  0.7351539341991462
  0.4579624178333168  0.1642808895612623  0.8078570280603536
  0.4528934481944222  0.2184883063158068  0.8462543054055761
  0.4776884594856081  0.2042759473314867  0.8057873667805271
  0.5024759368202232  0.2184922530061547  0.8462470977794904
  0.4579743921225473  0.2157410986797240  0.7351782602188154
  0.4083934843515360  0.2157374747736690  0.7351841858641148
  0.4529054224836531  0.2699485154342682  0.7735755375640375
  0.4777004337748386  0.2557361564499481  0.7331085989389885
  0.5024879111094536  0.2699524621246162  0.7735683299379518
  0.4776872731265284  0.2270692713875946  0.7735981359367164
  0.4331800263098121  0.2299543342558804  0.7756438700579520
  0.4331940526740303  0.2586197741615865  0.7351539341991462
  0.5024806068840860  0.2413254543028009  0.8078570280603536
  0.4528996991130748  0.2413218303967459  0.8078629537056534
  0.4974116372451914  0.2955328710573452  0.8462543054055761
  0.5222066485363769  0.2813205120730251  0.8057873667805271
  0.5469941258709924  0.2955368177476932  0.8462470977794904
  0.5221934878880666  0.2526536270106715  0.8462769037782548
  0.4776862410713503  0.2555386898789573  0.8483226378994904
  0.4777002674355686  0.2842041297846635  0.8078327020406846
  0.5469868216456243  0.2669098099258778  0.8805357959018922
  0.4974059138746130  0.2669061860198229  0.8805417215471920
  0.5419178520067301  0.3211172266804221  0.9189330732471145
  0.5667128632979156  0.3069048676961020  0.8784661346220655
  0.5222064821971069  0.3097884854077401  0.8805114698822230
  0.5024925811733165  0.2927856634212624  0.7351782602188154
  0.4529116734023056  0.2927820395152075  0.7351841858641148
  0.4974236115344223  0.3469930801758068  0.7735755375640375
  0.5222186228256083  0.3327807211914867  0.7331085989389885
  0.5470061001602229  0.3469970268661548  0.7735683299379518
  0.5222054621772971  0.3041138361291331  0.7735981359367164
  0.4776982153605813  0.3069988989974188  0.7756438700579520
  0.4777122417247995  0.3356643389031249  0.7351539341991462
  0.5469987959348552  0.3183700190443394  0.8078570280603536
  0.4974178881638444  0.3183663951382845  0.8078629537056534
  0.5667248375871465  0.3583650768145637  0.8057873667805271
  0.5915123149217616  0.3725813824892317  0.8462470977794904
  0.5667116769388358  0.3296981917522098  0.8462769037782548
  0.5222184564863378  0.3612486945262018  0.8078327020406846
  0.5915050106963935  0.3439543746674164  0.8805357959018922
  0.6112310523486848  0.3839494324376403  0.8784661346220655
  0.6360185296832999  0.3981657381123085  0.9189258656210287
  0.6112178917003742  0.3552825473752869  0.9189556716197932
  0.5667106448836583  0.3581676102435727  0.9210014057410287
  0.5470107702240857  0.3698302281628009  0.7351782602188154
  0.4974298624530745  0.3698266042567459  0.7351841858641148
  0.5419418005851915  0.4240376449173451  0.7735755375640375
  0.5667368118763775  0.4098252859330250  0.7331085989389885
  0.5915242892109921  0.4240415916076933  0.7735683299379518
  0.5667236512280663  0.3811584008706715  0.7735981359367164
  0.5222164044113505  0.3840434637389573  0.7756438700579520
  0.5222304307755687  0.4127089036446633  0.7351539341991462
  0.5915169849856244  0.3954145837858778  0.8078570280603536
  0.5419360772146136  0.3954109598798229  0.8078629537056534
  0.5864480153467303  0.4496220005404221  0.8462543054055761
  0.6112430266379157  0.4354096415561022  0.8057873667805271
  0.6360305039725308  0.4496259472307703  0.8462470977794904
  0.6112298659896052  0.4067427564937484  0.8462769037782548
  0.5667226191728888  0.4096278193620341  0.8483226378994904
  0.5667366455371070  0.4382932592677403  0.8078327020406846
  0.6360231997471628  0.4209989394089547  0.8805357959018922
  0.6309542301082686  0.4752063561634989  0.9189330732471145
  0.6557492413994545  0.4609939971791789  0.8784661346220655
  0.6805367187340695  0.4752103028538469  0.9189258656210287
  0.6557360807511434  0.4323271121168253  0.9189556716197932
  0.6112288339344275  0.4352121749851111  0.9210014057410287
  0.6112428602986457  0.4638776148908173  0.8805114698822230
  0.5915289592748554  0.4468747929043393  0.7351782602188154
  0.5419480515038441  0.4468711689982844  0.7351841858641148
  0.5864599896359607  0.5010822096588837  0.7735755375640375
  0.6112550009271467  0.4868698506745635  0.7331085989389885
  0.6360424782617613  0.5010861563492316  0.7735683299379518
  0.6112418402788360  0.4582029656122100  0.7735981359367164
  0.5667345934621197  0.4610880284804957  0.7756438700579520
  0.5667486198263380  0.4897534683862015  0.7351539341991462
  0.6360351740363936  0.4724591485274163  0.8078570280603536
  0.5864542662653829  0.4724555246213614  0.8078629537056534
  0.6309662043974991  0.5266665652819607  0.8462543054055761
  0.6557612156886850  0.5124542062976406  0.8057873667805271
  0.6805486930233000  0.5266705119723086  0.8462470977794904
  0.6557480550403744  0.4837873212352868  0.8462769037782548
  0.6112408082236580  0.4866723841035727  0.8483226378994904
  0.6112548345878762  0.5153378240092787  0.8078327020406846
  0.6805413887979320  0.4980435041504931  0.8805357959018922
  0.6309604810269211  0.4980398802444383  0.8805417215471920
  0.6754724191590378  0.5522509209050375  0.9189330732471145
  0.7002674304502238  0.5380385619207174  0.8784661346220655
  0.6557470229851967  0.5122567397266496  0.9210014057410287
  0.6557610493494149  0.5409221796323554  0.8805114698822230
  0.6360471483256246  0.5239193576458778  0.7351782602188154
  0.5864662405546133  0.5239157337398227  0.7351841858641148
  0.6309781786867300  0.5781267744004221  0.7735755375640375
  0.6557731899779159  0.5639144154161019  0.7331085989389885
  0.6805606673125310  0.5781307210907702  0.7735683299379518
  0.6557600293296049  0.5352475303537484  0.7735981359367164
  0.6112527825128889  0.5381325932220342  0.7756438700579520
  0.6112668088771072  0.5667980331277402  0.7351539341991462
  0.6805533630871629  0.5495037132689548  0.8078570280603536
  0.6309724553161521  0.5495000893628997  0.8078629537056534
  0.6754843934482683  0.6037111300234991  0.8462543054055761
  0.7002794047394542  0.5894987710391789  0.8057873667805271
  0.7250668820740697  0.6037150767138472  0.8462470977794904
  0.7002662440911436  0.5608318859768252  0.8462769037782548
  0.6557589972744272  0.5637169488451110  0.8483226378994904
  0.6557730236386454  0.5923823887508172  0.8078327020406846
  0.7250595778487012  0.5750880688920317  0.8805357959018922
  0.6754786700776904  0.5750844449859767  0.8805417215471920
  0.7002792384001841  0.6179667443738940  0.8805114698822230
  0.5024710340271629  0.1386965339381854  0.7351782602188154
  0.4528901262561520  0.1386929100321306  0.7351841858641148
  0.4974020643882686  0.1929039506927298  0.7735755375640375
  0.5221970756794546  0.1786915917084097  0.7331085989389885
  0.5469845530140691  0.1929078973830778  0.7735683299379518
  0.5221839150311435  0.1500247066460561  0.7735981359367164
  0.4776766682144276  0.1529097695143419  0.7756438700579520
  0.4776906945786454  0.1815752094200480  0.7351539341991462
  0.5469772487887016  0.1642808895612623  0.8078570280603536
  0.4973963410176903  0.1642772656552075  0.8078629537056534
  0.5419082791498069  0.2184883063158068  0.8462543054055761
  0.5667032904409933  0.2042759473314867  0.8057873667805271
  0.5914907677756075  0.2184922530061547  0.8462470977794904
  0.5221969093401846  0.2071595650431249  0.8078327020406846
  0.5469892230779321  0.2157410986797240  0.7351782602188154
  0.4974083153069208  0.2157374747736690  0.7351841858641148
  0.5419202534390378  0.2699485154342682  0.7735755375640375
  0.5667152647302234  0.2557361564499481  0.7331085989389885
  0.5915027420648384  0.2699524621246162  0.7735683299379518
  0.5667021040819127  0.2270692713875946  0.7735981359367164
  0.5221948572651968  0.2299543342558804  0.7756438700579520
  0.5222088836294146  0.2586197741615865  0.7351539341991462
  0.5914954378394708  0.2413254543028009  0.8078570280603536
  0.5419145300684595  0.2413218303967459  0.8078629537056534
  0.5864264682005762  0.2955328710573452  0.8462543054055761
  0.6112214794917616  0.2813205120730251  0.8057873667805271
  0.6360089568263767  0.2955368177476932  0.8462470977794904
  0.6112083188434511  0.2526536270106715  0.8462769037782548
  0.5667010720267347  0.2555386898789573  0.8483226378994904
  0.5667150983909538  0.2842041297846635  0.8078327020406846
  0.5864207448299978  0.2669061860198229  0.8805417215471920
  0.6557276942533004  0.3069048676961020  0.8784661346220655
  0.6112213131524916  0.3097884854077401  0.8805114698822230
  0.5915074121287013  0.2927856634212624  0.7351782602188154
  0.5419265043576904  0.2927820395152075  0.7351841858641148
  0.5864384424898070  0.3469930801758068  0.7735755375640375
  0.6112334537809926  0.3327807211914867  0.7331085989389885
  0.6360209311156076  0.3469970268661548  0.7735683299379518
  0.6112202931326819  0.3041138361291331  0.7735981359367164
  0.5667130463159661  0.3069988989974188  0.7756438700579520
  0.5667270726801839  0.3356643389031249  0.7351539341991462
  0.6360136268902400  0.3183700190443394  0.8078570280603536
  0.5864327191192288  0.3183663951382845  0.8078629537056534
  0.6309446572513454  0.3725774357988837  0.8462543054055761
  0.6557396685425313  0.3583650768145637  0.8057873667805271
  0.6805271458771464  0.3725813824892317  0.8462470977794904
  0.6557265078942203  0.3296981917522098  0.8462769037782548
  0.6112192610775043  0.3325832546204958  0.8483226378994904
  0.6112332874417230  0.3612486945262018  0.8078327020406846
  0.6805198416517784  0.3439543746674164  0.8805357959018922
  0.6309389338807675  0.3439507507613614  0.8805417215471920
  0.7002458833040700  0.3839494324376403  0.8784661346220655
  0.6557395022032608  0.3868330501492787  0.8805114698822230
  0.6360256011794705  0.3698302281628009  0.7351782602188154
  0.5864446934084592  0.3698266042567459  0.7351841858641148
  0.6309566315405762  0.4240376449173451  0.7735755375640375
  0.6557516428317618  0.4098252859330250  0.7331085989389885
  0.6805391201663769  0.4240415916076933  0.7735683299379518
  0.6557384821834511  0.3811584008706715  0.7735981359367164
  0.6112312353667353  0.3840434637389573  0.7756438700579520
  0.6112452617309531  0.4127089036446633  0.7351539341991462
  0.6805318159410092  0.3954145837858778  0.8078570280603536
  0.6309509081699980  0.3954109598798229  0.8078629537056534
  0.6754628463021146  0.4496220005404221  0.8462543054055761
  0.7002578575933005  0.4354096415561022  0.8057873667805271
  0.7250453349279151  0.4496259472307703  0.8462470977794904
  0.7002446969449895  0.4067427564937484  0.8462769037782548
  0.6557374501282731  0.4096278193620341  0.8483226378994904
  0.6557514764924913  0.4382932592677403  0.8078327020406846
  0.7250380307025476  0.4209989394089547  0.8805357959018922
  0.6754571229315363  0.4209953155028997  0.8805417215471920
  0.7447640723548389  0.4609939971791789  0.8784661346220655
  0.7002576912540300  0.4638776148908173  0.8805114698822230
  0.6805437902302397  0.4468747929043393  0.7351782602188154
  0.6309628824592288  0.4468711689982844  0.7351841858641148
  0.6754748205913456  0.5010822096588837  0.7735755375640375
  0.7002698318825310  0.4868698506745635  0.7331085989389885
  0.7250573092171461  0.5010861563492316  0.7735683299379518
  0.7002566712342204  0.4582029656122100  0.7735981359367164
  0.6557494244175045  0.4610880284804957  0.7756438700579520
  0.6557634507817223  0.4897534683862015  0.7351539341991462
  0.7250500049917784  0.4724591485274163  0.8078570280603536
  0.6754690972207672  0.4724555246213614  0.8078629537056534
  0.7199810353528838  0.5266665652819607  0.8462543054055761
  0.7447760466440693  0.5124542062976406  0.8057873667805271
  0.7695635239786848  0.5266705119723086  0.8462470977794904
  0.7447628859957587  0.4837873212352868  0.8462769037782548
  0.7002556391790423  0.4866723841035727  0.8483226378994904
  0.7002696655432610  0.5153378240092787  0.8078327020406846
  0.7199753119823059  0.4980398802444383  0.8805417215471920
  0.7447758803047994  0.5409221796323554  0.8805114698822230
  0.7250619792810089  0.5239193576458778  0.7351782602188154
  0.6754810715099981  0.5239157337398227  0.7351841858641148
  0.7199930096421148  0.5781267744004221  0.7735755375640375
  0.7447880209333002  0.5639144154161019  0.7331085989389885
  0.7695754982679153  0.5781307210907702  0.7735683299379518
  0.7447748602849892  0.5352475303537484  0.7735981359367164
  0.7002676134682737  0.5381325932220342  0.7756438700579520
  0.7002816398324915  0.5667980331277402  0.7351539341991462
  0.7695681940425477  0.5495037132689548  0.8078570280603536
  0.7199872862715364  0.5495000893628997  0.8078629537056534
  0.7644992244036530  0.6037111300234991  0.8462543054055761
  0.7892942356948386  0.5894987710391789  0.8057873667805271
  0.7892810750465274  0.5608318859768252  0.8462769037782548
  0.7447738282298115  0.5637169488451110  0.8483226378994904
  0.7447878545940302  0.5923823887508172  0.8078327020406846
  0.5914858649825476  0.1386965339381854  0.7351782602188154
  0.5419049572115363  0.1386929100321306  0.7351841858641148
  0.5864168953436529  0.1929039506927298  0.7735755375640375
  0.6112119066348389  0.1786915917084097  0.7331085989389885
  0.6359993839694540  0.1929078973830778  0.7735683299379518
  0.6111987459865278  0.1500247066460561  0.7735981359367164
  0.5666914991698120  0.1529097695143419  0.7756438700579520
  0.5667055255340302  0.1815752094200480  0.7351539341991462
  0.6557181213963776  0.2042759473314867  0.8057873667805271
  0.6112117402955689  0.2071595650431249  0.8078327020406846
  0.6360040540333168  0.2157410986797240  0.7351782602188154
  0.5864231462623055  0.2157374747736690  0.7351841858641148
  0.6309350843944221  0.2699485154342682  0.7735755375640375
  0.6557300956856077  0.2557361564499481  0.7331085989389885
  0.6805175730202232  0.2699524621246162  0.7735683299379518
  0.6557169350372970  0.2270692713875946  0.7735981359367164
  0.6112096882205812  0.2299543342558804  0.7756438700579520
  0.6112237145847994  0.2586197741615865  0.7351539341991462
  0.6805102687948551  0.2413254543028009  0.8078570280603536
  0.6309293610238443  0.2413218303967459  0.8078629537056534
  0.6754412991559605  0.2955328710573452  0.8462543054055761
  0.7002363104471464  0.2813205120730251  0.8057873667805271
  0.7250237877817615  0.2955368177476932  0.8462470977794904
  0.6557159029821195  0.2555386898789573  0.8483226378994904
  0.6557299293463377  0.2842041297846635  0.8078327020406846
  0.6805222430840856  0.2927856634212624  0.7351782602188154
  0.6309413353130752  0.2927820395152075  0.7351841858641148
  0.6754532734451915  0.3469930801758068  0.7735755375640375
  0.7002482847363773  0.3327807211914867  0.7331085989389885
  0.7250357620709924  0.3469970268661548  0.7735683299379518
  0.7002351240880662  0.3041138361291331  0.7735981359367164
  0.6557278772713504  0.3069988989974188  0.7756438700579520
  0.6557419036355686  0.3356643389031249  0.7351539341991462
  0.7250284578456243  0.3183700190443394  0.8078570280603536
  0.6754475500746135  0.3183663951382845  0.8078629537056534
  0.7199594882067297  0.3725774357988837  0.8462543054055761
  0.7447544994979156  0.3583650768145637  0.8057873667805271
  0.7002340920328887  0.3325832546204958  0.8483226378994904
  0.7002481183971069  0.3612486945262018  0.8078327020406846
  0.7250404321348553  0.3698302281628009  0.7351782602188154
  0.6754595243638439  0.3698266042567459  0.7351841858641148
  0.7199714624959607  0.4240376449173451  0.7735755375640375
  0.7447664737871466  0.4098252859330250  0.7331085989389885
  0.7695539511217616  0.4240415916076933  0.7735683299379518
  0.7447533131388355  0.3811584008706715  0.7735981359367164
  0.7002460663221196  0.3840434637389573  0.7756438700579520
  0.7002600926863378  0.4127089036446633  0.7351539341991462
  0.7199657391253828  0.3954109598798229  0.8078629537056534
  0.7644776772574989  0.4496220005404221  0.8462543054055761
  0.7892726885486848  0.4354096415561022  0.8057873667805271
  0.7447522810836579  0.4096278193620341  0.8483226378994904
  0.7447663074478761  0.4382932592677403  0.8078327020406846
  0.7695586211856245  0.4468747929043393  0.7351782602188154
  0.7199777134146136  0.4468711689982844  0.7351841858641148
  0.7644896515467299  0.5010822096588837  0.7735755375640375
  0.7892846628379158  0.4868698506745635  0.7331085989389885
  0.8140721401725308  0.5010861563492316  0.7735683299379518
  0.7892715021896052  0.4582029656122100  0.7735981359367164
  0.7447642553728893  0.4610880284804957  0.7756438700579520
  0.7447782817371070  0.4897534683862015  0.7351539341991462
  0.8140648359471628  0.4724591485274163  0.8078570280603536
  0.7644839281761520  0.4724555246213614  0.8078629537056534
  0.8337908775994545  0.5124542062976406  0.8057873667805271
  0.7892704701344271  0.4866723841035727  0.8483226378994904
  0.7892844964986457  0.5153378240092787  0.8078327020406846
  0.8140768102363937  0.5239193576458778  0.7351782602188154
  0.7644959024653829  0.5239157337398227  0.7351841858641148
  0.8090078405974995  0.5781267744004221  0.7735755375640375
  0.8338028518886850  0.5639144154161019  0.7331085989389885
  0.8585903292233000  0.5781307210907702  0.7735683299379518
  0.8337896912403739  0.5352475303537484  0.7735981359367164
  0.7892824444236585  0.5381325932220342  0.7756438700579520
  0.7892964707878762  0.5667980331277402  0.7351539341991462
  0.8090021172269212  0.5495000893628997  0.8078629537056534
  0.1464763516440861  0.6009639223874162  0.7351782602188154
  0.1909898706309920  0.6551752858323084  0.7735683299379518
  0.1661892326480663  0.6122920950952869  0.7735981359367164
  0.1909825664056244  0.6265482780104932  0.8078570280603536
  0.2107086080579157  0.6665433357807173  0.8057873667805271
  0.2107205823471466  0.7180035448991788  0.7331085989389885
  0.2355080596817612  0.7322198505738471  0.7735683299379518
  0.2107074216988355  0.6893366598368251  0.7735981359367164
  0.2355007554563936  0.7035928427520317  0.8078570280603536
  0.2552267971086849  0.7435879005222558  0.8057873667805271
  0.2355127297456241  0.7550530518704932  0.7351782602188154
  0.2552387713979158  0.7950481096407174  0.7331085989389885
  0.2552256107496047  0.7663812245783638  0.7735981359367164
  0.2354911825994704  0.6009639223874162  0.7351782602188154
  0.1859102748284596  0.6009602984813612  0.7351841858641148
  0.2304222129605762  0.6551713391419607  0.7735755375640375
  0.2552172242517621  0.6409589801576404  0.7331085989389885
  0.2800047015863767  0.6551752858323084  0.7735683299379518
  0.2552040636034510  0.6122920950952869  0.7735981359367164
  0.2106968167867352  0.6151771579635725  0.7756438700579520
  0.2799973973610091  0.6265482780104932  0.8078570280603536
  0.2304164895899979  0.6265446541044383  0.8078629537056534
  0.2749284277221145  0.6807556947650376  0.8462543054055761
  0.2997234390133005  0.6665433357807173  0.8057873667805271
  0.3245109163479155  0.6807596414553856  0.8462470977794904
  0.2997102783649894  0.6378764507183637  0.8462769037782548
  0.2552030315482735  0.6407615135866495  0.8483226378994904
  0.2552170579124917  0.6694269534923555  0.8078327020406846
  0.3245036121225475  0.6521326336335700  0.8805357959018922
  0.3442296537748392  0.6921276914037945  0.8784661346220655
  0.2800093716502396  0.6780084871289545  0.7351782602188154
  0.2304284638792288  0.6780048632228997  0.7351841858641148
  0.2749404020113454  0.7322159038834990  0.7735755375640375
  0.2997354133025313  0.7180035448991788  0.7331085989389885
  0.3245228906371460  0.7322198505738471  0.7735683299379518
  0.2997222526542203  0.6893366598368251  0.7735981359367164
  0.2552150058375044  0.6922217227051112  0.7756438700579520
  0.2552290322017226  0.7208871626108172  0.7351539341991462
  0.3245155864117784  0.7035928427520317  0.8078570280603536
  0.2749346786407671  0.7035892188459765  0.8078629537056534
  0.3442416280640697  0.7435879005222558  0.8057873667805271
  0.3690291053986847  0.7578042061969239  0.8462470977794904
  0.3442284674157586  0.7149210154599021  0.8462769037782548
  0.2997212205990427  0.7178060783281880  0.8483226378994904
  0.2997352469632609  0.7464715182338941  0.8078327020406846
  0.3245275607010089  0.7550530518704932  0.7351782602188154
  0.2749466529299980  0.7550494279644382  0.7351841858641148
  0.3194585910621147  0.8092604686250374  0.7735755375640375
  0.3442536023533006  0.7950481096407174  0.7331085989389885
  0.3690410796879152  0.8092644153153854  0.7735683299379518
  0.3442404417049895  0.7663812245783638  0.7735981359367164
  0.2997331948882736  0.7692662874466495  0.7756438700579520
  0.2997472212524918  0.7979317273523554  0.7351539341991462
  0.3690337754625476  0.7806374074935701  0.8078570280603536
  0.3194528676915363  0.7806337835875151  0.8078629537056534
  0.3887598171148389  0.8206324652637943  0.8057873667805271
  0.3690457497517781  0.8320976166120315  0.7351782602188154
  0.3194648419807672  0.8320939927059768  0.7351841858641148
  0.3887717914040698  0.8720926743822558  0.7331085989389885
  0.3887586307557587  0.8434257893199021  0.7735981359367164
  0.3245060135548552  0.6009639223874162  0.7351782602188154
  0.2749251057838439  0.6009602984813612  0.7351841858641148
  0.3194370439159609  0.6551713391419607  0.7735755375640375
  0.3442320552071465  0.6409589801576404  0.7331085989389885
  0.3690195325417615  0.6551752858323084  0.7735683299379518
  0.3442188945588358  0.6122920950952869  0.7735981359367164
  0.2997116477421199  0.6151771579635725  0.7756438700579520
  0.2997256741063377  0.6438425978692787  0.7351539341991462
  0.3690122283163939  0.6265482780104932  0.8078570280603536
  0.3194313205453826  0.6265446541044383  0.8078629537056534
  0.3639432586774993  0.6807556947650376  0.8462543054055761
  0.3887382699686852  0.6665433357807173  0.8057873667805271
  0.4135257473032998  0.6807596414553856  0.8462470977794904
  0.3887251093203741  0.6378764507183637  0.8462769037782548
  0.3442178625036578  0.6407615135866495  0.8483226378994904
  0.3442318888678765  0.6694269534923555  0.8078327020406846
  0.4135184430779318  0.6521326336335700  0.8805357959018922
  0.3639375353069209  0.6521290097275153  0.8805417215471920
  0.4332444847302235  0.6921276914037945  0.8784661346220655
  0.4332313240819128  0.6634608063414408  0.9189556716197932
  0.3887381036294147  0.6950113091154324  0.8805114698822230
  0.3690242026056244  0.6780084871289545  0.7351782602188154
  0.3194432948346135  0.6780048632228997  0.7351841858641148
  0.3639552329667298  0.7322159038834990  0.7735755375640375
  0.3887502442579157  0.7180035448991788  0.7331085989389885
  0.4135377215925307  0.7322198505738471  0.7735683299379518
  0.3887370836096050  0.6893366598368251  0.7735981359367164
  0.3442298367928892  0.6922217227051112  0.7756438700579520
  0.3442438631571069  0.7208871626108172  0.7351539341991462
  0.4135304173671627  0.7035928427520317  0.8078570280603536
  0.3639495095961519  0.7035892188459765  0.8078629537056534
  0.4084614477282685  0.7578002595065761  0.8462543054055761
  0.4332564590194540  0.7435879005222558  0.8057873667805271
  0.4580439363540690  0.7578042061969239  0.8462470977794904
  0.4332432983711433  0.7149210154599021  0.8462769037782548
  0.3887360515544270  0.7178060783281880  0.8483226378994904
  0.3887500779186452  0.7464715182338941  0.8078327020406846
  0.4580366321287010  0.7291771983751086  0.8805357959018922
  0.4084557243576901  0.7291735744690534  0.8805417215471920
  0.4135423916563936  0.7550530518704932  0.7351782602188154
  0.3639614838853827  0.7550494279644382  0.7351841858641148
  0.4084734220174990  0.8092604686250374  0.7735755375640375
  0.4332684333086849  0.7950481096407174  0.7331085989389885
  0.4580559106432999  0.8092644153153854  0.7735683299379518
  0.4332552726603743  0.7663812245783638  0.7735981359367164
  0.3887480258436584  0.7692662874466495  0.7756438700579520
  0.3887620522078762  0.7979317273523554  0.7351539341991462
  0.4580486064179319  0.7806374074935701  0.8078570280603536
  0.4084676986469211  0.7806337835875151  0.8078629537056534
  0.4777746480702232  0.8206324652637943  0.8057873667805271
  0.4777614874219125  0.7919655802014407  0.8462769037782548
  0.4332542406051962  0.7948506430697266  0.8483226378994904
  0.4332682669694149  0.8235160829754327  0.8078327020406846
  0.4580605807071628  0.8320976166120315  0.7351782602188154
  0.4084796729361520  0.8320939927059768  0.7351841858641148
  0.4777866223594541  0.8720926743822558  0.7331085989389885
  0.4777734617111435  0.8434257893199021  0.7735981359367164
  0.4332662148944276  0.8463108521881881  0.7756438700579520
  0.4332802412586454  0.8749762920938942  0.7351539341991462
  0.4135208445102395  0.6009639223874162  0.7351782602188154
  0.3639399367392286  0.6009602984813612  0.7351841858641148
  0.4084518748713453  0.6551713391419607  0.7735755375640375
  0.4332468861625313  0.6409589801576404  0.7331085989389885
  0.4580343634971458  0.6551752858323084  0.7735683299379518
  0.4332337255142206  0.6122920950952869  0.7735981359367164
  0.3887264786975043  0.6151771579635725  0.7756438700579520
  0.3887405050617225  0.6438425978692787  0.7351539341991462
  0.4580270592717782  0.6265482780104932  0.8078570280603536
  0.4084461515007670  0.6265446541044383  0.8078629537056534
  0.4529580896328836  0.6807556947650376  0.8462543054055761
  0.4777531009240695  0.6665433357807173  0.8057873667805271
  0.5025405782586846  0.6807596414553856  0.8462470977794904
  0.4777399402757589  0.6378764507183637  0.8462769037782548
  0.4332326934590426  0.6407615135866495  0.8483226378994904
  0.4332467198232608  0.6694269534923555  0.8078327020406846
  0.4529523662623057  0.6521290097275153  0.8805417215471920
  0.5222593156856078  0.6921276914037945  0.8784661346220655
  0.4777389082205813  0.6663458692097266  0.9210014057410287
  0.4777529345847991  0.6950113091154324  0.8805114698822230
  0.4580390335610087  0.6780084871289545  0.7351782602188154
  0.4084581257899979  0.6780048632228997  0.7351841858641148
  0.4529700639221145  0.7322159038834990  0.7735755375640375
  0.4777650752133005  0.7180035448991788  0.7331085989389885
  0.5025525525479151  0.7322198505738471  0.7735683299379518
  0.4777519145649894  0.6893366598368251  0.7735981359367164
  0.4332446677482735  0.6922217227051112  0.7756438700579520
  0.4332586941124917  0.7208871626108172  0.7351539341991462
  0.4529643405515362  0.7035892188459765  0.8078629537056534
  0.4974762786836529  0.7578002595065761  0.8462543054055761
  0.5222712899748387  0.7435879005222558  0.8057873667805271
  0.5470587673094538  0.7578042061969239  0.8462470977794904
  0.5222581293265282  0.7149210154599021  0.8462769037782548
  0.4777508825098118  0.7178060783281880  0.8483226378994904
  0.4777649088740304  0.7464715182338941  0.8078327020406846
  0.5470514630840858  0.7291771983751086  0.8805357959018922
  0.4974705553130749  0.7291735744690534  0.8805417215471920
  0.5025572226117779  0.7550530518704932  0.7351782602188154
  0.4529763148407671  0.7550494279644382  0.7351841858641148
  0.4974882529728837  0.8092604686250374  0.7735755375640375
  0.5222832642640697  0.7950481096407174  0.7331085989389885
  0.5470707415986843  0.8092644153153854  0.7735683299379518
  0.5222701036157585  0.7663812245783638  0.7735981359367164
  0.4777628567990427  0.7692662874466495  0.7756438700579520
  0.4777768831632605  0.7979317273523554  0.7351539341991462
  0.5470634373733166  0.7806374074935701  0.8078570280603536
  0.4974825296023054  0.7806337835875151  0.8078629537056534
  0.5667894790256079  0.8206324652637943  0.8057873667805271
  0.5667763183772969  0.7919655802014407  0.8462769037782548
  0.5222690715605810  0.7948506430697266  0.8483226378994904
  0.5222830979247997  0.8235160829754327  0.8078327020406846
  0.5470754116625471  0.8320976166120315  0.7351782602188154
  0.4974945038915363  0.8320939927059768  0.7351841858641148
  0.5668014533148389  0.8720926743822558  0.7331085989389885
  0.5667882926665279  0.8434257893199021  0.7735981359367164
  0.5222810458498119  0.8463108521881881  0.7756438700579520
  0.5222950722140302  0.8749762920938942  0.7351539341991462
  0.5025356754656243  0.6009639223874162  0.7351782602188154
  0.4529547676946135  0.6009602984813612  0.7351841858641148
  0.4974667058267301  0.6551713391419607  0.7735755375640375
  0.5222617171179156  0.6409589801576404  0.7331085989389885
  0.5470491944525306  0.6551752858323084  0.7735683299379518
  0.5222485564696049  0.6122920950952869  0.7735981359367164
  0.4777413096528890  0.6151771579635725  0.7756438700579520
  0.4777553360171068  0.6438425978692787  0.7351539341991462
  0.5470418902271630  0.6265482780104932  0.8078570280603536
  0.4974609824561517  0.6265446541044383  0.8078629537056534
  0.5419729205882684  0.6807556947650376  0.8462543054055761
  0.5667679318794543  0.6665433357807173  0.8057873667805271
  0.5915554092140689  0.6807596414553856  0.8462470977794904
  0.5667547712311433  0.6378764507183637  0.8462769037782548
  0.5222475244144273  0.6407615135866495  0.8483226378994904
  0.5222615507786456  0.6694269534923555  0.8078327020406846
  0.5915481049887014  0.6521326336335700  0.8805357959018922
  0.6112741466409927  0.6921276914037945  0.8784661346220655
  0.5667537391759656  0.6663458692097266  0.9210014057410287
  0.5667677655401838  0.6950113091154324  0.8805114698822230
  0.5470538645163935  0.6780084871289545  0.7351782602188154
  0.4974729567453827  0.6780048632228997  0.7351841858641148
  0.5667799061686848  0.7180035448991788  0.7331085989389885
  0.5915673835032998  0.7322198505738471  0.7735683299379518
  0.5667667455203741  0.6893366598368251  0.7735981359367164
  0.5222735250678761  0.7208871626108172  0.7351539341991462
  0.5915600792779317  0.7035928427520317  0.8078570280603536
  0.5864911096390376  0.7578002595065761  0.8462543054055761
  0.6112861209302231  0.7435879005222558  0.8057873667805271
  0.6360735982648386  0.7578042061969239  0.8462470977794904
  0.6112729602819125  0.7149210154599021  0.8462769037782548
  0.5667657134651966  0.7178060783281880  0.8483226378994904
  0.5667797398294148  0.7464715182338941  0.8078327020406846
  0.5864853862684593  0.7291735744690534  0.8805417215471920
  0.5915720535671627  0.7550530518704932  0.7351782602188154
  0.5419911457961518  0.7550494279644382  0.7351841858641148
  0.5865030839282686  0.8092604686250374  0.7735755375640375
  0.6112980952194540  0.7950481096407174  0.7331085989389885
  0.6112849345711434  0.7663812245783638  0.7735981359367164
  0.5667776877544275  0.7692662874466495  0.7756438700579520
  0.5667917141186453  0.7979317273523554  0.7351539341991462
  0.6360782683287015  0.7806374074935701  0.8078570280603536
  0.5864973605576902  0.7806337835875151  0.8078629537056534
  0.6112979288801844  0.8235160829754327  0.8078327020406846
  0.6360902426179319  0.8320976166120315  0.7351782602188154
  0.5865093348469211  0.8320939927059768  0.7351841858641148
  0.6112958768051967  0.8463108521881881  0.7756438700579520
  0.6113099031694149  0.8749762920938942  0.7351539341991462
  0.5915505064210090  0.6009639223874162  0.7351782602188154
  0.5419695986499977  0.6009602984813612  0.7351841858641148
  0.5864815367821145  0.6551713391419607  0.7735755375640375
  0.6112765480733003  0.6409589801576404  0.7331085989389885
  0.6360640254079154  0.6551752858323084  0.7735683299379518
  0.6112633874249896  0.6122920950952869  0.7735981359367164
  0.5667561406082734  0.6151771579635725  0.7756438700579520
  0.5667701669724916  0.6438425978692787  0.7351539341991462
  0.6360567211825473  0.6265482780104932  0.8078570280603536
  0.5864758134115365  0.6265446541044383  0.8078629537056534
  0.6309877515436532  0.6807556947650376  0.8462543054055761
  0.6557827628348386  0.6665433357807173  0.8057873667805271
  0.6805702401694537  0.6807596414553856  0.8462470977794904
  0.6557696021865280  0.6378764507183637  0.8462769037782548
  0.6112623553698117  0.6407615135866495  0.8483226378994904
  0.6112763817340303  0.6694269534923555  0.8078327020406846
  0.6309820281730748  0.6521290097275153  0.8805417215471920
  0.6557825964955686  0.6950113091154324  0.8805114698822230
  0.6360686954717778  0.6780084871289545  0.7351782602188154
  0.5864877877007670  0.6780048632228997  0.7351841858641148
  0.6309997258328837  0.7322159038834990  0.7735755375640375
  0.6557947371240695  0.7180035448991788  0.7331085989389885
  0.6805822144586846  0.7322198505738471  0.7735683299379518
  0.6112743296590426  0.6922217227051112  0.7756438700579520
  0.6112883560232608  0.7208871626108172  0.7351539341991462
  0.6309940024623057  0.7035892188459765  0.8078629537056534
  0.7003009518856079  0.7435879005222558  0.8057873667805271
  0.7002877912372972  0.7149210154599021  0.8462769037782548
  0.6557805444205809  0.7178060783281880  0.8483226378994904
  0.6557945707847995  0.7464715182338941  0.8078327020406846
  0.6805868845225475  0.7550530518704932  0.7351782602188154
  0.6310059767515362  0.7550494279644382  0.7351841858641148
  0.7003129261748388  0.7950481096407174  0.7331085989389885
  0.7002997655265282  0.7663812245783638  0.7735981359367164
  0.6557925187098118  0.7692662874466495  0.7756438700579520
  0.6558065450740300  0.7979317273523554  0.7351539341991462
  0.6755241658023055  0.8320939927059768  0.7351841858641148
  0.6805653373763934  0.6009639223874162  0.7351782602188154
  0.6309844296053826  0.6009602984813612  0.7351841858641148
  0.7002913790286851  0.6409589801576404  0.7331085989389885
  0.7250788563632997  0.6551752858323084  0.7735683299379518
  0.7002782183803741  0.6122920950952869  0.7735981359367164
  0.6557709715636582  0.6151771579635725  0.7756438700579520
  0.6557849979278764  0.6438425978692787  0.7351539341991462
  0.7250715521379322  0.6265482780104932  0.8078570280603536
  0.6754906443669209  0.6265446541044383  0.8078629537056534
  0.7447975937902234  0.6665433357807173  0.8057873667805271
  0.7447844331419123  0.6378764507183637  0.8462769037782548
  0.7002771863251964  0.6407615135866495  0.8483226378994904
  0.7002912126894146  0.6694269534923555  0.8078327020406846
  0.7250835264271626  0.6780084871289545  0.7351782602188154
  0.6755026186561518  0.6780048632228997  0.7351841858641148
  0.7200145567882684  0.7322159038834990  0.7735755375640375
  0.7448095680794543  0.7180035448991788  0.7331085989389885
  0.7695970454140689  0.7322198505738471  0.7735683299379518
  0.7447964074311433  0.6893366598368251  0.7735981359367164
  0.7003031869786456  0.7208871626108172  0.7351539341991462
  0.7695897411887014  0.7035928427520317  0.8078570280603536
  0.7200088334176901  0.7035892188459765  0.8078629537056534
  0.7696017154779319  0.7550530518704932  0.7351782602188154
  0.7200208077069210  0.7550494279644382  0.7351841858641148
  0.7448073496651966  0.7692662874466495  0.7756438700579520
  0.7448213760294148  0.7979317273523554  0.7351539341991462
  0.7695801683317781  0.6009639223874162  0.7351782602188154
  0.7199992605607674  0.6009602984813612  0.7351841858641148
  0.7645111986928840  0.6551713391419607  0.7735755375640375
  0.7893062099840694  0.6409589801576404  0.7331085989389885
  0.8140936873186845  0.6551752858323084  0.7735683299379518
  0.7892930493357588  0.6122920950952869  0.7735981359367164
  0.7447858025190429  0.6151771579635725  0.7756438700579520
  0.7447998288832607  0.6438425978692787  0.7351539341991462
  0.8140863830933169  0.6265482780104932  0.8078570280603536
  0.7645054753223056  0.6265446541044383  0.8078629537056534
  0.7893060436447998  0.6694269534923555  0.8078327020406846
  0.8140983573825473  0.6780084871289545  0.7351782602188154
  0.7645174496115366  0.6780048632228997  0.7351841858641148
  0.7893039915698121  0.6922217227051112  0.7756438700579520
  0.7893180179340299  0.7208871626108172  0.7351539341991462
  0.8585949992871629  0.6009639223874162  0.7351782602188154
  0.8090140915161517  0.6009602984813612  0.7351841858641148
  0.8338006334744272  0.6151771579635725  0.7756438700579520
  0.8338146598386454  0.6438425978692787  0.7351539341991462
  0.8535322805669209  0.6780048632228997  0.7351841858641148
  0.5221873364832610  0.1045306446785094  0.7351539341991462
  0.4529246010698072  0.1679025908142684  0.2648241626732682
  0.5025070896956078  0.1679065375046163  0.2648169550471826
  0.4777064517126821  0.1250233467675944  0.2648467610459470
  0.4331992048959658  0.1279084096358804  0.2668924951671827
  0.4332132312601840  0.1565738495415864  0.2264025593083769
  0.4777315866502236  0.2051504409484096  0.1516784562066809
  0.5025190639848387  0.2193667466230778  0.1921381872056441
  0.4777184260019126  0.1764835558860561  0.1921679932044087
  0.4332111791851966  0.1793686187543418  0.1942137273256442
  0.5025117597594702  0.1907397388012622  0.2264268853280461
  0.4529308519884593  0.1907361148952075  0.2264328109733457
  0.4974427901205765  0.2449471555558067  0.2648241626732682
  0.5222378014117619  0.2307347965714865  0.2243572240482193
  0.5470252787463770  0.2449511022461548  0.2648169550471826
  0.5222246407634513  0.2020679115091329  0.2648467610459470
  0.4777173939467350  0.2049529743774188  0.2668924951671827
  0.4777314203109532  0.2336184142831249  0.2264025593083769
  0.4529485496482686  0.2708230090511914  0.1194666269901914
  0.5025310382740692  0.2708269557415394  0.1194594193641056
  0.5025237340487011  0.2421999479197238  0.1537481174865075
  0.4974547644098069  0.2964073646742683  0.1921453948317297
  0.5222497757009928  0.2821950056899482  0.1516784562066809
  0.5470372530356079  0.2964113113646162  0.1921381872056441
  0.5222366150526818  0.2535281206275946  0.1921679932044087
  0.4777293682359659  0.2564131834958804  0.1942137273256442
  0.4777433946001841  0.2850786234015865  0.1537237914668385
  0.5470299488102398  0.2677843035428009  0.2264268853280461
  0.4974490410392285  0.2677806796367458  0.2264328109733457
  0.5419609791713457  0.3219917202973452  0.2648241626732682
  0.5915434677971457  0.3219956669876931  0.2648169550471826
  0.5222355829975042  0.2819975391189572  0.2668924951671827
  0.5222496093617224  0.3106629790246631  0.2264025593083769
  0.4974667386990378  0.3478675737927298  0.1194666269901914
  0.5222617499902233  0.3336552148084095  0.0789996883651424
  0.5470492273248384  0.3478715204830778  0.1194594193641056
  0.5222485893419127  0.3049883297460560  0.1194892253628700
  0.4777413425251968  0.3078733926143419  0.1215349594841056
  0.4777553688894146  0.3365388325200478  0.0810450236252999
  0.5470419230994708  0.3192445126612625  0.1537481174865075
  0.4974610153284595  0.3192408887552073  0.1537540431318072
  0.5419729534605762  0.3734519294158068  0.1921453948317297
  0.5667679647517621  0.3592395704314866  0.1516784562066809
  0.5915554420863767  0.3734558761061548  0.1921381872056441
  0.5222475572867351  0.3334577482374187  0.1942137273256442
  0.5222615836509529  0.3621231881431248  0.1537237914668385
  0.5419672300899978  0.3448252443782843  0.2264328109733457
  0.5864791682221149  0.3990362850388837  0.2648241626732682
  0.6112741795133004  0.3848239260545636  0.2243572240482193
  0.6360616568479154  0.3990402317292316  0.2648169550471826
  0.6112610188649893  0.3561570409922098  0.2648467610459470
  0.5667537720482738  0.3590421038604957  0.2668924951671827
  0.5667677984124916  0.3877075437662017  0.2264025593083769
  0.5419394320251920  0.1679025908142684  0.2648241626732682
  0.5667344433163775  0.1536902318299481  0.2243572240482193
  0.5915219206509921  0.1679065375046163  0.2648169550471826
  0.5667212826680664  0.1250233467675944  0.2648467610459470
  0.5222140358513505  0.1279084096358804  0.2668924951671827
  0.5222280622155687  0.1565738495415864  0.2264025593083769
  0.5419514063144225  0.2193627999327298  0.1921453948317297
  0.5667464176056080  0.2051504409484096  0.1516784562066809
  0.5667332569572974  0.1764835558860561  0.1921679932044087
  0.5222260101405810  0.1793686187543418  0.1942137273256442
  0.5222400365047997  0.2080340586600480  0.1537237914668385
  0.5915265907148554  0.1907397388012622  0.2264268853280461
  0.5419456829438442  0.1907361148952075  0.2264328109733457
  0.6360401097017613  0.2449511022461548  0.2648169550471826
  0.6112394717188356  0.2020679115091329  0.2648467610459470
  0.5667322249021197  0.2049529743774188  0.2668924951671827
  0.5667462512663379  0.2336184142831249  0.2264025593083769
  0.5419633806036533  0.2708230090511914  0.1194666269901914
  0.5915458692294540  0.2708269557415394  0.1194594193641056
  0.5915385650040859  0.2421999479197238  0.1537481174865075
  0.5419576572330751  0.2421963240136690  0.1537540431318072
  0.6112646066563772  0.2821950056899482  0.1516784562066809
  0.6360520839909918  0.2964113113646162  0.1921381872056441
  0.5667582255555684  0.2850786234015865  0.1537237914668385
  0.6360447797656242  0.2677843035428009  0.2264268853280461
  0.5864638719946134  0.2677806796367458  0.2264328109733457
  0.6309758101267300  0.3219917202973452  0.2648241626732682
  0.6557708214179160  0.3077793613130251  0.2243572240482193
  0.6805582987525305  0.3219956669876931  0.2648169550471826
  0.6557576607696048  0.2791124762506714  0.2648467610459470
  0.6112504139528889  0.2819975391189572  0.2668924951671827
  0.6112644403171067  0.3106629790246631  0.2264025593083769
  0.5864815696544222  0.3478675737927298  0.1194666269901914
  0.6360640582802232  0.3478715204830778  0.1194594193641056
  0.6112634202972971  0.3049883297460560  0.1194892253628700
  0.5667561734805816  0.3078733926143419  0.1215349594841056
  0.5667701998447994  0.3365388325200478  0.0810450236252999
  0.6360567540548551  0.3192445126612625  0.1537481174865075
  0.5864758462838443  0.3192408887552073  0.1537540431318072
  0.6309877844159609  0.3734519294158068  0.1921453948317297
  0.6557827957071464  0.3592395704314866  0.1516784562066809
  0.6805702730417610  0.3734558761061548  0.1921381872056441
  0.6557696350588358  0.3305726853691329  0.1921679932044087
  0.6112764146063376  0.3621231881431248  0.1537237914668385
  0.6805629688163934  0.3448288682843395  0.2264268853280461
  0.6309820610453826  0.3448252443782843  0.2264328109733457
  0.6754939991774992  0.3990362850388837  0.2648241626732682
  0.7002890104686852  0.3848239260545636  0.2243572240482193
  0.7250764878032997  0.3990402317292316  0.2648169550471826
  0.7002758498203741  0.3561570409922098  0.2648467610459470
  0.6557686030036581  0.3590421038604957  0.2668924951671827
  0.6557826293678760  0.3877075437662017  0.2264025593083769
  0.6309542629805763  0.1679025908142684  0.2648241626732682
  0.6112288668067353  0.1279084096358804  0.2668924951671827
  0.6112428931709530  0.1565738495415864  0.2264025593083769
  0.6309662372698073  0.2193627999327298  0.1921453948317297
  0.6805487258956078  0.2193667466230778  0.1921381872056441
  0.6112408410959658  0.1793686187543418  0.1942137273256442
  0.6805414216702398  0.1907397388012622  0.2264268853280461
  0.6309605138992289  0.1907361148952075  0.2264328109733457
  0.6754724520313455  0.2449471555558067  0.2648241626732682
  0.7002674633225311  0.2307347965714865  0.2243572240482193
  0.7250549406571460  0.2449511022461548  0.2648169550471826
  0.7002543026742200  0.2020679115091329  0.2648467610459470
  0.6557470558575045  0.2049529743774188  0.2668924951671827
  0.6557610822217222  0.2336184142831249  0.2264025593083769
  0.6309724881884599  0.2421963240136690  0.1537540431318072
  0.6754844263205765  0.2964073646742683  0.1921453948317297
  0.7002794376117619  0.2821950056899482  0.1516784562066809
  0.7250669149463770  0.2964113113646162  0.1921381872056441
  0.7002662769634513  0.2535281206275946  0.1921679932044087
  0.6557590301467350  0.2564131834958804  0.1942137273256442
  0.6557730565109532  0.2850786234015865  0.1537237914668385
  0.7250596107210090  0.2677843035428009  0.2264268853280461
  0.6754787029499981  0.2677806796367458  0.2264328109733457
  0.7199906410821147  0.3219917202973452  0.2648241626732682
  0.7447856523733003  0.3077793613130251  0.2243572240482193
  0.7695731297079152  0.3219956669876931  0.2648169550471826
  0.7447724917249900  0.2791124762506714  0.2648467610459470
  0.7002652449082737  0.2819975391189572  0.2668924951671827
  0.7002792712724916  0.3106629790246631  0.2264025593083769
  0.6754964006098070  0.3478675737927298  0.1194666269901914
  0.6557710044359659  0.3078733926143419  0.1215349594841056
  0.7250715850102399  0.3192445126612625  0.1537481174865075
  0.6754906772392286  0.3192408887552073  0.1537540431318072
  0.7200026153713457  0.3734519294158068  0.1921453948317297
  0.7447976266625311  0.3592395704314866  0.1516784562066809
  0.7695851039971457  0.3734558761061548  0.1921381872056441
  0.7447844660142201  0.3305726853691329  0.1921679932044087
  0.7002772191975042  0.3334577482374187  0.1942137273256442
  0.7002912455617224  0.3621231881431248  0.1537237914668385
  0.7695777997717782  0.3448288682843395  0.2264268853280461
  0.7199968920007673  0.3448252443782843  0.2264328109733457
  0.7645088301328840  0.3990362850388837  0.2648241626732682
  0.7893038414240695  0.3848239260545636  0.2243572240482193
  0.8140913187586845  0.3990402317292316  0.2648169550471826
  0.7892906807757584  0.3561570409922098  0.2648467610459470
  0.7447834339590429  0.3590421038604957  0.2668924951671827
  0.7447974603232612  0.3877075437662017  0.2264025593083769
  0.7644872829867299  0.2449471555558067  0.2648241626732682
  0.7447618868128892  0.2049529743774188  0.2668924951671827
  0.7447759131771070  0.2336184142831249  0.2264025593083769
  0.7644992572759608  0.2964073646742683  0.1921453948317297
  0.7447738611021197  0.2564131834958804  0.1942137273256442
  0.7644935339053824  0.2677806796367458  0.2264328109733457
  0.8090054720374991  0.3219917202973452  0.2648241626732682
  0.7892800758636584  0.2819975391189572  0.2668924951671827
  0.7892941022278763  0.3106629790246631  0.2264025593083769
  0.8090174463267300  0.3734519294158068  0.1921453948317297
  0.7892920501528889  0.3334577482374187  0.1942137273256442
  0.8090117229561521  0.3448252443782843  0.2264328109733457
  0.8535236610882683  0.3990362850388837  0.2648241626732682
  0.8337982649144277  0.3590421038604957  0.2668924951671827
  0.8338122912786455  0.3877075437662017  0.2264025593083769
  0.5470538973887012  0.3707047217797238  0.0810693496449691
  0.4974729896176904  0.3707010978736689  0.0810752752902687
  0.5419849277498071  0.4249121385342682  0.1194666269901914
  0.5667799390409926  0.4106997795499481  0.0789996883651424
  0.5915674163756076  0.4249160852246161  0.1194594193641056
  0.5667667783926819  0.3820328944875945  0.1194892253628700
  0.5222595315759661  0.3849179573558802  0.1215349594841056
  0.5222735579401838  0.4135833972615863  0.0810450236252999
  0.5915601121502400  0.3962890774028007  0.1537481174865075
  0.5419792043792292  0.3962854534967459  0.1537540431318072
  0.5864911425113454  0.4504964941573452  0.1921453948317297
  0.6112861538025313  0.4362841351730249  0.1516784562066809
  0.6360736311371463  0.4505004408476930  0.1921381872056441
  0.6112729931542207  0.4076172501106714  0.1921679932044087
  0.5667657463375043  0.4105023129789571  0.1942137273256442
  0.5667797727017225  0.4391677528846633  0.1537237914668385
  0.6360663269117783  0.4218734330258777  0.2264268853280461
  0.5864854191407670  0.4218698091198228  0.2264328109733457
  0.6309973572728836  0.4760808497804220  0.2648241626732682
  0.6557923685640701  0.4618684907961021  0.2243572240482193
  0.6805798458986846  0.4760847964707702  0.2648169550471826
  0.6557792079157589  0.4332016057337484  0.2648467610459470
  0.6112719610990426  0.4360866686020341  0.2668924951671827
  0.6112859874632608  0.4647521085077402  0.2264025593083769
  0.5419969020390379  0.4763723476527298  0.0467878591486528
  0.5222715058651966  0.4363781664743418  0.0488561916425672
  0.5915720864394705  0.4477492865212624  0.0810693496449691
  0.5419911786684596  0.4477456626152073  0.0810752752902687
  0.5865031168005763  0.5019567032758068  0.1194666269901914
  0.6112981280917618  0.4877443442914865  0.0789996883651424
  0.6360856054263768  0.5019606499661547  0.1194594193641056
  0.6112849674434515  0.4590774592291328  0.1194892253628700
  0.5667777206267353  0.4619625220974187  0.1215349594841056
  0.5667917469909530  0.4906279620031249  0.0810450236252999
  0.6360783012010092  0.4733336421443394  0.1537481174865075
  0.5864973934299980  0.4733300182382842  0.1537540431318072
  0.6310093315621146  0.5275410588988836  0.1921453948317297
  0.6558043428533005  0.5133286999145634  0.1516784562066809
  0.6805918201879155  0.5275450055892316  0.1921381872056441
  0.6557911822049894  0.4846618148522098  0.1921679932044087
  0.6112839353882735  0.4875468777204957  0.1942137273256442
  0.6112979617524917  0.5162123176262018  0.1537237914668385
  0.6805845159625475  0.4989179977674163  0.2264268853280461
  0.6310036081915362  0.4989143738613612  0.2264328109733457
  0.6755155463236528  0.5531254145219606  0.2648241626732682
  0.7003105576148388  0.5389130555376402  0.2243572240482193
  0.7250980349494538  0.5531293612123086  0.2648169550471826
  0.7002973969665282  0.5102461704752868  0.2648467610459470
  0.6557901501498122  0.5131312333435726  0.2668924951671827
  0.6558041765140301  0.5417966732492785  0.2264025593083769
  0.5667896949159662  0.5134227312158806  0.0488561916425672
  0.6360902754902397  0.5247938512628005  0.0810693496449691
  0.5865093677192289  0.5247902273567459  0.0810752752902687
  0.6310213058513455  0.5790012680173452  0.1194666269901914
  0.6558163171425310  0.5647889090330251  0.0789996883651424
  0.6806037944771460  0.5790052147076931  0.1194594193641056
  0.6558031564942204  0.5361220239706715  0.1194892253628700
  0.6112959096775045  0.5390070868389574  0.1215349594841056
  0.6113099360417222  0.5676725267446634  0.0810450236252999
  0.6805964902517780  0.5503782068858776  0.1537481174865075
  0.6310155824807672  0.5503745829798230  0.1537540431318072
  0.6755275206128838  0.6045856236404221  0.1921453948317297
  0.7003225319040698  0.5903732646561020  0.1516784562066809
  0.7251100092386843  0.6045895703307700  0.1921381872056441
  0.7003093712557587  0.5617063795937483  0.1921679932044087
  0.6558021244390432  0.5645914424620343  0.1942137273256442
  0.7251027050133168  0.5759625625089544  0.2264268853280461
  0.6755217972423054  0.5759589386028998  0.2264328109733457
  0.7200337353744225  0.6301699792634988  0.2648241626732682
  0.7448287466656085  0.6159576202791789  0.2243572240482193
  0.7696162240002230  0.6301739259538469  0.2648169550471826
  0.7448155860172974  0.5872907352168251  0.2648467610459470
  0.7003083392005814  0.5901757980851110  0.2668924951671827
  0.6310275567699981  0.6018347920982844  0.0810752752902687
  0.6755394949021147  0.6560458327588835  0.1194666269901914
  0.6558140987282737  0.6160516515804957  0.1215349594841056
  0.7251146793025477  0.6274227716274161  0.1537481174865075
  0.7200457096636530  0.6816301883819604  0.1921453948317297
  0.7448407209548390  0.6674178293976405  0.1516784562066809
  0.7696281982894535  0.6816341350723084  0.1921381872056441
  0.7003343398540302  0.6703014471092789  0.1537237914668385
  0.7696208940640860  0.6530071272504931  0.2264268853280461
  0.7645519244251917  0.7072145440050376  0.2648241626732682
  0.7893469357163773  0.6930021850207173  0.2243572240482193
  0.8141344130509923  0.7072184906953853  0.2648169550471826
  0.7893337750680666  0.6643352999583637  0.2648467610459470
  0.7448265282513508  0.6672203628266496  0.2668924951671827
  0.7448405546155685  0.6958858027323557  0.2264025593083769
  0.7200519605823060  0.7044637124628998  0.1537540431318072
  0.7448385025405811  0.7186805719451111  0.1942137273256442
  0.7645581753438443  0.7300480680859768  0.2264328109733457
  0.7893447173021200  0.7442649275681880  0.2668924951671827
  0.6360687283440856  0.3707047217797238  0.0810693496449691
  0.5864878205730751  0.3707010978736689  0.0810752752902687
  0.6309997587051914  0.4249121385342682  0.1194666269901914
  0.6557947699963773  0.4106997795499481  0.0789996883651424
  0.6805822473309924  0.4249160852246161  0.1194594193641056
  0.6557816093480663  0.3820328944875945  0.1194892253628700
  0.6112743625313508  0.3849179573558802  0.1215349594841056
  0.6112883888955686  0.4135833972615863  0.0810450236252999
  0.6805749431056247  0.3962890774028007  0.1537481174865075
  0.6309940353346135  0.3962854534967459  0.1537540431318072
  0.6755059734667301  0.4504964941573452  0.1921453948317297
  0.7003009847579160  0.4362841351730249  0.1516784562066809
  0.7250884620925306  0.4505004408476930  0.1921381872056441
  0.7002878241096050  0.4076172501106714  0.1921679932044087
  0.6557805772928886  0.4105023129789571  0.1942137273256442
  0.6557946036571073  0.4391677528846633  0.1537237914668385
  0.7250811578671631  0.4218734330258777  0.2264268853280461
  0.6755002500961518  0.4218698091198228  0.2264328109733457
  0.7200121882282684  0.4760808497804220  0.2648241626732682
  0.7448071995194544  0.4618684907961021  0.2243572240482193
  0.7695946768540693  0.4760847964707702  0.2648169550471826
  0.7447940388711433  0.4332016057337484  0.2648467610459470
  0.7002867920544273  0.4360866686020341  0.2668924951671827
  0.7003008184186457  0.4647521085077402  0.2264025593083769
  0.6805869173948548  0.4477492865212624  0.0810693496449691
  0.6310060096238440  0.4477456626152073  0.0810752752902687
  0.6755179477559606  0.5019567032758068  0.1194666269901914
  0.7251004363817616  0.5019606499661547  0.1194594193641056
  0.7002997983988359  0.4590774592291328  0.1194892253628700
  0.6557925515821200  0.4619625220974187  0.1215349594841056
  0.6558065779463378  0.4906279620031249  0.0810450236252999
  0.7250931321563940  0.4733336421443394  0.1537481174865075
  0.6755122243853827  0.4733300182382842  0.1537540431318072
  0.7200241625174993  0.5275410588988836  0.1921453948317297
  0.7448191738086853  0.5133286999145634  0.1516784562066809
  0.7448060131603742  0.4846618148522098  0.1921679932044087
  0.7002987663436583  0.4875468777204957  0.1942137273256442
  0.7003127927078765  0.5162123176262018  0.1537237914668385
  0.7695993469179323  0.4989179977674163  0.2264268853280461
  0.7200184391469210  0.4989143738613612  0.2264328109733457
  0.7645303772790376  0.5531254145219606  0.2648241626732682
  0.8141128659048382  0.5531293612123086  0.2648169550471826
  0.7893122279219125  0.5102461704752868  0.2648467610459470
  0.7448049811051966  0.5131312333435726  0.2668924951671827
  0.7448190074694149  0.5417966732492785  0.2264025593083769
  0.6755241986746132  0.5247902273567459  0.0810752752902687
  0.7200361368067298  0.5790012680173452  0.1194666269901914
  0.7448179874496051  0.5361220239706715  0.1194892253628700
  0.7003107406328892  0.5390070868389574  0.1215349594841056
  0.7696113212071628  0.5503782068858776  0.1537481174865075
  0.7200304134361519  0.5503745829798230  0.1537540431318072
  0.7645423515682686  0.6045856236404221  0.1921453948317297
  0.8141248401940686  0.6045895703307700  0.1921381872056441
  0.7893242022111434  0.5617063795937483  0.1921679932044087
  0.7448169553944275  0.5645914424620343  0.1942137273256442
  0.7448309817586457  0.5932568823677403  0.1537237914668385
  0.8141175359687015  0.5759625625089544  0.2264268853280461
  0.7645366281976902  0.5759589386028998  0.2264328109733457
  0.8090485663298068  0.6301699792634988  0.2648241626732682
  0.8338435776209928  0.6159576202791789  0.2243572240482193
  0.8586310549556074  0.6301739259538469  0.2648169550471826
  0.8338304169726821  0.5872907352168251  0.2648467610459470
  0.7893231701559659  0.5901757980851110  0.2668924951671827
  0.7893371965201841  0.6188412379908173  0.2264025593083769
  0.7645486024869211  0.6274191477213612  0.1537540431318072
  0.7893351444451967  0.6416360072035727  0.1942137273256442
  0.8090548172484594  0.6530035033444381  0.2264328109733457
  0.8338413592067351  0.6672203628266496  0.2668924951671827
  0.7200145896605762  0.4249121385342682  0.1194666269901914
  0.7002891934867351  0.3849179573558802  0.1215349594841056
  0.7200088662899978  0.3962854534967459  0.1537540431318072
  0.7645208044221149  0.4504964941573452  0.1921453948317297
  0.8141032930479154  0.4505004408476930  0.1921381872056441
  0.7893026550649898  0.4076172501106714  0.1921679932044087
  0.7447954082482734  0.4105023129789571  0.1942137273256442
  0.7448094346124916  0.4391677528846633  0.1537237914668385
  0.8140959888225474  0.4218734330258777  0.2264268853280461
  0.7645150810515365  0.4218698091198228  0.2264328109733457
  0.8090270191836532  0.4760808497804220  0.2648241626732682
  0.8338220304748387  0.4618684907961021  0.2243572240482193
  0.8586095078094538  0.4760847964707702  0.2648169550471826
  0.8338088698265276  0.4332016057337484  0.2648467610459470
  0.7893016230098121  0.4360866686020341  0.2668924951671827
  0.7893156493740304  0.4647521085077402  0.2264025593083769
  0.7448073825375048  0.4619625220974187  0.1215349594841056
  0.7645270553407675  0.4733300182382842  0.1537540431318072
  0.8090389934728841  0.5275410588988836  0.1921453948317297
  0.8338208441157590  0.4846618148522098  0.1921679932044087
  0.7893276236632609  0.5162123176262018  0.1537237914668385
  0.8586141778733166  0.4989179977674163  0.2264268853280461
  0.8535452082344224  0.5531254145219606  0.2648241626732682
  0.8783270588772968  0.5102461704752868  0.2648467610459470
  0.8338198120605814  0.5131312333435726  0.2668924951671827
  0.8338338384247992  0.5417966732492785  0.2264025593083769
  0.8338317863498127  0.5645914424620343  0.1942137273256442
  0.8535514591530750  0.5759589386028998  0.2264328109733457
  0.8783380011113506  0.5901757980851110  0.2668924951671827
  0.8338102392036582  0.4105023129789571  0.1942137273256442
  0.8535299120069213  0.4218698091198228  0.2264328109733457
  0.8783164539651970  0.4360866686020341  0.2668924951671827
  0.4529006524913454  0.0649821725773451  0.4101816983563453
  0.5024831411171459  0.0649861192676933  0.4101744907302595
  0.4974068672528841  0.0905665282004221  0.4828604661978836
  0.5222018785440696  0.0763541692161021  0.4423935275728348
  0.5469893558786847  0.0905704748907701  0.4828532585717981
  0.5221887178957585  0.0476872841537484  0.4828830645705623
  0.4776814710790426  0.0505723470220343  0.4849287986917978
  0.4776954974432608  0.0792377869277404  0.4444388628329923
  0.5469820516533166  0.0619434670689547  0.5171419566941998
  0.4974011438823058  0.0619398431628998  0.5171478823394995
  0.5419130820144225  0.1161508838234990  0.5555392340394220
  0.5667080933056079  0.1019385248391790  0.5150722954143732
  0.5914955706402230  0.1161548305138470  0.5555320264133365
  0.5666949326572973  0.0732716397768254  0.5555618324121008
  0.5221876858405814  0.0761567026451112  0.5576075665333362
  0.5222017122047992  0.1048221425508173  0.5171176306745305
  0.5914882664148550  0.0875278226920316  0.5898207245357382
  0.5419073586438445  0.0875241987859768  0.5898266501810381
  0.5864192967759607  0.1417352394465760  0.6282180018809606
  0.6112143080671466  0.1275228804622558  0.5877510632559115
  0.6360017854017617  0.1417391861369240  0.6282107942548749
  0.6112011474188360  0.0988559953999023  0.6282406002536391
  0.5666939006021197  0.1017410582681880  0.6302863343748750
  0.5667079269663379  0.1304064981738941  0.5897963985160694
  0.5864135734053828  0.1131085544090536  0.6625054180225762
  0.6309255115374990  0.1673195950696529  0.7008967697224989
  0.6557205228286850  0.1531072360853328  0.6604298310974501
  0.6805080001632999  0.1673235417600009  0.7008895620964134
  0.6112001153636579  0.1273254138912650  0.7029651022164134
  0.6112141417278762  0.1559908537969711  0.6624751663576077
  0.4529126267805763  0.1164423816958068  0.3375029305148066
  0.4777076380717618  0.1022300227114867  0.2970359918897577
  0.5024951154063768  0.1164463283861547  0.3374957228887210
  0.4776944774234512  0.0735631376491330  0.3375255288874855
  0.4331872306067353  0.0764482005174188  0.3395712630087210
  0.4332012569709531  0.1051136404231249  0.2990813271499153
  0.5024878111810088  0.0878193205643394  0.3717844210111230
  0.4529069034099980  0.0878156966582845  0.3717903466564226
  0.4974188415421146  0.1420267373188836  0.4101816983563453
  0.5222138528333006  0.1278143783345636  0.3697147597312961
  0.5470013301679151  0.1420306840092317  0.4101744907302595
  0.5222006921849894  0.0991474932722099  0.4102042967290240
  0.4776934453682736  0.1020325561404957  0.4122500308502595
  0.4777074717324918  0.1306979960462018  0.3717600949914538
  0.5469940259425475  0.1134036761874162  0.4444631888526615
  0.4974131181715363  0.1134000522813614  0.4444691144979609
  0.5419250563036533  0.1676110929419606  0.4828604661978836
  0.5667200675948388  0.1533987339576404  0.4423935275728348
  0.5667069069465281  0.1247318488952869  0.4828830645705623
  0.5221996601298119  0.1276169117635727  0.4849287986917978
  0.5222136864940301  0.1562823516692787  0.4444388628329923
  0.5915002407040858  0.1389880318104932  0.5171419566941998
  0.5419193329330750  0.1389844079044383  0.5171478823394995
  0.5864312710651917  0.1931954485650375  0.5555392340394220
  0.6112262823563771  0.1789830895807174  0.5150722954143732
  0.6360137596909922  0.1931993952553855  0.5555320264133365
  0.6112131217080670  0.1503162045183638  0.5555618324121008
  0.5667058748913506  0.1532012673866496  0.5576075665333362
  0.5667199012555684  0.1818667072923558  0.5171176306745305
  0.6360064554656242  0.1645723874335700  0.5898207245357382
  0.5864255476946133  0.1645687635275152  0.5898266501810381
  0.6309374858267299  0.2187798041881144  0.6282180018809606
  0.6557324971179158  0.2045674452037945  0.5877510632559115
  0.6805199744525304  0.2187837508784624  0.6282107942548749
  0.6557193364696048  0.1759005601414408  0.6282406002536391
  0.6112120896528889  0.1787856230097265  0.6302863343748750
  0.6112261160171071  0.2074510629154326  0.5897963985160694
  0.6805126702271629  0.1901567430566471  0.6624994923772766
  0.6309317624561516  0.1901531191505921  0.6625054180225762
  0.6754437005882686  0.2443641598111913  0.7008967697224989
  0.7002387118794542  0.2301518008268712  0.6604298310974501
  0.7250261892140691  0.2443681065015393  0.7008895620964134
  0.7002255512311435  0.2014849157645175  0.7009193680951779
  0.6557183044144276  0.2043699786328034  0.7029651022164134
  0.6557323307786459  0.2330354185385095  0.6624751663576077
  0.5024997854702398  0.1392795296828009  0.2991056531695845
  0.4529188776992289  0.1392759057767459  0.2991115788148840
  0.5222258271225311  0.1792745874530251  0.2970359918897577
  0.5470133044571460  0.1934908931276932  0.3374957228887210
  0.5222126664742204  0.1506077023906715  0.3375255288874855
  0.4777054196575045  0.1534927652589573  0.3395712630087210
  0.4777194460217223  0.1821582051646634  0.2990813271499153
  0.5470060002317780  0.1648638853058778  0.3717844210111230
  0.4974250924607672  0.1648602613998228  0.3717903466564226
  0.5419370305928838  0.2190713020604221  0.4101816983563453
  0.5667320418840698  0.2048589430761020  0.3697147597312961
  0.5667188812357586  0.1761920580137483  0.4102042967290240
  0.5222116344190427  0.1790771208820342  0.4122500308502595
  0.5915122149933167  0.1904482409289548  0.4444631888526615
  0.5419313072223054  0.1904446170228998  0.4444691144979609
  0.5864432453544225  0.2446556576834991  0.4828604661978836
  0.6360257339802231  0.2446596043738470  0.4828532585717981
  0.5667178491805815  0.2046614765051112  0.4849287986917978
  0.5667318755447993  0.2333269164108171  0.4444388628329923
  0.6360184297548550  0.2160325965520317  0.5171419566941998
  0.5864375219838442  0.2160289726459767  0.5171478823394995
  0.6309494601159609  0.2702400133065759  0.5555392340394220
  0.6557444714071468  0.2560276543222560  0.5150722954143732
  0.6805319487417614  0.2702439599969241  0.5555320264133365
  0.6557313107588357  0.2273607692599023  0.5555618324121008
  0.6112240639421198  0.2302458321281881  0.5576075665333362
  0.6112380903063376  0.2589112720338940  0.5171176306745305
  0.6805246445163934  0.2416169521751085  0.5898207245357382
  0.6309437367453830  0.2416133282690537  0.5898266501810381
  0.6754556748774991  0.2958243689296529  0.6282180018809606
  0.7002506861686851  0.2816120099453329  0.5877510632559115
  0.7250381635033001  0.2958283156200010  0.6282107942548749
  0.7002375255203740  0.2529451248829792  0.6282406002536391
  0.6557302787036585  0.2558301877512651  0.6302863343748750
  0.6557443050678763  0.2844956276569710  0.5897963985160694
  0.7250308592779321  0.2672013077981855  0.6624994923772766
  0.6754499515069208  0.2671976838921306  0.6625054180225762
  0.7199618896390378  0.3214087245527300  0.7008967697224989
  0.7447569009302238  0.3071963655684098  0.6604298310974501
  0.7695443782648385  0.3214126712430780  0.7008895620964134
  0.7447437402819127  0.2785294805060559  0.7009193680951779
  0.7002364934651969  0.2814145433743419  0.7029651022164134
  0.7002505198294151  0.3100799832800478  0.6624751663576077
  0.5470179745210090  0.2163240944243393  0.2991056531695845
  0.4974370667499981  0.2163204705182844  0.2991115788148840
  0.5419490048821143  0.2705315111788836  0.3375029305148066
  0.5915314935079152  0.2705354578692318  0.3374957228887210
  0.5667308555249896  0.2276522671322101  0.3375255288874855
  0.5222236087082737  0.2305373300004957  0.3395712630087210
  0.5222376350724914  0.2592027699062018  0.2990813271499153
  0.5915241892825477  0.2419084500474163  0.3717844210111230
  0.5419432815115368  0.2419048261413614  0.3717903466564226
  0.5864552196436530  0.2961158668019605  0.4101816983563453
  0.6112502309348390  0.2819035078176405  0.3697147597312961
  0.6360377082694536  0.2961198134923086  0.4101744907302595
  0.6112370702865283  0.2532366227552870  0.4102042967290240
  0.5667298234698120  0.2561216856235726  0.4122500308502595
  0.5667438498340303  0.2847871255292789  0.3717600949914538
  0.6360304040440860  0.2674928056704933  0.4444631888526615
  0.5864494962730746  0.2674891817644382  0.4444691144979609
  0.6309614344051918  0.3217002224250374  0.4828604661978836
  0.6557564456963777  0.3074878634407174  0.4423935275728348
  0.6805439230309923  0.3217041691153855  0.4828532585717981
  0.6557432850480667  0.2788209783783638  0.4828830645705623
  0.6112500645955685  0.3103714811523556  0.4444388628329923
  0.6754676491667301  0.3472845780481144  0.5555392340394220
  0.7250501377925306  0.3472885247384625  0.5555320264133365
  0.7002494998096054  0.3044053340014406  0.5555618324121008
  0.6557422529928890  0.3072903968697266  0.5576075665333362
  0.6557562793571072  0.3359558367754326  0.5171176306745305
  0.7250428335671626  0.3186615169166470  0.5898207245357382
  0.6754619257961522  0.3186578930105922  0.5898266501810381
  0.7199738639282683  0.3728689336711913  0.6282180018809606
  0.7447688752194543  0.3586565746868713  0.5877510632559115
  0.7695563525540688  0.3728728803615394  0.6282107942548749
  0.7447557145711432  0.3299896896245177  0.6282406002536391
  0.7002484677544273  0.3328747524928035  0.6302863343748750
  0.7002624941186456  0.3615401923985095  0.5897963985160694
  0.7695490483287013  0.3442458725397238  0.6624994923772766
  0.7199681405576904  0.3442422486336690  0.6625054180225762
  0.7644800786898071  0.3984532892942683  0.7008967697224989
  0.7892750899809926  0.3842409303099482  0.6604298310974501
  0.8140625673156077  0.3984572359846161  0.7008895620964134
  0.7892619293326819  0.3555740452475945  0.7009193680951779
  0.7447546825159661  0.3584591081158802  0.7029651022164134
  0.7447687088801843  0.3871245480215864  0.6624751663576077
  0.5419552558007673  0.2933650352598229  0.2991115788148840
  0.5864671939328839  0.3475760759204222  0.3375029305148066
  0.6112622052240695  0.3333637169361020  0.2970359918897577
  0.6360496825586844  0.3475800226107702  0.3374957228887210
  0.6112490445757588  0.3046968318737482  0.3375255288874855
  0.5667417977590429  0.3075818947420342  0.3395712630087210
  0.5667558241232608  0.3362473346477400  0.2990813271499153
  0.6360423783333164  0.3189530147889548  0.3717844210111230
  0.5864614705623056  0.3189493908828999  0.3717903466564226
  0.6309734086944222  0.3731604315434991  0.4101816983563453
  0.6557684199856082  0.3589480725591791  0.3697147597312961
  0.6805558973202228  0.3731643782338471  0.4101744907302595
  0.6557552593372971  0.3302811874968253  0.4102042967290240
  0.6112480125205813  0.3331662503651112  0.4122500308502595
  0.6112620388847995  0.3618316902708172  0.3717600949914538
  0.6309676853238440  0.3445337465059768  0.4444691144979609
  0.6754796234559610  0.3987447871665760  0.4828604661978836
  0.7002746347471469  0.3845324281822559  0.4423935275728348
  0.7250621120817615  0.3987487338569239  0.4828532585717981
  0.7002614740988359  0.3558655431199022  0.4828830645705623
  0.6557542272821200  0.3587506059881880  0.4849287986917978
  0.6557682536463377  0.3874160458938940  0.4444388628329923
  0.7250548078563935  0.3701217260351085  0.5171419566941998
  0.6754739000853827  0.3701181021290537  0.5171478823394995
  0.7199858382174993  0.4243291427896528  0.5555392340394220
  0.7447808495086848  0.4101167838053327  0.5150722954143732
  0.7695683268432998  0.4243330894800009  0.5555320264133365
  0.7447676888603741  0.3814498987429792  0.5555618324121008
  0.7002604420436582  0.3843349616112650  0.5576075665333362
  0.7002744684078760  0.4130004015169711  0.5171176306745305
  0.7695610226179322  0.3957060816581855  0.5898207245357382
  0.7199801148469214  0.3957024577521306  0.5898266501810381
  0.7644920529790376  0.4499134984127299  0.6282180018809606
  0.7892870642702235  0.4357011394284098  0.5877510632559115
  0.8140745416048385  0.4499174451030779  0.6282107942548749
  0.7892739036219124  0.4070342543660561  0.6282406002536391
  0.7447666568051965  0.4099193172343419  0.6302863343748750
  0.7447806831694148  0.4385847571400481  0.5897963985160694
  0.8140672373794705  0.4212904372812625  0.6624994923772766
  0.7644863296084596  0.4212868133752075  0.6625054180225762
  0.8089982677405764  0.4754978540358067  0.7008967697224989
  0.8337932790317614  0.4612854950514866  0.6604298310974501
  0.8585807563663769  0.4755018007261546  0.7008895620964134
  0.8337801183834511  0.4326186099891330  0.7009193680951779
  0.7892728715667353  0.4355036728574188  0.7029651022164134
  0.7892868979309535  0.4641691127631248  0.6624751663576077
  0.6360543526225474  0.3704132239074163  0.2991056531695845
  0.5864734448515365  0.3704096000013611  0.2991115788148840
  0.6309853829836531  0.4246206406619605  0.3375029305148066
  0.6557803942748387  0.4104082816776403  0.2970359918897577
  0.6805678716094536  0.4246245873523085  0.3374957228887210
  0.6557672336265280  0.3817413966152869  0.3375255288874855
  0.6112599868098121  0.3846264594835727  0.3395712630087210
  0.6112740131740300  0.4132918993892786  0.2990813271499153
  0.6805605673840861  0.3959975795304932  0.3717844210111230
  0.6309796596130752  0.3959939556244382  0.3717903466564226
  0.6754915977451915  0.4502049962850376  0.4101816983563453
  0.7002866090363774  0.4359926373007175  0.3697147597312961
  0.7250740863709925  0.4502089429753857  0.4101744907302595
  0.7002734483880663  0.4073257522383638  0.4102042967290240
  0.6557662015713505  0.4102108151066496  0.4122500308502595
  0.6557802279355687  0.4388762550123557  0.3717600949914538
  0.7250667821456244  0.4215819351535702  0.4444631888526615
  0.6754858743746132  0.4215783112475150  0.4444691144979609
  0.7199978125067302  0.4757893519081144  0.4828604661978836
  0.7447928237979161  0.4615769929237944  0.4423935275728348
  0.7695803011325307  0.4757932985984625  0.4828532585717981
  0.7447796631496051  0.4329101078614407  0.4828830645705623
  0.7002724163328892  0.4357951707297265  0.4849287986917978
  0.7002864426971069  0.4644606106354325  0.4444388628329923
  0.7695729969071627  0.4471662907766471  0.5171419566941998
  0.7199920891361519  0.4471626668705920  0.5171478823394995
  0.7645040272682685  0.5013737075311914  0.5555392340394220
  0.7892990385594540  0.4871613485468713  0.5150722954143732
  0.8140865158940690  0.5013776542215395  0.5555320264133365
  0.7892858779111434  0.4584944634845177  0.5555618324121008
  0.7447786310944274  0.4613795263528034  0.5576075665333362
  0.7447926574586452  0.4900449662585094  0.5171176306745305
  0.8140792116687015  0.4727506463997240  0.5898207245357382
  0.7644983038976906  0.4727470224936689  0.5898266501810381
  0.8090102420298068  0.5269580631542683  0.6282180018809606
  0.8338052533209928  0.5127457041699482  0.5877510632559115
  0.8585927306556078  0.5269620098446164  0.6282107942548749
  0.8337920926726816  0.4840788191075945  0.6282406002536391
  0.7892848458559658  0.4869638819758804  0.6302863343748750
  0.7892988722201840  0.5156293218815864  0.5897963985160694
  0.8585854264302397  0.4983350020228009  0.6624994923772766
  0.8090045186592288  0.4983313781167458  0.6625054180225762
  0.8535164567913456  0.5525424187773452  0.7008967697224989
  0.8783114680825315  0.5383300597930252  0.6604298310974501
  0.8782983074342204  0.5096631747306714  0.7009193680951779
  0.8337910606175045  0.5125482375989572  0.7029651022164134
  0.8338050869817223  0.5412136775046632  0.6624751663576077
  0.5419154834467301  0.0649821725773451  0.4101816983563453
  0.5914979720725306  0.0649861192676933  0.4101744907302595
  0.5864216982082684  0.0905665282004221  0.4828604661978836
  0.6112167094994544  0.0763541692161021  0.4423935275728348
  0.6360041868340690  0.0905704748907701  0.4828532585717981
  0.5666963020344274  0.0505723470220343  0.4849287986917978
  0.5667103283986457  0.0792377869277404  0.4444388628329923
  0.6359968826087009  0.0619434670689547  0.5171419566941998
  0.5864159748376906  0.0619398431628998  0.5171478823394995
  0.6309279129698068  0.1161508838234990  0.5555392340394220
  0.6557229242609927  0.1019385248391790  0.5150722954143732
  0.6805104015956077  0.1161548305138470  0.5555320264133365
  0.6557097636126816  0.0732716397768254  0.5555618324121008
  0.6112025167959662  0.0761567026451112  0.5576075665333362
  0.6112165431601839  0.1048221425508173  0.5171176306745305
  0.6805030973702397  0.0875278226920316  0.5898207245357382
  0.6309221895992289  0.0875241987859768  0.5898266501810381
  0.6754341277313455  0.1417352394465760  0.6282180018809606
  0.7002291390225314  0.1275228804622558  0.5877510632559115
  0.7250166163571460  0.1417391861369240  0.6282107942548749
  0.6557087315575044  0.1017410582681880  0.6302863343748750
  0.6557227579217226  0.1304064981738941  0.5897963985160694
  0.6754284043607671  0.1131085544090536  0.6625054180225762
  0.7199403424928837  0.1673195950696529  0.7008967697224989
  0.7447353537840693  0.1531072360853328  0.6604298310974501
  0.7002289726832610  0.1559908537969711  0.6624751663576077
  0.5419274577359606  0.1164423816958068  0.3375029305148066
  0.5667224690271466  0.1022300227114867  0.2970359918897577
  0.5915099463617616  0.1164463283861547  0.3374957228887210
  0.5667093083788355  0.0735631376491330  0.3375255288874855
  0.5222020615621200  0.0764482005174188  0.3395712630087210
  0.5222160879263378  0.1051136404231249  0.2990813271499153
  0.5915026421363936  0.0878193205643394  0.3717844210111230
  0.5419217343653827  0.0878156966582845  0.3717903466564226
  0.5864336724974993  0.1420267373188836  0.4101816983563453
  0.6112286837886849  0.1278143783345636  0.3697147597312961
  0.6360161611232998  0.1420306840092317  0.4101744907302595
  0.6112155231403742  0.0991474932722099  0.4102042967290240
  0.5667082763236583  0.1020325561404957  0.4122500308502595
  0.5667223026878766  0.1306979960462018  0.3717600949914538
  0.6360088568979319  0.1134036761874162  0.4444631888526615
  0.5864279491269210  0.1134000522813614  0.4444691144979609
  0.6557348985502236  0.1533987339576404  0.4423935275728348
  0.6805223758848387  0.1676150396323086  0.4828532585717981
  0.6557217379019125  0.1247318488952869  0.4828830645705623
  0.6112144910851967  0.1276169117635727  0.4849287986917978
  0.6805150716594706  0.1389880318104932  0.5171419566941998
  0.6309341638884594  0.1389844079044383  0.5171478823394995
  0.6754461020205760  0.1931954485650375  0.5555392340394220
  0.7002411133117619  0.1789830895807174  0.5150722954143732
  0.7250285906463769  0.1931993952553855  0.5555320264133365
  0.7002279526634513  0.1503162045183638  0.5555618324121008
  0.6557207058467354  0.1532012673866496  0.5576075665333362
  0.6557347322109536  0.1818667072923558  0.5171176306745305
  0.7250212864210089  0.1645723874335700  0.5898207245357382
  0.6754403786499981  0.1645687635275152  0.5898266501810381
  0.7199523167821147  0.2187798041881144  0.6282180018809606
  0.7447473280733007  0.2045674452037945  0.5877510632559115
  0.7695348054079152  0.2187837508784624  0.6282107942548749
  0.7447341674249895  0.1759005601414408  0.6282406002536391
  0.7002269206082736  0.1787856230097265  0.6302863343748750
  0.7002409469724918  0.2074510629154326  0.5897963985160694
  0.7695275011825476  0.1901567430566471  0.6624994923772766
  0.7199465934115368  0.1901531191505921  0.6625054180225762
  0.7644585315436530  0.2443641598111913  0.7008967697224989
  0.7892535428348390  0.2301518008268712  0.6604298310974501
  0.8140410201694536  0.2443681065015393  0.7008895620964134
  0.7447331353698120  0.2043699786328034  0.7029651022164134
  0.7447471617340302  0.2330354185385095  0.6624751663576077
  0.5915146164256245  0.1392795296828009  0.2991056531695845
  0.5419337086546132  0.1392759057767459  0.2991115788148840
  0.5864456467867298  0.1934869464373453  0.3375029305148066
  0.6112406580779158  0.1792745874530251  0.2970359918897577
  0.6112274974296047  0.1506077023906715  0.3375255288874855
  0.5667202506128892  0.1534927652589573  0.3395712630087210
  0.5667342769771070  0.1821582051646634  0.2990813271499153
  0.6360208311871628  0.1648638853058778  0.3717844210111230
  0.5864399234161519  0.1648602613998228  0.3717903466564226
  0.6557468728394541  0.2048589430761020  0.3697147597312961
  0.6805343501740692  0.2190752487507702  0.4101744907302595
  0.6557337121911434  0.1761920580137483  0.4102042967290240
  0.6112404917386458  0.2077425607877403  0.3717600949914538
  0.6805270459487015  0.1904482409289548  0.4444631888526615
  0.6309461381776902  0.1904446170228998  0.4444691144979609
  0.6754580763098069  0.2446556576834991  0.4828604661978836
  0.7002530876009928  0.2304432986991790  0.4423935275728348
  0.7250405649356074  0.2446596043738470  0.4828532585717981
  0.7002399269526818  0.2017764136368255  0.4828830645705623
  0.6557326801359659  0.2046614765051112  0.4849287986917978
  0.6557467065001841  0.2333269164108171  0.4444388628329923
  0.7250332607102399  0.2160325965520317  0.5171419566941998
  0.6754523529392286  0.2160289726459767  0.5171478823394995
  0.7199642910713452  0.2702400133065759  0.5555392340394220
  0.7447593023625315  0.2560276543222560  0.5150722954143732
  0.7447461417142205  0.2273607692599023  0.5555618324121008
  0.7002388948975046  0.2302458321281881  0.5576075665333362
  0.7002529212617223  0.2589112720338940  0.5171176306745305
  0.7695394754717786  0.2416169521751085  0.5898207245357382
  0.7199585677007673  0.2416133282690537  0.5898266501810381
  0.7644705058328839  0.2958243689296529  0.6282180018809606
  0.7892655171240699  0.2816120099453329  0.5877510632559115
  0.8140529944586848  0.2958283156200010  0.6282107942548749
  0.7892523564757588  0.2529451248829792  0.6282406002536391
  0.7447451096590428  0.2558301877512651  0.6302863343748750
  0.7447591360232607  0.2844956276569710  0.5897963985160694
  0.8140456902333169  0.2672013077981855  0.6624994923772766
  0.7644647824623055  0.2671976838921306  0.6625054180225762
  0.8089767205944226  0.3214087245527300  0.7008967697224989
  0.8337717318856082  0.3071963655684098  0.6604298310974501
  0.8585592092202228  0.3214126712430780  0.7008895620964134
  0.8337585712372970  0.2785294805060559  0.7009193680951779
  0.7892513244205812  0.2814145433743419  0.7029651022164134
  0.7892653507847994  0.3100799832800478  0.6624751663576077
  0.5864518977053829  0.2163204705182844  0.2991115788148840
  0.6309638358374990  0.2705315111788836  0.3375029305148066
  0.6557588471286850  0.2563191521945635  0.2970359918897577
  0.6805463244633000  0.2705354578692318  0.3374957228887210
  0.6112384396636584  0.2305373300004957  0.3395712630087210
  0.6805390202379320  0.2419084500474163  0.3717844210111230
  0.6309581124669211  0.2419048261413614  0.3717903466564226
  0.6754700505990378  0.2961158668019605  0.4101816983563453
  0.7002650618902238  0.2819035078176405  0.3697147597312961
  0.7250525392248384  0.2961198134923086  0.4101744907302595
  0.7002519012419126  0.2532366227552870  0.4102042967290240
  0.6557446544251968  0.2561216856235726  0.4122500308502595
  0.6557586807894150  0.2847871255292789  0.3717600949914538
  0.7250452349994707  0.2674928056704933  0.4444631888526615
  0.6754643272284595  0.2674891817644382  0.4444691144979609
  0.7199762653605761  0.3217002224250374  0.4828604661978836
  0.7447712766517620  0.3074878634407174  0.4423935275728348
  0.7695587539863766  0.3217041691153855  0.4828532585717981
  0.7447581160034514  0.2788209783783638  0.4828830645705623
  0.7644824801221144  0.3472845780481144  0.5555392340394220
  0.7892774914133004  0.3330722190637943  0.5150722954143732
  0.8140649687479153  0.3472885247384625  0.5555320264133365
  0.7447570839482738  0.3072903968697266  0.5576075665333362
  0.7447711103124915  0.3359558367754326  0.5171176306745305
  0.8140576645225474  0.3186615169166470  0.5898207245357382
  0.7644767567515365  0.3186578930105922  0.5898266501810381
  0.8089886948836531  0.3728689336711913  0.6282180018809606
  0.8337837061748391  0.3586565746868713  0.5877510632559115
  0.8337705455265280  0.3299896896245177  0.6282406002536391
  0.7892632987098120  0.3328747524928035  0.6302863343748750
  0.7892773250740304  0.3615401923985095  0.5897963985160694
  0.8089829715130752  0.3442422486336690  0.6625054180225762
  0.8534949096451919  0.3984532892942683  0.7008967697224989
  0.8782899209363774  0.3842409303099482  0.6604298310974501
  0.8782767602880667  0.3555740452475945  0.7009193680951779
  0.8337695134713504  0.3584591081158802  0.7029651022164134
  0.8337835398355686  0.3871245480215864  0.6624751663576077
  0.6805509945271629  0.2933686591658777  0.2991056531695845
  0.6309700867561521  0.2933650352598229  0.2991115788148840
  0.6754820248882683  0.3475760759204222  0.3375029305148066
  0.7002770361794542  0.3333637169361020  0.2970359918897577
  0.7250645135140692  0.3475800226107702  0.3374957228887210
  0.7002638755311436  0.3046968318737482  0.3375255288874855
  0.6557566287144272  0.3075818947420342  0.3395712630087210
  0.6557706550786455  0.3362473346477400  0.2990813271499153
  0.7250572092887012  0.3189530147889548  0.3717844210111230
  0.6754763015176903  0.3189493908828999  0.3717903466564226
  0.7199882396498066  0.3731604315434991  0.4101816983563453
  0.7447832509409925  0.3589480725591791  0.3697147597312961
  0.7695707282756076  0.3731643782338471  0.4101744907302595
  0.7447700902926818  0.3302811874968253  0.4102042967290240
  0.7002628434759660  0.3331662503651112  0.4122500308502595
  0.7002768698401842  0.3618316902708172  0.3717600949914538
  0.7695634240502395  0.3445373704120315  0.4444631888526615
  0.7644944544113453  0.3987447871665760  0.4828604661978836
  0.7892894657025312  0.3845324281822559  0.4423935275728348
  0.8140769430371458  0.3987487338569239  0.4828532585717981
  0.7892763050542202  0.3558655431199022  0.4828830645705623
  0.7447690582375043  0.3587506059881880  0.4849287986917978
  0.7447830846017225  0.3874160458938940  0.4444388628329923
  0.8140696388117783  0.3701217260351085  0.5171419566941998
  0.7644887310407670  0.3701181021290537  0.5171478823394995
  0.8090006691728836  0.4243291427896528  0.5555392340394220
  0.8337956804640696  0.4101167838053327  0.5150722954143732
  0.8585831577986845  0.4243330894800009  0.5555320264133365
  0.8337825198157589  0.3814498987429792  0.5555618324121008
  0.7892752729990430  0.3843349616112650  0.5576075665333362
  0.7892892993632608  0.4130004015169711  0.5171176306745305
  0.8585758535733166  0.3957060816581855  0.5898207245357382
  0.8089949458023057  0.3957024577521306  0.5898266501810381
  0.8535068839344223  0.4499134984127299  0.6282180018809606
  0.8783018952256083  0.4357011394284098  0.5877510632559115
  0.9030893725602225  0.4499174451030779  0.6282107942548749
  0.8782887345772972  0.4070342543660561  0.6282406002536391
  0.8337814877605814  0.4099193172343419  0.6302863343748750
  0.8337955141247996  0.4385847571400481  0.5897963985160694
  0.9030820683348553  0.4212904372812625  0.6624994923772766
  0.8535011605638441  0.4212868133752075  0.6625054180225762
  0.8980130986959611  0.4754978540358067  0.7008967697224989
  0.9228081099871466  0.4612854950514866  0.6604298310974501
  0.8782877025221196  0.4355036728574188  0.7029651022164134
  0.8783017288863378  0.4641691127631248  0.6624751663576077
  0.6754882758069208  0.3704096000013611  0.2991115788148840
  0.7200002139390379  0.4246206406619605  0.3375029305148066
  0.7447952252302235  0.4104082816776403  0.2970359918897577
  0.7695827025648385  0.4246245873523085  0.3374957228887210
  0.7002748177651970  0.3846264594835727  0.3395712630087210
  0.7002888441294147  0.4132918993892786  0.2990813271499153
  0.7695753983394704  0.3959975795304932  0.3717844210111230
  0.7199944905684595  0.3959939556244382  0.3717903466564226
  0.7645064287005763  0.4502049962850376  0.4101816983563453
  0.7893014399917617  0.4359926373007175  0.3697147597312961
  0.8140889173263768  0.4502089429753857  0.4101744907302595
  0.7892882793434511  0.4073257522383638  0.4102042967290240
  0.7447810325267352  0.4102108151066496  0.4122500308502595
  0.7447950588909534  0.4388762550123557  0.3717600949914538
  0.8140816131010091  0.4215819351535702  0.4444631888526615
  0.7645007053299979  0.4215783112475150  0.4444691144979609
  0.8090126434621145  0.4757893519081144  0.4828604661978836
  0.8338076547533009  0.4615769929237944  0.4423935275728348
  0.8585951320879155  0.4757932985984625  0.4828532585717981
  0.8337944941049894  0.4329101078614407  0.4828830645705623
  0.7892872472882735  0.4357951707297265  0.4849287986917978
  0.7893012736524917  0.4644606106354325  0.4444388628329923
  0.8585878278625471  0.4471662907766471  0.5171419566941998
  0.8090069200915362  0.4471626668705920  0.5171478823394995
  0.8535188582236528  0.5013737075311914  0.5555392340394220
  0.8783138695148388  0.4871613485468713  0.5150722954143732
  0.9031013468494538  0.5013776542215395  0.5555320264133365
  0.8783007088665281  0.4584944634845177  0.5555618324121008
  0.8337934620498122  0.4613795263528034  0.5576075665333362
  0.8338074884140301  0.4900449662585094  0.5171176306745305
  0.9030940426240858  0.4727506463997240  0.5898207245357382
  0.8535131348530749  0.4727470224936689  0.5898266501810381
  0.8980250729851915  0.5269580631542683  0.6282180018809606
  0.9228200842763775  0.5127457041699482  0.5877510632559115
  0.9228069236280664  0.4840788191075945  0.6282406002536391
  0.8782996768113506  0.4869638819758804  0.6302863343748750
  0.8783137031755683  0.5156293218815864  0.5897963985160694
  0.8980193496146133  0.4983313781167458  0.6625054180225762
  0.9228199179371070  0.5412136775046632  0.6624751663576077
  0.6754365291636533  0.0905665282004221  0.4828604661978836
  0.6557251593540300  0.0792377869277404  0.4444388628329923
  0.7199427439251915  0.1161508838234990  0.5555392340394220
  0.7002313741155687  0.1048221425508173  0.5171176306745305
  0.7447375888771069  0.1304064981738941  0.5897963985160694
  0.6309422886913454  0.1164423816958068  0.3375029305148066
  0.6112309188817225  0.1051136404231249  0.2990813271499153
  0.6309365653207670  0.0878156966582845  0.3717903466564226
  0.6754485034528841  0.1420267373188836  0.4101816983563453
  0.7002435147440697  0.1278143783345636  0.3697147597312961
  0.7250309920786847  0.1420306840092317  0.4101744907302595
  0.7002303540957585  0.0991474932722099  0.4102042967290240
  0.6557231072790427  0.1020325561404957  0.4122500308502595
  0.7250236878533166  0.1134036761874162  0.4444631888526615
  0.6754427800823057  0.1134000522813614  0.4444691144979609
  0.7199547182144225  0.1676110929419606  0.4828604661978836
  0.7447497295056084  0.1533987339576404  0.4423935275728348
  0.7695372068402230  0.1676150396323086  0.4828532585717981
  0.7447365688572973  0.1247318488952869  0.4828830645705623
  0.7002293220405814  0.1276169117635727  0.4849287986917978
  0.7002433484047992  0.1562823516692787  0.4444388628329923
  0.7695299026148550  0.1389880318104932  0.5171419566941998
  0.7199489948438441  0.1389844079044383  0.5171478823394995
  0.7644609329759607  0.1931954485650375  0.5555392340394220
  0.7892559442671466  0.1789830895807174  0.5150722954143732
  0.8140434216017617  0.1931993952553855  0.5555320264133365
  0.7892427836188356  0.1503162045183638  0.5555618324121008
  0.7447355368021197  0.1532012673866496  0.5576075665333362
  0.7447495631663379  0.1818667072923558  0.5171176306745305
  0.7644552096053828  0.1645687635275152  0.5898266501810381
  0.8089671477374994  0.2187798041881144  0.6282180018809606
  0.8337621590286854  0.2045674452037945  0.5877510632559115
  0.7892417515636579  0.1787856230097265  0.6302863343748750
  0.7892557779278763  0.2074510629154326  0.5897963985160694
  0.8337619926894150  0.2330354185385095  0.6624751663576077
  0.6805294473810088  0.1392795296828009  0.2991056531695845
  0.6309485396099980  0.1392759057767459  0.2991115788148840
  0.6754604777421146  0.1934869464373453  0.3375029305148066
  0.7002554890333001  0.1792745874530251  0.2970359918897577
  0.7250429663679155  0.1934908931276932  0.3374957228887210
  0.7002423283849895  0.1506077023906715  0.3375255288874855
  0.6557350815682735  0.1534927652589573  0.3395712630087210
  0.6557491079324919  0.1821582051646634  0.2990813271499153
  0.7199666925036533  0.2190713020604221  0.4101816983563453
  0.7447617037948389  0.2048589430761020  0.3697147597312961
  0.7695491811294539  0.2190752487507702  0.4101744907302595
  0.7447485431465282  0.1761920580137483  0.4102042967290240
  0.7002412963298119  0.1790771208820342  0.4122500308502595
  0.7002553226940301  0.2077425607877403  0.3717600949914538
  0.7695418769040858  0.1904482409289548  0.4444631888526615
  0.7199609691330746  0.1904446170228998  0.4444691144979609
  0.7644729072651917  0.2446556576834991  0.4828604661978836
  0.7892679185563780  0.2304432986991790  0.4423935275728348
  0.8140553958909922  0.2446596043738470  0.4828532585717981
  0.7892547579080665  0.2017764136368255  0.4828830645705623
  0.7447475110913506  0.2046614765051112  0.4849287986917978
  0.7447615374555684  0.2333269164108171  0.4444388628329923
  0.8140480916656242  0.2160325965520317  0.5171419566941998
  0.7644671838946133  0.2160289726459767  0.5171478823394995
  0.8337741333179159  0.2560276543222560  0.5150722954143732
  0.8585616106525309  0.2702439599969241  0.5555320264133365
  0.8337609726696048  0.2273607692599023  0.5555618324121008
  0.7892537258528889  0.2302458321281881  0.5576075665333362
  0.7892677522171071  0.2589112720338940  0.5171176306745305
  0.8585543064271629  0.2416169521751085  0.5898207245357382
  0.8089733986561520  0.2416133282690537  0.5898266501810381
  0.8534853367882687  0.2958243689296529  0.6282180018809606
  0.8782803480794547  0.2816120099453329  0.5877510632559115
  0.8337599406144276  0.2558301877512651  0.6302863343748750
  0.8337739669786455  0.2844956276569710  0.5897963985160694
  0.8534796134176903  0.2671976838921306  0.6625054180225762
  0.8782801817401837  0.3100799832800478  0.6624751663576077
  0.7250476364317781  0.2163240944243393  0.2991056531695845
  0.7199786667928838  0.2705315111788836  0.3375029305148066
  0.7447736780840698  0.2563191521945635  0.2970359918897577
  0.7695611554186848  0.2705354578692318  0.3374957228887210
  0.7447605174357587  0.2276522671322101  0.3375255288874855
  0.7002532706190427  0.2305373300004957  0.3395712630087210
  0.7002672969832611  0.2592027699062018  0.2990813271499153
  0.7695538511933168  0.2419084500474163  0.3717844210111230
  0.7199729434223054  0.2419048261413614  0.3717903466564226
  0.7644848815544226  0.2961158668019605  0.4101816983563453
  0.7892798928456081  0.2819035078176405  0.3697147597312961
  0.8140673701802231  0.2961198134923086  0.4101744907302595
  0.7892667321972974  0.2532366227552870  0.4102042967290240
  0.7447594853805811  0.2561216856235726  0.4122500308502595
  0.7447735117447993  0.2847871255292789  0.3717600949914538
  0.8140600659548550  0.2674928056704933  0.4444631888526615
  0.7644791581838443  0.2674891817644382  0.4444691144979609
  0.8089910963159604  0.3217002224250374  0.4828604661978836
  0.8337861076071463  0.3074878634407174  0.4423935275728348
  0.8585735849417614  0.3217041691153855  0.4828532585717981
  0.8337729469588357  0.2788209783783638  0.4828830645705623
  0.7892657001421198  0.2817060412466496  0.4849287986917978
  0.7892797265063376  0.3103714811523556  0.4444388628329923
  0.8585662807163934  0.2930771612935701  0.5171419566941998
  0.8089853729453825  0.2930735373875153  0.5171478823394995
  0.8534973110774992  0.3472845780481144  0.5555392340394220
  0.8782923223686852  0.3330722190637943  0.5150722954143732
  0.9030797997033001  0.3472885247384625  0.5555320264133365
  0.8782791617203740  0.3044053340014406  0.5555618324121008
  0.8337719149036581  0.3072903968697266  0.5576075665333362
  0.8337859412678763  0.3359558367754326  0.5171176306745305
  0.9030724954779321  0.3186615169166470  0.5898207245357382
  0.8534915877069208  0.3186578930105922  0.5898266501810381
  0.8980035258390379  0.3728689336711913  0.6282180018809606
  0.9227985371302234  0.3586565746868713  0.5877510632559115
  0.8782921560294147  0.3615401923985095  0.5897963985160694
  0.7695658254825473  0.2933686591658777  0.2991056531695845
  0.7199849177115364  0.2933650352598229  0.2991115788148840
  0.7892918671348390  0.3333637169361020  0.2970359918897577
  0.8140793444694541  0.3475800226107702  0.3374957228887210
  0.7892787064865279  0.3046968318737482  0.3375255288874855
  0.7447714596698121  0.3075818947420342  0.3395712630087210
  0.8140720402440860  0.3189530147889548  0.3717844210111230
  0.7644911324730748  0.3189493908828999  0.3717903466564226
  0.8090030706051918  0.3731604315434991  0.4101816983563453
  0.8337980818963773  0.3589480725591791  0.3697147597312961
  0.8585855592309923  0.3731643782338471  0.4101744907302595
  0.8337849212480667  0.3302811874968253  0.4102042967290240
  0.7892776744313503  0.3331662503651112  0.4122500308502595
  0.7892917007955685  0.3618316902708172  0.3717600949914538
  0.8585782550056243  0.3445373704120315  0.4444631888526615
  0.8089973472346135  0.3445337465059768  0.4444691144979609
  0.8535092853667301  0.3987447871665760  0.4828604661978836
  0.8783042966579157  0.3845324281822559  0.4423935275728348
  0.9030917739925306  0.3987487338569239  0.4828532585717981
  0.8782911360096045  0.3558655431199022  0.4828830645705623
  0.8337838891928890  0.3587506059881880  0.4849287986917978
  0.8337979155571068  0.3874160458938940  0.4444388628329923
  0.9030844697671626  0.3701217260351085  0.5171419566941998
  0.8535035619961517  0.3701181021290537  0.5171478823394995
  0.8980155001282684  0.4243291427896528  0.5555392340394220
  0.9228105114194544  0.4101167838053327  0.5150722954143732
  0.9475979887540693  0.4243330894800009  0.5555320264133365
  0.9227973507711437  0.3814498987429792  0.5555618324121008
  0.8782901039544277  0.3843349616112650  0.5576075665333362
  0.8783041303186456  0.4130004015169711  0.5171176306745305
  0.8980097767576909  0.3957024577521306  0.5898266501810381
  0.9227963187159657  0.4099193172343419  0.6302863343748750
  0.9228103450801843  0.4385847571400481  0.5897963985160694
  0.8140840145333165  0.3704132239074163  0.2991056531695845
  0.8090150448944222  0.4246206406619605  0.3375029305148066
  0.8338100561856082  0.4104082816776403  0.2970359918897577
  0.8585975335202233  0.4246245873523085  0.3374957228887210
  0.8337968955372971  0.3817413966152869  0.3375255288874855
  0.7892896487205813  0.3846264594835727  0.3395712630087210
  0.7893036750847995  0.4132918993892786  0.2990813271499153
  0.8585902292948552  0.3959975795304932  0.3717844210111230
  0.8090093215238440  0.3959939556244382  0.3717903466564226
  0.8535212596559610  0.4502049962850376  0.4101816983563453
  0.8783162709471465  0.4359926373007175  0.3697147597312961
  0.9031037482817615  0.4502089429753857  0.4101744907302595
  0.8783031102988359  0.4073257522383638  0.4102042967290240
  0.8337958634821200  0.4102108151066496  0.4122500308502595
  0.8338098898463377  0.4388762550123557  0.3717600949914538
  0.9030964440563936  0.4215819351535702  0.4444631888526615
  0.8535155362853827  0.4215783112475150  0.4444691144979609
  0.8980274744174993  0.4757893519081144  0.4828604661978836
  0.9228224857086853  0.4615769929237944  0.4423935275728348
  0.9476099630432998  0.4757932985984625  0.4828532585717981
  0.9228093250603742  0.4329101078614407  0.4828830645705623
  0.8783020782436582  0.4357951707297265  0.4849287986917978
  0.8783161046078760  0.4644606106354325  0.4444388628329923
  0.9476026588179318  0.4471662907766471  0.5171419566941998
  0.8980217510469205  0.4471626668705920  0.5171478823394995
  0.9425336891790376  0.5013737075311914  0.5555392340394220
  0.9228082930051966  0.4613795263528034  0.5576075665333362
  0.9228223193694148  0.4900449662585094  0.5171176306745305
  0.9425279658084592  0.4727470224936689  0.5898266501810381
  0.7644633344082684  0.1420267373188836  0.4101816983563453
  0.8089695491698068  0.1676110929419606  0.4828604661978836
  0.7892581793601839  0.1562823516692787  0.4444388628329923
  0.8337643941217227  0.1818667072923558  0.5171176306745305
  0.7644753086974994  0.1934869464373453  0.3375029305148066
  0.7447639388878766  0.1821582051646634  0.2990813271499153
  0.7644695853269210  0.1648602613998228  0.3717903466564226
  0.8089815234590377  0.2190713020604221  0.4101816983563453
  0.7892561272851967  0.1790771208820342  0.4122500308502595
  0.7892701536494149  0.2077425607877403  0.3717600949914538
  0.8089758000884598  0.1904446170228998  0.4444691144979609
  0.8534877382205760  0.2446556576834991  0.4828604661978836
  0.8337623420467354  0.2046614765051112  0.4849287986917978
  0.8337763684109532  0.2333269164108171  0.4444388628329923
  0.8534820148499981  0.2160289726459767  0.5171478823394995
  0.8782825831724919  0.2589112720338940  0.5171176306745305
  0.7644815596161515  0.2163204705182844  0.2991115788148840
  0.8089934977482686  0.2705315111788836  0.3375029305148066
  0.8337885090394546  0.2563191521945635  0.2970359918897577
  0.8585759863740696  0.2705354578692318  0.3374957228887210
  0.8337753483911434  0.2276522671322101  0.3375255288874855
  0.7892681015744276  0.2305373300004957  0.3395712630087210
  0.7892821279386458  0.2592027699062018  0.2990813271499153
  0.8585686821487015  0.2419084500474163  0.3717844210111230
  0.8089877743776903  0.2419048261413614  0.3717903466564226
  0.8534997125098069  0.2961158668019605  0.4101816983563453
  0.8782947238009928  0.2819035078176405  0.3697147597312961
  0.9030822011356074  0.2961198134923086  0.4101744907302595
  0.8782815631526818  0.2532366227552870  0.4102042967290240
  0.8337743163359659  0.2561216856235726  0.4122500308502595
  0.8337883427001845  0.2847871255292789  0.3717600949914538
  0.8534939891392290  0.2674891817644382  0.4444691144979609
  0.8980059272713452  0.3217002224250374  0.4828604661978836
  0.8782805310975046  0.2817060412466496  0.4849287986917978
  0.8782945574617224  0.3103714811523556  0.4444388628329923
  0.8980002039007673  0.2930735373875153  0.5171478823394995
  0.9228007722232612  0.3359558367754326  0.5171176306745305
  0.8585806564379320  0.2933686591658777  0.2991056531695845
  0.8089997486669211  0.2933650352598229  0.2991115788148840
  0.8535116867990378  0.3475760759204222  0.3375029305148066
  0.8783066980902238  0.3333637169361020  0.2970359918897577
  0.9030941754248388  0.3475800226107702  0.3374957228887210
  0.8782935374419126  0.3046968318737482  0.3375255288874855
  0.8337862906251968  0.3075818947420342  0.3395712630087210
  0.8338003169894150  0.3362473346477400  0.2990813271499153
  0.9030868711994707  0.3189530147889548  0.3717844210111230
  0.8535059634284595  0.3189493908828999  0.3717903466564226
  0.8980179015605761  0.3731604315434991  0.4101816983563453
  0.8782925053867351  0.3331662503651112  0.4122500308502595
  0.8783065317509529  0.3618316902708172  0.3717600949914538
  0.8980121781899982  0.3445337465059768  0.4444691144979609
  0.9425241163221144  0.3987447871665760  0.4828604661978836
  0.9227987201482738  0.3587506059881880  0.4849287986917978
  0.9228127465124916  0.3874160458938940  0.4444388628329923
  0.9425183929515365  0.3701181021290537  0.5171478823394995
  0.8535179377176904  0.3704096000013611  0.2991115788148840
  0.8980298758498071  0.4246206406619605  0.3375029305148066
  0.8783044796759660  0.3846264594835727  0.3395712630087210
  0.8783185060401842  0.4132918993892786  0.2990813271499153
  0.8980241524792287  0.3959939556244382  0.3717903466564226
  0.9425360906113458  0.4502049962850376  0.4101816983563453
  0.9228106944375043  0.4102108151066496  0.4122500308502595
  0.9228247208017221  0.4388762550123557  0.3717600949914538
  0.9425303672407674  0.4215783112475150  0.4444691144979609
  0.6805725416733170  0.4474577886489546  0.2991056531695845
  0.6309916339023057  0.4474541647428997  0.2991115788148840
  0.6755035720344224  0.5016652054034991  0.3375029305148066
  0.7002985833256079  0.4874528464191789  0.2970359918897577
  0.7250860606602230  0.5016691520938471  0.3374957228887210
  0.7002854226772972  0.4587859613568253  0.3375255288874855
  0.6557781758605814  0.4616710242251110  0.3395712630087210
  0.6557922022247992  0.4903364641308171  0.2990813271499153
  0.7250787564348549  0.4730421442720316  0.3717844210111230
  0.6754978486638444  0.4730385203659768  0.3717903466564226
  0.7200097867959607  0.5272495610265758  0.4101816983563453
  0.7448047980871466  0.5130372020422558  0.3697147597312961
  0.7695922754217617  0.5272535077169240  0.4101744907302595
  0.7447916374388360  0.4843703169799022  0.4102042967290240
  0.7002843906221197  0.4872553798481879  0.4122500308502595
  0.7002984169863379  0.5159208197538940  0.3717600949914538
  0.7695849711963937  0.4986264998951085  0.4444631888526615
  0.7200040634253828  0.4986228759890536  0.4444691144979609
  0.7893110128486853  0.5386215576653330  0.4423935275728348
  0.8140984901832999  0.5528378633400008  0.4828532585717981
  0.7892978522003743  0.5099546726029791  0.4828830645705623
  0.7447906053836584  0.5128397354712650  0.4849287986917978
  0.7448046317478766  0.5415051753769711  0.4444388628329923
  0.8140911859579320  0.5242108555181854  0.5171419566941998
  0.7645102781869211  0.5242072316121306  0.5171478823394995
  0.8090222163190377  0.5784182722727298  0.5555392340394220
  0.8338172276102241  0.5642059132884099  0.5150722954143732
  0.8586047049448382  0.5784222189630777  0.5555320264133365
  0.8338040669619126  0.5355390282260560  0.5555618324121008
  0.7892968201451966  0.5384240910943419  0.5576075665333362
  0.8585974007194707  0.5497952111412623  0.5898207245357382
  0.8090164929484598  0.5497915872352075  0.5898266501810381
  0.8535284310805760  0.6040026278958066  0.6282180018809606
  0.8783234423717620  0.5897902689114868  0.5877510632559115
  0.9031109197063770  0.6040065745861546  0.6282107942548749
  0.8783102817234508  0.5611233838491330  0.6282406002536391
  0.8338030349067355  0.5640084467174188  0.6302863343748750
  0.8338170612709532  0.5926738866231248  0.5897963985160694
  0.9031036154810089  0.5753795667643392  0.6624994923772766
  0.8535227077099982  0.5753759428582844  0.6625054180225762
  0.8783232760324919  0.6182582422462017  0.6624751663576077
  0.7250907307240863  0.5245023533904932  0.2991056531695845
  0.6755098229530749  0.5244987294844381  0.2991115788148840
  0.7200217610851916  0.5787097701450375  0.3375029305148066
  0.7448167723763771  0.5644974111607173  0.2970359918897577
  0.7696042497109922  0.5787137168353855  0.3374957228887210
  0.7448036117280664  0.5358305260983638  0.3375255288874855
  0.7002963649113506  0.5387155889666495  0.3395712630087210
  0.7003103912755684  0.5673810288723556  0.2990813271499153
  0.7695969454856245  0.5500867090135702  0.3717844210111230
  0.7200160377146133  0.5500830851075151  0.3717903466564226
  0.7645279758467299  0.6042941257681144  0.4101816983563453
  0.7893229871379158  0.5900817667837942  0.3697147597312961
  0.8141104644725309  0.6042980724584623  0.4101744907302595
  0.7893098264896048  0.5614148817214406  0.4102042967290240
  0.7448025796728893  0.5642999445897264  0.4122500308502595
  0.7448166060371071  0.5929653844954327  0.3717600949914538
  0.8141031602471629  0.5756710646366471  0.4444631888526615
  0.7645222524761520  0.5756674407305920  0.4444691144979609
  0.8090341906082686  0.6298784813911913  0.4828604661978836
  0.8338292018994545  0.6156661224068711  0.4423935275728348
  0.8586166792340691  0.6298824280815394  0.4828532585717981
  0.8338160412511435  0.5869992373445176  0.4828830645705623
  0.7893087944344276  0.5898843002128034  0.4849287986917978
  0.7893228207986454  0.6185497401185094  0.4444388628329923
  0.8586093750087012  0.6012554202597240  0.5171419566941998
  0.8090284672376903  0.6012517963536689  0.5171478823394995
  0.8535404053698069  0.6554628370142682  0.5555392340394220
  0.8783354166609929  0.6412504780299479  0.5150722954143732
  0.9031228939956079  0.6554667837046166  0.5555320264133365
  0.8783222560126822  0.6125835929675945  0.5555618324121008
  0.8338150091959659  0.6154686558358804  0.5576075665333362
  0.8338290355601842  0.6441340957415865  0.5171176306745305
  0.9031155897702399  0.6268397758828009  0.5898207245357382
  0.8535346819992290  0.6268361519767458  0.5898266501810381
  0.8980466201313453  0.6810471926373450  0.6282180018809606
  0.8783212239575047  0.6410530114589573  0.6302863343748750
  0.8783352503217224  0.6697184513646635  0.5897963985160694
  0.8980408967607674  0.6524205075998227  0.6625054180225762
  0.7696089197748555  0.6015469181320316  0.2991056531695845
  0.7200280120038441  0.6015432942259766  0.2991115788148840
  0.7645399501359609  0.6557543348865756  0.3375029305148066
  0.7893349614271463  0.6415419759022558  0.2970359918897577
  0.7893218007788356  0.6128750908399022  0.3375255288874855
  0.7448145539621198  0.6157601537081878  0.3395712630087210
  0.7448285803263376  0.6444255936138943  0.2990813271499153
  0.8141151345363933  0.6271312737551087  0.3717844210111230
  0.7645342267653830  0.6271276498490536  0.3717903466564226
  0.8090461648974991  0.6813386905096530  0.4101816983563453
  0.8338411761886850  0.6671263315253327  0.3697147597312961
  0.8586286535233001  0.6813426372000012  0.4101744907302595
  0.8338280155403740  0.6384594464629790  0.4102042967290240
  0.7893207687236585  0.6413445093312649  0.4122500308502595
  0.8586213492979321  0.6527156293781854  0.4444631888526615
  0.8090404415269212  0.6527120054721307  0.4444691144979609
  0.8535523796590379  0.7069230461327298  0.4828604661978836
  0.8783473909502238  0.6927106871484097  0.4423935275728348
  0.9031348682848384  0.7069269928230778  0.4828532585717981
  0.8783342303019127  0.6640438020860560  0.4828830645705623
  0.8338269834851968  0.6669288649543421  0.4849287986917978
  0.8338410098494150  0.6955943048600478  0.4444388628329923
  0.9031275640594708  0.6782999850012623  0.5171419566941998
  0.8535466562884595  0.6782963610952077  0.5171478823394995
  0.8783331982467352  0.6925132205774190  0.5576075665333362
  0.8783472246109534  0.7211786604831250  0.5171176306745305
  0.8980528710499982  0.7038807167182847  0.5898266501810381
  0.8141271088256247  0.6785914828735701  0.2991056531695845
  0.7645462010546134  0.6785878589675151  0.2991115788148840
  0.8090581391867301  0.7327988996281144  0.3375029305148066
  0.8338531504779160  0.7185865406437942  0.2970359918897577
  0.8586406278125306  0.7328028463184625  0.3374957228887210
  0.7893467693771068  0.7214701583554326  0.2990813271499153
  0.8586333235871630  0.7041758384966469  0.3717844210111230
  0.8535643539482684  0.7583832552511915  0.4101816983563453
  0.8783462045911432  0.7155040112045175  0.4102042967290240
  0.8338389577744277  0.7183890740728034  0.4122500308502595
  0.8338529841386455  0.7470545139785095  0.3717600949914538
  0.8535586305776904  0.7297565702136690  0.4444691144979609
  0.8783451725359660  0.7439734296958803  0.4849287986917978
  0.8090643901053827  0.7556324237090536  0.2991115788148840
  0.8338509320636582  0.7698492831912649  0.3395712630087210
  0.7695873726287014  0.4474577886489546  0.2991056531695845
  0.7200064648576905  0.4474541647428997  0.2991115788148840
  0.7645184029898068  0.5016652054034991  0.3375029305148066
  0.7893134142809927  0.4874528464191789  0.2970359918897577
  0.8141008916156077  0.5016691520938471  0.3374957228887210
  0.7893002536326815  0.4587859613568253  0.3375255288874855
  0.7447930068159662  0.4616710242251110  0.3395712630087210
  0.7448070331801839  0.4903364641308171  0.2990813271499153
  0.7645126796192289  0.4730385203659768  0.3717903466564226
  0.8090246177513455  0.5272495610265758  0.4101816983563453
  0.8338196290425314  0.5130372020422558  0.3697147597312961
  0.8586071063771460  0.5272535077169240  0.4101744907302595
  0.8338064683942203  0.4843703169799022  0.4102042967290240
  0.7892992215775040  0.4872553798481879  0.4122500308502595
  0.7893132479417226  0.5159208197538940  0.3717600949914538
  0.8585998021517784  0.4986264998951085  0.4444631888526615
  0.8090188943807671  0.4986228759890536  0.4444691144979609
  0.8535308325128842  0.5528339166496529  0.4828604661978836
  0.8783258438040698  0.5386215576653330  0.4423935275728348
  0.9031133211386847  0.5528378633400008  0.4828532585717981
  0.8783126831557591  0.5099546726029791  0.4828830645705623
  0.8338054363390427  0.5128397354712650  0.4849287986917978
  0.8338194627032609  0.5415051753769711  0.4444388628329923
  0.9031060169133163  0.5242108555181854  0.5171419566941998
  0.8535251091423058  0.5242072316121306  0.5171478823394995
  0.8980370472744220  0.5784182722727298  0.5555392340394220
  0.9228320585656080  0.5642059132884099  0.5150722954143732
  0.9476195359002231  0.5784222189630777  0.5555320264133365
  0.9228188979172973  0.5355390282260560  0.5555618324121008
  0.8783116511005814  0.5384240910943419  0.5576075665333362
  0.8783256774647993  0.5670895310000480  0.5171176306745305
  0.9476122316748550  0.5497952111412623  0.5898207245357382
  0.8980313239038441  0.5497915872352075  0.5898266501810381
  0.9228178658621198  0.5640084467174188  0.6302863343748750
  0.9228318922263380  0.5926738866231248  0.5897963985160694
  0.8141055616794706  0.5245023533904932  0.2991056531695845
  0.7645246539084597  0.5244987294844381  0.2991115788148840
  0.8090365920405760  0.5787097701450375  0.3375029305148066
  0.8338316033317619  0.5644974111607173  0.2970359918897577
  0.8586190806663769  0.5787137168353855  0.3374957228887210
  0.8338184426834512  0.5358305260983638  0.3375255288874855
  0.7893111958667354  0.5387155889666495  0.3395712630087210
  0.7893252222309531  0.5673810288723556  0.2990813271499153
  0.8586117764410088  0.5500867090135702  0.3717844210111230
  0.8090308686699981  0.5500830851075151  0.3717903466564226
  0.8535428068021147  0.6042941257681144  0.4101816983563453
  0.8783378180932997  0.5900817667837942  0.3697147597312961
  0.9031252954279152  0.6042980724584623  0.4101744907302595
  0.8783246574449896  0.5614148817214406  0.4102042967290240
  0.8338174106282741  0.5642999445897264  0.4122500308502595
  0.8338314369924918  0.5929653844954327  0.3717600949914538
  0.9031179912025477  0.5756710646366471  0.4444631888526615
  0.8535370834315363  0.5756674407305920  0.4444691144979609
  0.8980490215636534  0.6298784813911913  0.4828604661978836
  0.9228440328548394  0.6156661224068711  0.4423935275728348
  0.9228308722065283  0.5869992373445176  0.4828830645705623
  0.8783236253898119  0.5898843002128034  0.4849287986917978
  0.8783376517540301  0.6185497401185094  0.4444388628329923
  0.9476242059640859  0.6012554202597240  0.5171419566941998
  0.8980432981930750  0.6012517963536689  0.5171478823394995
  0.9228298401513507  0.6154686558358804  0.5576075665333362
  0.9228438665155685  0.6441340957415865  0.5171176306745305
  0.8586237507302398  0.6015469181320316  0.2991056531695845
  0.8090428429592289  0.6015432942259766  0.2991115788148840
  0.8535547810913456  0.6557543348865756  0.3375029305148066
  0.8783497923825311  0.6415419759022558  0.2970359918897577
  0.8783366317342209  0.6128750908399022  0.3375255288874855
  0.8338293849175046  0.6157601537081878  0.3395712630087210
  0.8338434112817223  0.6444255936138943  0.2990813271499153
  0.9031299654917785  0.6271312737551087  0.3717844210111230
  0.8535490577207673  0.6271276498490536  0.3717903466564226
  0.8980609958528839  0.6813386905096530  0.4101816983563453
  0.8783355996790428  0.6413445093312649  0.4122500308502595
  0.8783496260432611  0.6700099492369711  0.3717600949914538
  0.8980552724823055  0.6527120054721307  0.4444691144979609
  0.9228418144405811  0.6669288649543421  0.4849287986917978
  0.8535610320099982  0.6785878589675151  0.2991115788148840
  0.8783475739682738  0.6928047184497266  0.3395712630087210
  0.8586022035840857  0.4474577886489546  0.2991056531695845
  0.8090212958130748  0.4474541647428997  0.2991115788148840
  0.8783282452363774  0.4874528464191789  0.2970359918897577
  0.9031157225709925  0.5016691520938471  0.3374957228887210
  0.8783150845880667  0.4587859613568253  0.3375255288874855
  0.8338218641355687  0.4903364641308171  0.2990813271499153
  0.9031084183456244  0.4730421442720316  0.3717844210111230
  0.8980394487067302  0.5272495610265758  0.4101816983563453
  0.9228344599979157  0.5130372020422558  0.3697147597312961
  0.9476219373325308  0.5272535077169240  0.4101744907302595
  0.9228212993496051  0.4843703169799022  0.4102042967290240
  0.8783140525328887  0.4872553798481879  0.4122500308502595
  0.8783280788971070  0.5159208197538940  0.3717600949914538
  0.9476146331071628  0.4986264998951085  0.4444631888526615
  0.8980337253361519  0.4986228759890536  0.4444691144979609
  0.9425456634682685  0.5528339166496529  0.4828604661978836
  0.9228202672944275  0.5128397354712650  0.4849287986917978
  0.9228342936586457  0.5415051753769711  0.4444388628329923
  0.9425399400976906  0.5242072316121306  0.5171478823394995
  0.8535394848638445  0.5244987294844381  0.2991115788148840
  0.8980514229959607  0.5787097701450375  0.3375029305148066
  0.9228332736388356  0.5358305260983638  0.3375255288874855
  0.8783260268221201  0.5387155889666495  0.3395712630087210
  0.8783400531863379  0.5673810288723556  0.2990813271499153
  0.8980456996253833  0.5500830851075151  0.3717903466564226
  0.9228322415836580  0.5642999445897264  0.4122500308502595
  0.9425519143869211  0.5756674407305920  0.4444691144979609
  0.8980576739146138  0.6015432942259766  0.2991115788148840
  0.8980361267684597  0.4474541647428997  0.2991115788148840
  0.9228226687267348  0.4616710242251110  0.3395712630087210
  0.9425423415299979  0.4730385203659768  0.3717903466564226
  0.5419011077251915  0.0646906747050375  0.6282180018809606
  0.5221897379155682  0.0533619334323556  0.5897963985160694
  0.5666959526771069  0.0789462890554325  0.6624751663576077
  0.1217064096957853  0.5131932918674181  0.2365403299981850
  0.1661910773111703  0.3846885180074183  0.3092190978397233
  0.1216944354065543  0.4617330827489566  0.3092190978397233
  0.2552334563834187  0.4876818126091585  0.1093524890372859
  0.2107332149404005  0.5646535009858799  0.1638615621566465
  0.2106793444649572  0.2562566205122352  0.3273887925619012
  0.3441788430357262  0.1277518466522355  0.4000675604034394
  0.3886946306541881  0.2559651226399277  0.5454250960865166
  0.2106913187541877  0.3077168296306970  0.2547100247203629
  0.2551855592264955  0.2818409761353124  0.4000675604034394
  0.3442063635004007  0.3843970201351107  0.5272554013643388
  0.2552178825557851  0.4361487271258798  0.2365403299981850
  0.2552310549511105  0.5388505238553124  0.2547100247203629
  0.2552071063726496  0.4359301056183892  0.4000675604034394
  0.3887509025619391  0.5131932918674181  0.2365403299981850
  0.3887604754188623  0.6158222122320336  0.3092190978397233
  0.3887640749572646  0.6158950885968508  0.2547100247203629
  0.3442434844741880  0.5900192351014661  0.4000675604034394
  0.2552166792295723  0.5385590259830046  0.4727463282449783
  0.3887365268404004  0.5129017939951106  0.4545766335228004
  0.3442075616064957  0.4356386077460815  0.6181038639280547
  0.3442171344634189  0.5382675281106970  0.6907826317695935
  0.2997204925588033  0.6153120928522355  0.6907826317695935
  0.3887377249464954  0.5641433816060816  0.5454250960865166
  0.5222587706634184  0.5897277372291586  0.6181038639280547
  0.7002752601788621  0.4870259404997260  0.5999341692058772
  0.2552406278080342  0.6414794442199276  0.3273887925619012
  0.2997468425695725  0.6670637998430046  0.4000675604034394
  0.3442638335142472  0.6928667769735720  0.3092190978397233
  0.3887832206711113  0.8211529293260815  0.4000675604034394
  0.1662293687388622  0.7952041994658797  0.5999341692058772
  0.3887556725542468  0.7181596347243414  0.5999341692058772
  0.4777621287588034  0.6667723019706973  0.6181038639280547
  0.4332618873157851  0.7437439903474182  0.6726129370474158
  0.4777860773372647  0.7696927202076200  0.4727463282449783
  0.4332774611434187  0.7952770758306968  0.5454250960865166
  0.4777836759049570  0.8208614314537740  0.6181038639280547
  0.5222946935311108  0.7441083645845431  0.4000675604034394
  0.5223150425711700  0.8469559064566490  0.3092190978397233
  0.5667769597141877  0.6667723019706973  0.6181038639280547
  0.5667973087542468  0.7696198438428029  0.5272554013643388
  0.5223042663880340  0.8467372849491583  0.4727463282449783
  0.5667985068603418  0.8208614314537740  0.6181038639280547
  0.5222982654173236  0.8978331198304947  0.6726129370474158
  0.2106769430326494  0.3074253317583892  0.4727463282449783
  0.2551496363588032  0.1274603487799278  0.6181038639280547
  0.1661527530111698  0.2814766018981874  0.6726129370474158
  0.2551592092157263  0.2300892691445432  0.6907826317695935
  0.2996762001604006  0.2558922462751105  0.5999341692058772
  0.2551831577941878  0.3330096873814662  0.5454250960865166
  0.3886826563649571  0.2045049135214662  0.6181038639280547
  0.1216740863664958  0.3588855408768509  0.4000675604034394
  0.1216992053988627  0.6666994256058797  0.6726129370474158
  0.1661803011280339  0.3844698964999276  0.4727463282449783
  0.2551807563618804  0.3841783986276202  0.6907826317695935
  0.2107044634973236  0.5640705052412645  0.5999341692058772
  0.7892541682665546  0.3326453131443413  0.8179704727304929
  0.2106936873141881  0.5638518837337739  0.7634613996111321
  0.2996833715850161  0.4096898778858798  0.8179704727304929
  0.3442051601741880  0.4868073189922355  0.7634613996111321
  0.3887113749357263  0.5123916746153124  0.8361401674526705
  0.5222407954034780  0.5893633629920336  0.8906492405720312
  0.4331828701557850  0.2811851040258798  0.8906492405720312
  0.5667290625572649  0.4609314654968507  0.9088189352942089
  0.4331852715880932  0.2300163927797260  0.7452917048889544
  0.4777357787480342  0.6150205949799277  0.9088189352942089
  0.2551556096773241  0.2300163927797260  0.7452917048889544
  0.4777046587449574  0.3583025451322355  0.8361401674526705
  0.5222108735064956  0.3838869007553123  0.9088189352942089
  0.6557558678018801  0.5123916746153124  0.8361401674526705
  0.3887317239757850  0.6152392164874182  0.7452917048889544
  0.5222659420880339  0.7435253688399277  0.8361401674526705
  0.6112891477942469  0.7949127015935721  0.8179704727304929
  0.7002824316034776  0.6408235721104951  0.8179704727304929
  0.4777597273264956  0.7179410132168508  0.7634613996111321
  0.6557774149480338  0.6664808040983894  0.8361401674526705
  0.6557977639880930  0.7693283459704952  0.7452917048889544
  0.4332044501742465  0.1279704681597259  0.2365403299981850
  0.4777465878034775  0.3079354511381875  0.0911827943151080
  0.5667374701804004  0.2050150329012644  0.2365403299981850
  0.7002621154357261  0.2306722648891584  0.2547100247203629
  0.6112556592311696  0.2820595976428027  0.2365403299981850
  0.6558109692557261  0.5647263773506970  0.1093524890372859
  0.7003171840172648  0.5903107329737740  0.1820312568788243
  0.6558193440065548  0.6161137101043412  0.0911827943151080
  0.7893499625804007  0.7443269860920336  0.2365403299981850
  0.7448102263834774  0.5131932918674181  0.2365403299981850
  0.8338286568772648  0.5132661682322355  0.1820312568788243
  0.6112772063773237  0.4361487271258798  0.2365403299981850
  0.7448233987788037  0.6158950885968508  0.2547100247203629
  0.5667230944588623  0.2047235350289568  0.4545766335228004
  0.5222288539865544  0.2305993885243414  0.3092190978397233
  0.6557510978095729  0.3074253317583892  0.4727463282449783
  0.7002692868603416  0.3844698964999276  0.4727463282449783
  0.8337879311449574  0.4612229633691585  0.6907826317695935
  0.7002201915973235  0.1273874724151106  0.6726129370474158
  0.5667135216019390  0.1020946146643413  0.3818978656812618
  0.7002357654249570  0.1789205578983893  0.5454250960865166
  0.6557379254142470  0.2047235350289568  0.4545766335228004
  0.6557498997034780  0.2561837441474182  0.3818978656812618
  0.7447659287649572  0.3074253317583892  0.4727463282449783
  0.8782845730495730  0.3841783986276202  0.6907826317695935
  0.7002716882926494  0.3333011852537738  0.3273887925619012
  0.8337867330388625  0.4099813757581875  0.5999341692058772
  0.7002381668572648  0.1277518466522355  0.4000675604034394
  0.6557403268465547  0.1535548237828029  0.3092190978397233
  0.8337771601819393  0.3073524553935720  0.5272554013643388
  0.9227931892434186  0.3585940430045432  0.6181038639280547
  0.7002453382818803  0.2815494782630048  0.6181038639280547
  0.6112652320880928  0.3846885180074183  0.3092190978397233
  0.8783085216280340  0.4870988168645431  0.5454250960865166
  0.7002501411464958  0.1792120557706969  0.3273887925619012
  0.7892589711311701  0.2303078906520337  0.5272554013643388
  0.8338358283018802  0.6670637998430046  0.4000675604034394
  0.9228410864003418  0.5644348794783893  0.3273887925619012
  0.7893140397127083  0.5899463587366490  0.4545766335228004
  0.7893080663941878  0.4873903147368508  0.3273887925619012
  0.8338142811557265  0.5129746703599278  0.4000675604034394
  0.9228386849680341  0.6156035907245432  0.4727463282449783
