Cl Mn O  P 
 1.0000000000000000
    65.0000000000000000    0.0000000000000000    0.0000000000000000
     0.0000000000000000   65.0000000000000000    0.0000000000000000
     0.0000000000000000    0.0000000000000000   65.0000000000000000
 Cl  Mn  O   P  
 366 3191 6248 108
Direct
  0.2329150000243435  0.1406065077939997  0.4060519299294758
  0.2329008073208552  0.1404090412230089  0.5212659688899776
  0.1242076488520520  0.3061607886253140  0.3354428233677641
  0.1439239513081503  0.2719948993656380  0.3354184973480949
  0.2132058354543430  0.2318673782102063  0.4465116609284391
  0.1191209815533490  0.2802813112238743  0.4808062846961406
  0.1242052474197447  0.3573294998714677  0.4808003590508410
  0.2132105055182059  0.2547005795068525  0.4081215912093025
  0.1191147306346962  0.2574477871429353  0.5191976363960632
  0.2131865569397443  0.1517801612699296  0.5534791268923795
  0.2082052568118109  0.6402112771807975  0.1900912133299868
  0.1242125516451123  0.3859565076932832  0.4465116609284391
  0.1636448939746965  0.3859525610029353  0.4465188685545248
  0.1439312890720360  0.3973245576416921  0.4787306977710143
  0.1242556459374201  0.6941347666594372  0.4465116609284391
  0.1439863576535747  0.7569630257263074  0.4060519299294758
  0.1439731970052638  0.7282961406639540  0.4465414669272034
  0.0994680022635350  0.7083864343194843  0.4807760330311719
  0.1191856229918109  0.7425486996731053  0.4808062846961406
  0.1439743833643438  0.7055028166078460  0.4787306977710143
  0.2132680754604973  0.7453034779055910  0.5918691966115160
  0.2132607712351293  0.7166764700837754  0.6261578947339179
  0.1687594592666511  0.7708878335286679  0.6645479644530544
  0.4357392107658983  0.1264873035191602  0.2627640555262256
  0.4357465149912663  0.1551143113409755  0.2284753574038237
  0.4554652524181900  0.1664823612893844  0.2606943942463988
  0.2774810862320359  0.4234919090093845  0.1153368585633220
  0.2971889677641181  0.3834932273331054  0.1174124454884484
  0.5247875631566676  0.3320366421206986  0.1900852876846872
  0.5247828930928047  0.3092034408240524  0.2284753574038237
  0.5445004441606478  0.3433648148285692  0.2285051634025882
  0.2774354241681504  0.1949503346240997  0.3354184973480949
  0.3022230678420355  0.1806986669640527  0.3011541252453622
  0.3219406189098795  0.2148600409685692  0.3011839312441265
  0.3219418052689592  0.1920667169124616  0.3333731620879373
  0.2526262034946963  0.1804032224013969  0.5191976363960632
  0.5247589445143434  0.2062830225871294  0.3738328930869006
  0.5247516402889753  0.1776560147653140  0.4081215912093025
  0.5444776819412666  0.2176510725355383  0.4060519299294758
  0.2329268079743044  0.2205346902471765  0.4080972651896333
  0.3861951463685430  0.4118284144983201  0.3011613328714478
  0.3664815414658821  0.4232004111370767  0.3333731620879373
  0.4109899913204581  0.4260840288487150  0.3354184973480949
  0.2526444287025798  0.2546969556007975  0.4081275168546021
  0.3219512117866115  0.3231636106117919  0.4807760330311719
  0.3022349093305138  0.3573294998714677  0.4808003590508410
  0.3022302392666505  0.3344962985748218  0.5191904287699776
  0.3416688325148873  0.3573258759654132  0.4808062846961406
  0.6137999926797446  0.3832053533668524  0.3354428233677641
  0.6138072969051123  0.4118323611886681  0.3011541252453622
  0.6335260343320359  0.4232004111370767  0.3333731620879373
  0.4110129198791098  0.5233297978070307  0.0831476277195113
  0.2972042639916196  0.5147488327352429  0.1558037971883711
  0.2577765917258992  0.5375859807222371  0.1174065198431488
  0.2972105149102722  0.5375823568161823  0.1174124454884484
  0.2774928941819964  0.5034200914625613  0.1173821938234796
  0.2577719216620354  0.5147527794255908  0.1557965895622852
  0.3468082997635743  0.6688419089086678  0.1557965895622852
  0.3220206560896893  0.6830935765687148  0.1900609616650180
  0.3665270371904980  0.6802099588570767  0.1880156264048604
  0.4307277111408501  0.4891644771121660  0.0831250293468325
  0.4307339620595030  0.5119980011931051  0.0447336776469100
  0.6335607708406481  0.6003743625485694  0.0831476277195113
  0.6138432197728050  0.5662129885440526  0.0831178217207469
  0.6335619571997283  0.5775810384924615  0.1153368585633220
  0.5890555760989196  0.5804646562040996  0.1173821938234796
  0.5445568821193171  0.6803039901583936  0.0851933618407469
  0.6087731968271953  0.6146269215577205  0.1174124454884484
  0.5642765549225798  0.6916714862992588  0.1174124454884484
  0.6335715300566519  0.6802099588570767  0.1880156264048604
  0.6532851349593128  0.6688379622183198  0.1558037971883711
  0.7225863610120362  0.6802099588570767  0.1880156264048604
  0.7028676235851126  0.6688419089086678  0.1557965895622852
  0.4109879392454708  0.4488787980614704  0.3032296653653622
  0.3912736888643595  0.4602499181083910  0.3354428233677641
  0.4110094863916249  0.6029679275445473  0.3032296653653622
  0.3862166935146967  0.5659175439813969  0.3011613328714478
  0.3665030886120357  0.5772895406201536  0.3333731620879373
  0.3665019022529560  0.6000828646762616  0.3011839312441265
  0.4110115384666118  0.5801731583317919  0.3354184973480949
  0.3912952360105145  0.6143390475914680  0.3354428233677641
  0.3467819497528047  0.6170902019178987  0.4465116609284391
  0.3467746455274367  0.5884631940960834  0.4808003590508410
  0.3664888959085475  0.5770920740491630  0.4485872010484390
  0.3862085687118102  0.5884595701900281  0.4808062846961406
  0.3665006871797284  0.6284582518663073  0.4787306977710143
  0.4110057155821870  0.6768359315454923  0.5192202347687421
  0.4307205068439273  0.6426706108506278  0.5191976363960632
  0.4555132997208555  0.6797209944137782  0.5212659688899776
  0.5890507732343044  0.6828020786964074  0.4080972651896333
  0.6583230845235732  0.5400456371763603  0.4465116609284391
  0.6335354408496887  0.5542973048364074  0.4807760330311719
  0.6780406355914173  0.5742070111808770  0.4465414669272034
  0.6335333887747013  0.5770920740491630  0.4485872010484390
  0.6532530615779645  0.5884595701900281  0.4808062846961406
  0.2526204801241184  0.1517765373638744  0.5534850525376792
  0.2526142292054654  0.1289430132829353  0.5918764042376016
  0.2774070220823940  0.1659933968460859  0.5939447367315160
  0.3219022946098790  0.1116481248593384  0.6645777704518190
  0.2576927717012832  0.1773645168930065  0.6261578947339179
  0.4999449508296887  0.1687829832564074  0.6988123365557872
  0.3021943163989586  0.1801156712194372  0.7372267322945930
  0.3219118674668021  0.2142770452239539  0.7372565382933575
  0.3416329096471949  0.2029452486100284  0.6988425882207560
  0.3416266587285429  0.1801117245290892  0.7372339399206786
  0.4802286483735910  0.2029488725160834  0.6988366625754564
  0.4999415293775712  0.2142770452239539  0.7372565382933575
  0.4802239783097277  0.1801156712194372  0.7372267322945930
  0.2774165949393168  0.2686223172107012  0.6666235045730544
  0.3022062906881899  0.2315758803378987  0.6645479644530544
  0.3219238417560326  0.2657372543424154  0.6645777704518190
  0.3219250281151128  0.2429439302863076  0.6967670012956295
  0.3664432171658820  0.3199884950278460  0.6967670012956295
  0.3467340525958815  0.4112493654440526  0.7372267322945930
  0.4109636413096889  0.3743323218579458  0.6261335687142487
  0.4554700224104977  0.3714487041463074  0.6240882334540911
  0.4357512849835740  0.3600806541978988  0.5918691966115160
  0.4554688360514171  0.3942420282024153  0.5918990026102804
  0.4306812620379643  0.4084945872115668  0.6261638203792175
  0.4109516670204580  0.3228721127394842  0.6988123365557872
  0.4109496149454707  0.3456668819522397  0.6666235045730544
  0.3664550251158425  0.3999166774810228  0.6988123365557872
  0.3912353645643599  0.3570380019991604  0.6988366625754564
  0.3861663949254653  0.4112454187537045  0.7372339399206786
  0.3664290244623938  0.3197910284568551  0.8119810402561313
  0.3912187202112665  0.2827445915840527  0.8099055001361315
  0.4109374576381898  0.2941126415324615  0.8421245369787066
  0.4999545236866119  0.2714119036210226  0.7714911043973258
  0.4802382212305138  0.3055777928806986  0.7715154304169949
  0.4999511022344944  0.3169059655885693  0.8099353061348957
  0.3861486972656569  0.3311585245977208  0.8442001239038329
  0.3664406493943043  0.3996251796087150  0.9168486400804027
  0.5692292364081897  0.0774867508548220  0.6645479644530544
  0.5889457554208561  0.1401175433507013  0.7393022724145929
  0.5692315050397444  0.1514886633976217  0.7715154304169949
  0.6086654282241184  0.1514850394915670  0.7715213560622943
  0.5196625715579645  0.2029452486100284  0.6988425882207560
  0.5889575466920366  0.1914837211678460  0.7694457691371682
  0.6086711515946972  0.1801117245290892  0.7372339399206786
  0.5196721444148873  0.3055741689746437  0.7715213560622943
  0.5196658934962352  0.2827406448937046  0.8099127077622170
  0.3912546430789585  0.4371252189394371  0.5918691966115160
  0.3467460268851124  0.4627095745625142  0.6645479644530544
  0.3467580011743429  0.5141697836809754  0.5918691966115160
  0.3861903435039271  0.5141658369906277  0.5918764042376016
  0.3467626712382058  0.5370029849776219  0.5534791268923795
  0.3664755522421864  0.5483311576854927  0.5918990026102804
  0.3022374106912664  0.4882939301855913  0.7372267322945930
  0.3022301064658983  0.4596669223637756  0.7715154304169949
  0.2526668963546967  0.5397501926137046  0.6645551720791399
  0.2774617413066118  0.5540058069640996  0.6988123365557872
  0.3861726458441183  0.4340789428346437  0.6988425882207560
  0.3664635779529559  0.4968709485670307  0.6645777704518190
  0.3416640296502723  0.4596632984577208  0.7715213560622943
  0.3219563311362396  0.4997560114353167  0.6666235045730544
  0.3416760039395028  0.5111235075761823  0.6988425882207560
  0.2329521050929561  0.5739155133085693  0.6645777704518190
  0.3664885465512271  0.6054660160825609  0.6261335687142487
  0.3912761902251121  0.5912143484225141  0.5918691966115160
  0.3664864944762398  0.6282607852953165  0.5939447367315160
  0.3862061672795029  0.6396282814361821  0.6261638203792175
  0.2774596892316250  0.5768005761768551  0.6666235045730544
  0.2577454388505142  0.5881716962237756  0.6988366625754564
  0.4306869854085422  0.4371212722490890  0.5918764042376016
  0.4306932363271953  0.4599547963300283  0.5534850525376792
  0.4109721941468020  0.4712865929439539  0.5918990026102804
  0.4109949276520358  0.6025823983709230  0.6240882334540911
  0.4357990493397447  0.6910921144606986  0.5534791268923795
  0.4555153517958423  0.6569262252010226  0.5534548008727104
  0.4802886197481896  0.6423830596686678  0.7372267322945930
  0.4554989239993168  0.6794294965414706  0.7393022724145929
  0.4555009760743041  0.6566347273287149  0.7714911043973258
  0.5000061708160327  0.6765444336731850  0.7372565382933575
  0.5642334277579643  0.6907969926823359  0.7715213560622943
  0.5445158070296888  0.6566347273287149  0.7714911043973258
  0.3912545102782063  0.5622958427283911  0.8441941982585333
  0.3467243469382061  0.4337910688683911  0.9168729661000716
  0.3861582701225796  0.4337874449623360  0.9168788917453715
  0.3912618145035743  0.5909228505502063  0.8099055001361315
  0.4109687606593171  0.5509247226814705  0.8119810402561313
  0.4109805519304976  0.6022909004986150  0.8421245369787066
  0.4306941568331581  0.5909189038598586  0.8099127077622170
  0.4554987409812668  0.6793354652401536  0.8421245369787066
  0.5445017806654706  0.6279692874230093  0.8119810402561313
  0.5445135719366512  0.6793354652401536  0.8421245369787066
  0.5000071908358429  0.6822190829517918  0.8441698722388640
  0.5642214534687338  0.6393367835638745  0.8442001239038329
  0.5247875302843599  0.6393404074699294  0.8441941982585333
  0.8808445854743433  0.5653384949271295  0.7372267322945930
  0.3220186040147015  0.7058883457814705  0.1578721296822854
  0.3417382768179646  0.7172558419223362  0.1900912133299868
  0.3665258508314179  0.7030032829131846  0.1558263955610497
  0.3665268708512275  0.7086779321917920  0.2627397295065563
  0.3665248187762407  0.7314727014045475  0.2305508975238236
  0.4803413197697279  0.7458864736502064  0.1557965895622852
  0.5197736620993121  0.7458825269598585  0.1558037971883711
  0.5000588708375714  0.7800478476547231  0.1558263955610497
  0.3913145145251126  0.6944262645317449  0.2284753574038237
  0.4110320655929561  0.7285876385362616  0.2285051634025882
  0.3862444915795025  0.7428401975454130  0.2627699811715252
  0.5197832349562352  0.8485114473244737  0.2284825650299094
  0.5000578387823946  0.8085172661460858  0.2305508975238236
  0.4803435884012839  0.8198883861930064  0.2627640555262256
  0.5197775115856565  0.8198847622869514  0.2627699811715252
  0.5000674116393170  0.9111461865107012  0.3032296653653622
  0.2578006402328050  0.8226395405194371  0.3738328930869006
  0.2775181913006485  0.8568009145239538  0.3738626990856652
  0.2775216127527660  0.8113068525564072  0.3354184973480949
  0.2578053102966679  0.8454727418160832  0.3354428233677641
  0.2972392334810414  0.8454691179100282  0.3354487490130638
  0.2972329825623888  0.8226355938290894  0.3738401007129862
  0.5197568849454657  0.7967597403337047  0.5191976363960632
  0.5000694637143043  0.8883514172979459  0.3354184973480949
  0.4555610138597287  0.8854677995863075  0.3333731620879373
  0.4803531612582067  0.9225173065576217  0.3354428233677641
  0.5445686733904976  0.7316701679755382  0.1153368585633220
  0.6335703436975713  0.7030032829131846  0.1558263955610497
  0.6780779278362402  0.7058883457814705  0.1578721296822854
  0.6532947078162352  0.7714668825829353  0.2284825650299094
  0.6138623654866514  0.7714708292732833  0.2284753574038237
  0.6335811029135742  0.7828388792216918  0.2606943942463988
  0.6532889844456564  0.7428401975454130  0.2627699811715252
  0.5693344707782064  0.7169679679560832  0.4081215912093025
  0.6087683939625799  0.7169643440500284  0.4081275168546021
  0.6138406855397447  0.7425523235791601  0.4808003590508410
  0.6087621430439273  0.6941308199690890  0.4465188685545248
  0.5693513478604967  0.8482238961425139  0.4465116609284391
  0.6138526598289756  0.7940125326976217  0.4081215912093025
  0.5890688989283407  0.8823852701470307  0.4465414669272034
  0.5890700852874209  0.8595919460909228  0.4787306977710143
  0.6335689622850738  0.7598466434379457  0.4080972651896333
  0.7225697668762402  0.7311812035322397  0.4485872010484390
  0.6335549359208563  0.7311812035322397  0.4485872010484390
  0.6532746087241186  0.7425486996731053  0.4808062846961406
  0.7028555164951295  0.7425523235791601  0.4808003590508410
  0.7225815581474208  0.7825473813493845  0.4787306977710143
  0.6335667271920364  0.7825473813493845  0.4787306977710143
  0.6335655408329562  0.8053407054054923  0.4465414669272034
  0.6532865830133491  0.7940089087915668  0.4081275168546021
  0.5642813249148879  0.8966378291561823  0.4808062846961406
  0.7422894396795029  0.7425486996731053  0.4808062846961406
  0.7422951630500813  0.7711753847106279  0.4465188685545248
  0.2527004177900809  0.7452995312152428  0.5918764042376016
  0.2329750216162408  0.7053053500368551  0.5939447367315160
  0.2329868128874208  0.7566715278539997  0.6240882334540911
  0.2526946944195030  0.7166728461777208  0.6261638203792175
  0.3913024074351291  0.7681366792022369  0.5534791268923795
  0.4307363306195030  0.7681330552961819  0.5534850525376792
  0.4110166578162404  0.7567655591553166  0.5212659688899776
  0.4110284490874209  0.8081317369724614  0.5514094656125527
  0.4803125683266514  0.7453034779055910  0.5918691966115160
  0.5197449106562347  0.7452995312152428  0.5918764042376016
  0.4803052641012834  0.7166764700837754  0.6261578947339179
  0.5000195144823946  0.7053053500368551  0.5939447367315160
  0.5000420936837250  0.8309250610285692  0.5192202347687421
  0.5000432800428056  0.8081317369724614  0.5514094656125527
  0.5248234531520526  0.7937210348253141  0.6261578947339179
  0.5642573763364261  0.7937174109192588  0.6261638203792175
  0.5445517298973812  0.8110153546840996  0.5534548008727104
  0.5445243598668024  0.7535889984147234  0.7372565382933575
  0.5445255462258821  0.7307956743586154  0.7694457691371682
  0.5445363341560333  0.8050492075331847  0.6645777704518190
  0.5642511254177736  0.7708838868383197  0.6645551720791399
  0.5890319440054708  0.7564740612830089  0.7393022724145929
  0.5890339960804581  0.7336792920702535  0.7714911043973258
  0.6138263098182065  0.7422608257068524  0.6988366625754564
  0.6335391908221867  0.7535889984147234  0.7372565382933575
  0.6532539820839278  0.7194236777198585  0.7372339399206786
  0.6335426122743041  0.7080949364471766  0.6988123365557872
  0.6532602330025800  0.7422572018007976  0.6988425882207560
  0.5445472763900862  0.8849788351430089  0.6666235045730544
  0.6335621073454709  0.8849788351430089  0.6666235045730544
  0.6335641594204582  0.8621840659302535  0.6988123365557872
  0.6138431869004972  0.8735167538932834  0.7372267322945930
  0.5248330260089754  0.8963499551899293  0.6988366625754564
  0.5248403302343434  0.9249769630117448  0.6645479644530544
  0.5642726725639272  0.9249730163213968  0.6645551720791399
  0.5445123855775714  0.7021287892962619  0.8099353061348957
  0.4554975546221871  0.7021287892962619  0.8099353061348957
  0.4802908883797448  0.7163849722114680  0.8441941982585333
  0.5693176936243600  0.7678451813299295  0.7715154304169949
  0.6335166444931631  0.3206655220737782  0.1578721296822854
  0.7225420803606483  0.3948250239470307  0.1558263955610497
  0.7422568716223890  0.3606597032521663  0.1558037971883711
  0.7670496644993171  0.3977100868153166  0.1578721296822854
  0.7422999659146967  0.6688379622183198  0.1558037971883711
  0.7225745697408558  0.6288437810399319  0.1578721296822854
  0.4999497536943046  0.0664455607640997  0.4080972651896333
  0.5889623495566516  0.0891462986755383  0.4787306977710143
  0.5444559684558429  0.0920299163871766  0.4807760330311719
  0.5444549484360331  0.0863552671085693  0.3738626990856652
  0.5196673744225800  0.1006078261177205  0.4081275168546021
  0.5889611631975715  0.1119396227316462  0.4465414669272034
  0.5444539163808556  0.1148246855999320  0.4485872010484390
  0.5641735891841183  0.1261921817407975  0.4808062846961406
  0.6779867533689592  0.1917752190401537  0.5514094656125527
  0.6334567730470094  0.0633644764814705  0.5212659688899776
  0.6531764458502721  0.0747319726223359  0.5534850525376792
  0.6977003582716197  0.1804032224013969  0.5191976363960632
  0.7669884236760328  0.1631083339777999  0.5918990026102804
  0.7224952032235348  0.1946588367517919  0.5534548008727104
  0.4751731339502722  0.1264836796131054  0.2627699811715252
  0.5444658906700861  0.1662848947183936  0.3759084332069006
  0.5641855634733492  0.1776523908592591  0.4081275168546021
  0.7027862049928051  0.2574517338332832  0.5191904287699776
  0.6779855670098794  0.2145685430962615  0.5192202347687421
  0.7027789007674371  0.2288247260114679  0.5534791268923795
  0.7225049424197288  0.2688197837816923  0.5514094656125527
  0.6779985613189197  0.2717034014933303  0.5534548008727104
  0.6137784455335910  0.2291162238837757  0.3354428233677641
  0.6779965092439323  0.2944981707060859  0.5212659688899776
  0.6977161820471950  0.3058656668469513  0.5534850525376792
  0.7670231314704976  0.3458643485232304  0.5514094656125527
  0.7225167503696889  0.3487479662348687  0.5534548008727104
  0.5642152354223889  0.3091994941337043  0.2284825650299094
  0.5445038656127658  0.2978707528610228  0.1900609616650180
  0.6335033008268021  0.2919046057101076  0.3011839312441265
  0.6582966345843602  0.3061607886253140  0.3354428233677641
  0.7225288909981898  0.3717402020186154  0.4060519299294758
  0.7225146982947019  0.3715427354476245  0.5212659688899776
  0.7422343710979642  0.3829102315884899  0.5534850525376792
  0.8363287978558819  0.4371252189394371  0.5918691966115160
  0.6335142430608555  0.3718342333199320  0.3032296653653622
  0.6532339158641182  0.3832017294607976  0.3354487490130638
  0.7225277046391101  0.3945335260747231  0.3738626990856652
  0.7473210383966677  0.4087897089899293  0.4081215912093025
  0.8560463489237254  0.4712865929439539  0.5918990026102804
  0.6532061177993119  0.2062790758967815  0.3738401007129862
  0.6334947479896891  0.1949503346240997  0.3354184973480949
  0.7224931511485474  0.2174536059645473  0.5212659688899776
  0.6532180920885428  0.2577392850152431  0.3011613328714478
  0.6532123687179645  0.2291125999777206  0.3354487490130638
  0.6780129370404578  0.2719948993656380  0.3354184973480949
  0.7670255329028054  0.2946956372770766  0.4060519299294758
  0.6780250776689593  0.2949871351493845  0.1880156264048604
  0.6335186965681505  0.2978707528610228  0.1900609616650180
  0.7422424959008503  0.3603682053798585  0.3738401007129862
  0.7670243465437256  0.3174889613331846  0.3738626990856652
  0.6532363172964263  0.3320330182146438  0.1900912133299868
  0.7225432667197285  0.3720316998909228  0.1880156264048604
  0.7670352887777785  0.3974185889430089  0.3759084332069006
  0.7473354141182064  0.4090812068622372  0.1900852876846872
  0.9450863148166517  0.5514136871247692  0.4787306977710143
  0.8808660326920527  0.5372944828499295  0.3354428233677641
  0.9005920743443440  0.5772895406201536  0.3333731620879373
  0.7867391378054659  0.2833236406383200  0.3738401007129862
  0.8115319306823940  0.3203740242014707  0.3759084332069006
  0.9253460302435743  0.3859565076932832  0.4465116609284391
  0.9450647676704976  0.3973245576416921  0.4787306977710143
  0.7670517165743045  0.3749153176025612  0.1900609616650180
  0.9450635813114174  0.4201178816978000  0.4465414669272034
  0.9202760072979642  0.4343704407069514  0.4808062846961406
  0.9005802830731634  0.5259233628030090  0.3032296653653622
  0.9202999558764261  0.5372908589438744  0.3354487490130638
  0.8808829097743434  0.6685504110363604  0.3738328930869006
  0.9006016472012671  0.6799184609847690  0.4060519299294758
  0.8560952661004584  0.6828020786964074  0.4080972651896333
  0.7422942425441184  0.6402112771807975  0.1900912133299868
  0.8560932140254710  0.7055968479091628  0.3759084332069006
  0.8758128868287337  0.7169643440500284  0.4081275168546021
  0.7224798074821868  0.1886926896008771  0.6645777704518190
  0.7472731412397449  0.2029488725160834  0.6988366625754564
  0.7421945987439271  0.1545273689060123  0.6645551720791399
  0.8560475352828051  0.4484932688878460  0.6240882334540911
  0.8115411541819963  0.4513768865994844  0.6261335687142487
  0.8312587749102722  0.4855391519531052  0.6261638203792175
  0.2329179845196139  0.2687232122945375  0.6090177012266257
  0.1883997954688445  0.1916786475529990  0.6090177012266257
  0.2106568722337751  0.2301975935591936  0.6090169528533534
  0.2106556514664281  0.2557825817394363  0.6816947058812564
  0.2329060102303830  0.2172630031760759  0.6816964690681643
  0.1884133695046160  0.3200350170215386  0.6453575356830769
  0.1884213426149984  0.3457677770360759  0.6090177012266257
  0.1884093683257677  0.2943075679176144  0.6816964690681643
  0.2106652243233517  0.3584115021040518  0.7543734737227946
  0.2106664450906981  0.3328265139238089  0.6816957206948917
  0.2329155830873062  0.3198919235406912  0.7543752369097028
  0.2329195842661543  0.3456193726446153  0.7180363035246153
  0.1662308552971977  0.6415884011917439  0.2456220988320257
  0.0772016486202745  0.6412969033194361  0.4636584023566412
  0.1662188810079674  0.5901281920732824  0.3183008666735642
  0.1662164795756590  0.6412969033194361  0.4636584023566412
  0.0994200856953853  0.4741241465046152  0.6453575356830769
  0.0994376316626911  0.6024858268837683  0.6816964690681643
  0.0771884936660828  0.6154204172668859  0.6090169528533534
  0.0994416328415390  0.6282132759876922  0.6453575356830769
  0.1216623676571975  0.4098717112225133  0.6816947058812564
  0.1216635884245444  0.3842867230422707  0.6090169528533534
  0.1439127264211524  0.3713521326591528  0.6816964690681643
  0.2106771986125822  0.4098717112225133  0.6816947058812564
  0.2106784193799288  0.3842867230422707  0.6090169528533534
  0.1439247007103830  0.4228123417776143  0.6090177012266257
  0.1216731612814674  0.4869156434068860  0.6816957206948917
  0.1884349166507696  0.4741241465046152  0.6453575356830769
  0.2106879922368522  0.4869156434068860  0.6816957206948917
  0.1439342735673062  0.5254412621422296  0.6816964690681643
  0.1216851355706983  0.5383758525253475  0.6090169528533534
  0.2106999665260829  0.5383758525253475  0.6090169528533534
  0.2106987457587361  0.5639608407055903  0.6816947058812564
  0.1662021038541208  0.6410054054471287  0.6816947058812564
  0.1439462478565369  0.5769014712606911  0.6090177012266257
  0.1216947084276215  0.6410047728899628  0.6816957206948917
  0.1662033246214675  0.6154204172668859  0.6090169528533534
  0.1884564637969235  0.6282132759876922  0.6453575356830769
  0.1216719405141204  0.5125006315871284  0.7543734737227946
  0.1884189411826909  0.3969364882822297  0.7543752369097028
  0.2106760179476214  0.4354554342884245  0.7543744885364304
  0.2106867714695052  0.5125006315871284  0.7543734737227946
  0.1884404883288447  0.5510256177653066  0.7543752369097028
  0.1884444895076928  0.5767530668692307  0.7180363035246153
  0.2106975650937754  0.5895445637715013  0.7543744885364304
  0.1661901295648903  0.5895451963286672  0.7543734737227946
  0.2106747971802741  0.4610404224686671  0.8270522415643334
  0.1884285140396141  0.4995654086468451  0.8270540047512411
  0.2106855908045444  0.5380843546530398  0.8270532563779688
  0.2106963443264284  0.6151295519517439  0.8270522415643334
  0.1439765990461546  0.6543806273553845  0.2819636964753845
  0.1217210584383906  0.6927564798807317  0.3909806493287379
  0.1662296746322367  0.6671721242576550  0.3183018814871996
  0.1884907869180755  0.7056977429929989  0.3183026298604720
  0.1662404281541209  0.7442173215563593  0.3183008666735642
  0.1662284538648899  0.6927571124378978  0.3909796345151026
  0.1884788126288448  0.6542375338745374  0.3909813977020104
  0.1439741976138468  0.7055493386015385  0.4273212321584615
  0.1439821707242293  0.7312820986160758  0.3909813977020104
  0.1885003597749985  0.8083266633576144  0.3909813977020104
  0.0994615802411523  0.7054062451206912  0.5363389333850875
  0.1662260524325826  0.7439258236840516  0.5363371701981795
  0.1884764111965371  0.7054062451206912  0.5363389333850875
  0.1884883854857675  0.7568664542391527  0.4636601655435488
  0.1662380267218129  0.7953860328025131  0.4636584023566412
  0.1439717961815393  0.7567180498476920  0.5726787678415385
  0.1439797692919217  0.7824508098622296  0.5363389333850875
  0.2107442414833516  0.8209703884255902  0.5363371701981795
  0.1217066827168522  0.6924649820084244  0.6090169528533534
  0.1439598218923082  0.7052578407292307  0.6453575356830769
  0.1439677950026908  0.7309906007437683  0.6090177012266257
  0.1662140781433515  0.6924656145655900  0.6090159380397180
  0.1439478476030779  0.6537976316107693  0.7180363035246153
  0.2107202929048898  0.7180499701886670  0.6816947058812564
  0.1884740097642295  0.7565749563668452  0.6816964690681643
  0.1884859840534600  0.8080351654853067  0.6090177012266257
  0.1662248717676212  0.7695095467499629  0.6090169528533534
  0.2107322671941207  0.7695101793071283  0.6090159380397180
  0.2107083186156593  0.6665897610702055  0.7543734737227946
  0.2107191122399290  0.7436336932545783  0.7543744885364304
  0.3219416195184618  0.1921132389061539  0.2819636964753845
  0.2551918384383901  0.2563649449268860  0.2456231136456610
  0.2996992338648896  0.2563655774840516  0.2456220988320257
  0.3664598085692310  0.2691578036476922  0.2819636964753845
  0.2552038127276210  0.3078251540453475  0.1729443458041226
  0.2329682831088445  0.4233953375222296  0.1729450941773951
  0.3664717828584615  0.3206180127661538  0.2092849286338461
  0.4109779976200003  0.3462023683892308  0.2819636964753845
  0.2774290021457677  0.1919701454253067  0.3909813977020104
  0.2551798641491596  0.2049047358084244  0.3183018814871996
  0.3664478342800001  0.2176975945292307  0.3546424643169231
  0.3219352169073060  0.2175545010483836  0.4636601655435488
  0.2774409764349982  0.2434303545437682  0.3183026298604720
  0.2996980531999288  0.2819493005499629  0.3183018814871996
  0.2996860789106979  0.2304890914315013  0.3909806493287379
  0.3219471911965369  0.2690147101668452  0.3909813977020104
  0.3442054486264287  0.2819499331071285  0.3183008666735642
  0.3441934743371974  0.2304897239886669  0.3909796345151026
  0.3219591654857674  0.3204749192853066  0.3183026298604720
  0.3442162422506980  0.3589938652915014  0.3183018814871996
  0.3664534059580752  0.2945990657899220  0.4636601655435488
  0.3887104827230062  0.3331180117961168  0.4636594171702764
  0.3664414316688443  0.2431388566714606  0.5363389333850875
  0.4109596207196135  0.3201834214129989  0.5363389333850875
  0.3886985084337749  0.2816578026776552  0.5363381850118148
  0.4554842123815385  0.3717867240123077  0.3546424643169231
  0.4554722380923076  0.3203265148938461  0.4273212321584615
  0.4554602638030771  0.2688663057753845  0.5000000000000000
  0.4332286717737751  0.4101625765376549  0.4636594171702764
  0.4777240929110436  0.3587029999763593  0.5363371701981795
  0.4332166974845441  0.3587023674191938  0.5363381850118148
  0.4554778097703827  0.3972279861545375  0.5363389333850875
  0.4332274510064281  0.4357475647178977  0.5363371701981795
  0.2552253598737751  0.4619142835284243  0.1729443458041226
  0.2997435489245443  0.5389588482699627  0.1729443458041226
  0.2552469070199292  0.6160034130115013  0.1729443458041226
  0.3887799270260827  0.6930479777530396  0.1729443458041226
  0.3665228502611526  0.6545290317468452  0.1729450941773951
  0.4332765689306983  0.6160034130115013  0.1729443458041226
  0.4110194921657677  0.5774844670053065  0.1729450941773951
  0.5000343231211525  0.5774844670053065  0.1729450941773951
  0.5222913998860831  0.6160034130115013  0.1729443458041226
  0.4555376812165369  0.6545290317468452  0.1729450941773951
  0.5890491540765372  0.5774844670053065  0.1729450941773951
  0.6113062308414674  0.6160034130115013  0.1729443458041226
  0.3442389700618129  0.4874992717086669  0.2456220988320257
  0.2997423281571973  0.5645438364502057  0.2456220988320257
  0.3442269957725824  0.4360390625902053  0.3183008666735642
  0.3219807126319211  0.4745640487683838  0.3183026298604720
  0.3442377893968517  0.5130829947745783  0.3183018814871996
  0.3664933300046156  0.4747071422492308  0.2092849286338461
  0.4109995447661539  0.5002914978723078  0.2819636964753845
  0.3887451848233512  0.5130836273317440  0.3183008666735642
  0.2775000461953854  0.6287962717323076  0.2092849286338461
  0.2329994031119218  0.6801133873699218  0.2456238620189336
  0.2552456862525822  0.6415884011917439  0.2456220988320257
  0.2329914300015389  0.6543806273553845  0.2819636964753845
  0.3220142340673061  0.6801133873699218  0.2456238620189336
  0.3442605172079674  0.6415884011917439  0.2456220988320257
  0.2552337119633518  0.5901281920732824  0.3183008666735642
  0.3442485429187361  0.5901281920732824  0.3183008666735642
  0.2329874288226908  0.6286531782514605  0.3183026298604720
  0.2552445055876215  0.6671721242576550  0.3183018814871996
  0.3220022597780756  0.6286531782514605  0.3183026298604720
  0.4110210919123089  0.6543806273553845  0.2819636964753845
  0.4110290650226909  0.6801133873699218  0.2456238620189336
  0.4332753481633518  0.6415884011917439  0.2456220988320257
  0.4110170907334599  0.6286531782514605  0.3183026298604720
  0.3887667319695057  0.6671727568148207  0.3183008666735642
  0.4332633738741208  0.5901281920732824  0.3183008666735642
  0.4332741674983905  0.6671721242576550  0.3183018814871996
  0.2552432848202745  0.6927571124378978  0.3909796345151026
  0.2552313105310436  0.6412969033194361  0.4636584023566412
  0.3442581157756592  0.6927571124378978  0.3909796345151026
  0.4332513995848899  0.5386679829548209  0.3909796345151026
  0.4109811678657672  0.4742725508960759  0.5363389333850875
  0.4332394252956590  0.4872077738363597  0.4636584023566412
  0.4109931421549985  0.5257327600145374  0.4636601655435488
  0.4332502189199292  0.5642517060207322  0.4636594171702764
  0.4332382446306978  0.5127914969022707  0.5363381850118148
  0.4554993569165368  0.5513171156376143  0.5363389333850875
  0.4110051164442290  0.5771929691329991  0.3909813977020104
  0.3887655513045445  0.6927564798807317  0.3909806493287379
  0.4777695886356592  0.6157125476963593  0.3909796345151026
  0.4332621932091596  0.6157119151391935  0.3909806493287379
  0.4332729467310441  0.6927571124378978  0.3909796345151026
  0.4777803822599293  0.6927564798807317  0.3909806493287379
  0.4555113312057678  0.6027773247560759  0.4636601655435488
  0.3887523562479671  0.6668812589425130  0.5363371701981795
  0.4332609724418131  0.6412969033194361  0.4636584023566412
  0.4777684079706984  0.6412962707622705  0.4636594171702764
  0.5000438959780756  0.6801133873699218  0.2456238620189336
  0.5222901791187361  0.6415884011917439  0.2456220988320257
  0.5445445390615389  0.6287962717323076  0.2092849286338461
  0.5222782048295052  0.5901281920732824  0.3183008666735642
  0.5000239485784619  0.6029204182369232  0.3546424643169231
  0.5000319216888447  0.6286531782514605  0.3183026298604720
  0.5222889984537753  0.6671721242576550  0.3183018814871996
  0.5445421376292311  0.6799649829784615  0.3546424643169231
  0.6112930357848899  0.5901281920732824  0.3183008666735642
  0.5890467526442295  0.6286531782514605  0.3183026298604720
  0.6113038294091592  0.6671721242576550  0.3183018814871996
  0.5000119742892309  0.5514602091184615  0.4273212321584615
  0.5000000000000000  0.5000000000000000  0.5000000000000000
  0.5222758033971979  0.6412969033194361  0.4636584023566412
  0.5222877776864283  0.6927571124378978  0.3909796345151026
  0.5445301633400002  0.6285047738600000  0.4273212321584615
  0.5445381364503830  0.6542375338745374  0.3909813977020104
  0.5667952132153136  0.6927564798807317  0.3909806493287379
  0.5222638291079665  0.5898366942009746  0.5363371701981795
  0.5000295202565370  0.6798218894976144  0.4636601655435488
  0.5890443512119218  0.6798218894976144  0.4636601655435488
  0.7003078667402747  0.5901281920732824  0.3183008666735642
  0.6335593700169236  0.6287962717323076  0.2092849286338461
  0.6558124456030061  0.6415877686345782  0.2456231136456610
  0.6780735578888447  0.6801133873699218  0.2456238620189336
  0.6780615835996138  0.6286531782514605  0.3183026298604720
  0.6335569685846159  0.6799649829784615  0.3546424643169231
  0.7225742009723088  0.6287962717323076  0.2092849286338461
  0.7003198410295052  0.6415884011917439  0.2456220988320257
  0.7003186603645439  0.6671721242576550  0.3183018814871996
  0.7003174395971975  0.6927571124378978  0.3909796345151026
  0.7225717995400006  0.6799649829784615  0.3546424643169231
  0.7893322705525823  0.6927571124378978  0.3909796345151026
  0.8115866304953854  0.6799649829784615  0.3546424643169231
  0.6780591821673065  0.6798218894976144  0.4636601655435488
  0.7003054653079666  0.6412969033194361  0.4636584023566412
  0.7893202962633513  0.6412969033194361  0.4636584023566412
  0.8338265110248900  0.6668812589425130  0.5363371701981795
  0.3886649869983907  0.0761084640761166  0.6090169528533534
  0.4776798179537755  0.0761084640761166  0.6090169528533534
  0.3219112683288446  0.1146340828114604  0.6090177012266257
  0.2774146264242290  0.1916786475529990  0.6090177012266257
  0.2774026521349985  0.1402184384345374  0.6816964690681643
  0.2551522933710434  0.1787380169978977  0.6816947058812564
  0.2996597288999291  0.1787373844407318  0.6816957206948917
  0.2774066533138466  0.1659458875384617  0.6453575356830769
  0.3664174830903834  0.1402184384345374  0.6816964690681643
  0.3441671243264278  0.1787380169978977  0.6816947058812564
  0.3219208411857678  0.2172630031760759  0.6816964690681643
  0.4999409302396141  0.1146340828114604  0.6090177012266257
  0.3886637662310438  0.1016934522563594  0.6816947058812564
  0.4776785971864281  0.1016934522563594  0.6816947058812564
  0.4331819552818126  0.1787380169978977  0.6816947058812564
  0.4554363152246158  0.1659458875384617  0.6453575356830769
  0.3219088668965369  0.1658027940576143  0.7543752369097028
  0.2996585081325818  0.2043223726209746  0.7543734737227946
  0.3664190828369232  0.2171145987846153  0.7907150713661536
  0.3441659436614675  0.2043217400638092  0.7543744885364304
  0.4554243409353848  0.1144856784199998  0.7180363035246153
  0.4331699809925821  0.1272778078794365  0.7543734737227946
  0.4109236978519216  0.1658027940576143  0.7543752369097028
  0.4331807746168522  0.2043217400638092  0.7543744885364304
  0.4554339137923080  0.2171145987846153  0.7907150713661536
  0.4999385288073059  0.1658027940576143  0.7543752369097028
  0.2551750612845445  0.3072421583007320  0.6090169528533534
  0.2996717031891596  0.2301975935591936  0.6090169528533534
  0.3219248423646154  0.2429904522799999  0.6453575356830769
  0.2774361735703831  0.3457677770360759  0.6090177012266257
  0.2329315585553847  0.3970795817630768  0.6453575356830769
  0.3664430314153851  0.3200350170215386  0.6453575356830769
  0.3219463895107691  0.3970795817630768  0.6453575356830769
  0.2774162261707698  0.2685748079030769  0.7180363035246153
  0.2551630869953136  0.2557819491822704  0.6816957206948917
  0.2774241992811523  0.2943075679176144  0.6816964690681643
  0.2551618662279667  0.2813669373625132  0.7543734737227946
  0.3441779179506984  0.2557819491822704  0.6816957206948917
  0.3664310571261541  0.2685748079030769  0.7180363035246153
  0.3664390302365370  0.2943075679176144  0.6816964690681643
  0.3441766971833514  0.2813669373625132  0.7543734737227946
  0.2996812760460828  0.3328265139238089  0.6816957206948917
  0.2551846341414672  0.4098710786653476  0.6816957206948917
  0.3441886714725819  0.3328271464809747  0.6816947058812564
  0.3219344152215386  0.3456193726446153  0.7180363035246153
  0.3219423883319215  0.3713521326591528  0.6816964690681643
  0.2996920295679668  0.4098717112225133  0.6816947058812564
  0.3441994650968516  0.4098710786653476  0.6816957206948917
  0.3886865341445444  0.2301975935591936  0.6090169528533534
  0.4109476464303830  0.2687232122945375  0.6090177012266257
  0.4331939295710435  0.2301982261163593  0.6090159380397180
  0.4999624773857678  0.2687232122945375  0.6090177012266257
  0.4777121186218127  0.3072427908578978  0.6090159380397180
  0.4999664785646159  0.2944506613984615  0.5726787678415385
  0.4332047231953136  0.3072421583007320  0.6090169528533534
  0.3664510045257675  0.3457677770360759  0.6090177012266257
  0.3887080812906981  0.3842867230422707  0.6090169528533534
  0.4777229122460833  0.3842867230422707  0.6090169528533534
  0.4109396733199998  0.2429904522799999  0.6453575356830769
  0.3886853133771975  0.2557825817394363  0.6816947058812564
  0.4331915281387357  0.2813669373625132  0.7543734737227946
  0.4999545042753845  0.2429904522799999  0.6453575356830769
  0.4554458880815389  0.2685748079030769  0.7180363035246153
  0.4554538611919213  0.2943075679176144  0.6816964690681643
  0.4777109379568519  0.3328265139238089  0.6816957206948917
  0.4554578623707694  0.3200350170215386  0.6453575356830769
  0.4109572192873062  0.3713521326591528  0.6816964690681643
  0.4109612204661539  0.3970795817630768  0.6453575356830769
  0.3887068605233516  0.4098717112225133  0.6816947058812564
  0.3886948862341206  0.3584115021040518  0.7543734737227946
  0.4332142960522364  0.4098710786653476  0.6816957206948917
  0.3219184397534600  0.2684317144222298  0.8270540047512411
  0.2774122249919213  0.2428473587991529  0.7543752369097028
  0.3441647228941205  0.2299067282440516  0.8270522415643334
  0.3441755165183906  0.3069506604284244  0.8270532563779688
  0.3219304140426905  0.3198919235406912  0.7543752369097028
  0.3664406299830774  0.3712037282676922  0.7907150713661536
  0.3664366288042293  0.3454762791637682  0.8270540047512411
  0.3441862700402742  0.3839958577271286  0.8270522415643334
  0.3219399868996137  0.4225208439053066  0.8270540047512411
  0.4109372718876925  0.2941591635261538  0.7907150713661536
  0.4331795538495053  0.2299067282440516  0.8270522415643334
  0.4331903474737750  0.3069506604284244  0.8270532563779688
  0.4109332707088444  0.2684317144222298  0.8270540047512411
  0.3886721584230057  0.2299060956868860  0.8270532563779688
  0.4554418869026908  0.2428473587991529  0.7543752369097028
  0.4776869893783905  0.2299060956868860  0.8270532563779688
  0.4999481016642291  0.2684317144222298  0.8270540047512411
  0.4776989636676214  0.2813663048053475  0.7543744885364304
  0.4776977429002745  0.3069512929855902  0.8270522415643334
  0.4109452449980753  0.3198919235406912  0.7543752369097028
  0.4332023217630059  0.3584108695468860  0.7543744885364304
  0.3886937055691599  0.3839952251699629  0.8270532563779688
  0.4332011009956589  0.3839958577271286  0.8270522415643334
  0.4999600759534601  0.3198919235406912  0.7543752369097028
  0.4554514597596136  0.3454762791637682  0.8270540047512411
  0.4554554609384617  0.3712037282676922  0.7907150713661536
  0.4777085365245446  0.3839952251699629  0.8270532563779688
  0.3441742957510437  0.3325356486086671  0.8997310094058718
  0.4109252975984620  0.2426989544076924  0.8633938392076924
  0.3664286556938464  0.3197435191492308  0.8633938392076924
  0.3219320137892313  0.3967880838907691  0.8633938392076924
  0.2996776538464290  0.4095802133502054  0.8997310094058718
  0.3219280126103828  0.3710606347868453  0.8997327725927795
  0.3441850893753138  0.4095795807930397  0.8997320242195072
  0.4109428435657675  0.3710606347868453  0.8997327725927795
  0.4554434866492312  0.3197435191492308  0.8633938392076924
  0.4331999203306986  0.4095795807930397  0.8997320242195072
  0.4999616757000004  0.3967880838907691  0.8633938392076924
  0.4999576745211523  0.3710606347868453  0.8997327725927795
  0.5444471450011524  0.1402184384345374  0.6816964690681643
  0.5444391718907696  0.1144856784199998  0.7180363035246153
  0.5221848119479668  0.1272778078794365  0.7543734737227946
  0.5666922474768521  0.1272771753222706  0.7543744885364304
  0.5444511461800005  0.1659458875384617  0.6453575356830769
  0.5667161960553140  0.2301975935591936  0.6090169528533534
  0.5889693352307693  0.2429904522799999  0.6453575356830769
  0.6779841661861541  0.2429904522799999  0.6453575356830769
  0.5221967862371969  0.1787380169978977  0.6816947058812564
  0.5889573609415388  0.1915302431615385  0.7180363035246153
  0.5667042217660830  0.1787373844407318  0.6816957206948917
  0.5667149752879665  0.2557825817394363  0.6816947058812564
  0.6779721918969236  0.1915302431615385  0.7180363035246153
  0.5221956055722365  0.2043217400638092  0.7543744885364304
  0.5667030009987361  0.2043223726209746  0.7543734737227946
  0.5444447435688451  0.1913871496806912  0.8270540047512411
  0.5667018203337753  0.2299060956868860  0.8270532563779688
  0.6557178319541208  0.2043223726209746  0.7543734737227946
  0.6334715488134599  0.2428473587991529  0.7543752369097028
  0.6557166512891600  0.2299060956868860  0.8270532563779688
  0.5889549595092310  0.2426989544076924  0.8633938392076924
  0.5222195541506980  0.3072421583007320  0.6090169528533534
  0.5444726933261542  0.3200350170215386  0.6453575356830769
  0.5222183333833514  0.3328271464809747  0.6816947058812564
  0.6112343851060832  0.3072421583007320  0.6090169528533534
  0.5889773083411521  0.2687232122945375  0.6090177012266257
  0.6112331643387358  0.3328271464809747  0.6816947058812564
  0.4999840245319215  0.4228123417776143  0.6090177012266257
  0.5444846676153851  0.3714952261400000  0.5726787678415385
  0.4999760514215386  0.3970795817630768  0.6453575356830769
  0.5889908823769230  0.3970795817630768  0.6453575356830769
  0.6112439579630059  0.4098710786653476  0.6816957206948917
  0.5222063590941205  0.2813669373625132  0.7543734737227946
  0.6112211900495048  0.2813669373625132  0.7543734737227946
  0.5667125738556589  0.3069512929855902  0.8270522415643334
  0.5667137946230058  0.2813663048053475  0.7543744885364304
  0.5889669337984620  0.2941591635261538  0.7907150713661536
  0.5889789080876925  0.3456193726446153  0.7180363035246153
  0.5444822661830769  0.4226639373861538  0.7180363035246153
  0.5222171527183902  0.3584108695468860  0.7543744885364304
  0.5222159319510437  0.3839958577271286  0.8270522415643334
  0.5444782650042292  0.3969364882822297  0.7543752369097028
  0.6112319836737750  0.3584108695468860  0.7543744885364304
  0.6112307629064281  0.3839958577271286  0.8270522415643334
  0.6334954973919213  0.3457677770360759  0.6090177012266257
  0.6780057133323077  0.3970795817630768  0.6453575356830769
  0.7002587889183902  0.4098710786653476  0.6816957206948917
  0.6779937390430772  0.3456193726446153  0.7180363035246153
  0.6557274048110436  0.3069512929855902  0.8270522415643334
  0.6334930959596137  0.3969364882822297  0.7543752369097028
  0.7002468146291602  0.3584108695468860  0.7543744885364304
  0.7002455938618128  0.3839958577271286  0.8270522415643334
  0.7224903809476928  0.2685748079030769  0.7180363035246153
  0.7670085699984620  0.3456193726446153  0.7180363035246153
  0.8115267590492308  0.4226639373861538  0.7180363035246153
  0.7225079269149984  0.3969364882822297  0.7543752369097028
  0.7892604248171976  0.3839958577271286  0.8270522415643334
  0.8115147847600003  0.3712037282676922  0.7907150713661536
  0.5444583176046155  0.3197435191492308  0.8633938392076924
  0.5222051784291597  0.3069506604284244  0.8270532563779688
  0.5667113931906981  0.3325350160515013  0.8997320242195072
  0.5222039576618128  0.3325356486086671  0.8997310094058718
  0.5444543164257675  0.2940160700453069  0.8997327725927795
  0.5444662907149984  0.3454762791637682  0.8270540047512411
  0.5222147512860830  0.4095795807930397  0.8997320242195072
  0.6557262241460828  0.3325350160515013  0.8997320242195072
  0.6112187886171976  0.3325356486086671  0.8997310094058718
  0.5889765066553851  0.3967880838907691  0.8633938392076924
  0.5889844797657676  0.4225208439053066  0.8270540047512411
  0.6557381984353142  0.3839952251699629  0.8270532563779688
  0.6112295822414677  0.4095795807930397  0.8997320242195072
  0.6557369776679672  0.4095802133502054  0.8997310094058718
  0.6779993107211528  0.4225208439053066  0.8270540047512411
  0.6779913376107695  0.3967880838907691  0.8633938392076924
  0.7670141416765371  0.4225208439053066  0.8270540047512411
  0.2774577207165368  0.4998569065191530  0.6090177012266257
  0.2997147974814674  0.5383758525253475  0.6090169528533534
  0.3887296284368518  0.5383758525253475  0.6090169528533534
  0.3664725516719216  0.4998569065191530  0.6090177012266257
  0.3219679366569236  0.5511687112461539  0.6453575356830769
  0.2774457464273059  0.4483966974006913  0.6816964690681643
  0.2997028231922365  0.4869156434068860  0.6816957206948917
  0.2996908489030056  0.4354554342884245  0.7543744885364304
  0.2329491045226904  0.5254412621422296  0.6816964690681643
  0.2329411314123084  0.4997085021276924  0.7180363035246153
  0.2551942069983905  0.5124999990299629  0.7543744885364304
  0.2774553192842291  0.5510256177653066  0.7543752369097028
  0.2997016024248904  0.5125006315871284  0.7543734737227946
  0.3887176541476213  0.4869156434068860  0.6816957206948917
  0.3664605773826907  0.4483966974006913  0.6816964690681643
  0.3887056798583903  0.4354554342884245  0.7543744885364304
  0.3441982443295051  0.4354560668455901  0.7543734737227946
  0.3219559623676927  0.4997085021276924  0.7180363035246153
  0.3887164333802743  0.5125006315871284  0.7543734737227946
  0.3442090379537748  0.5124999990299629  0.7543744885364304
  0.2329610788119217  0.5769014712606911  0.6090177012266257
  0.2552289090987362  0.6924656145655900  0.6090159380397180
  0.2774792678626909  0.6539460360022298  0.6090177012266257
  0.2997363446276215  0.6924649820084244  0.6090169528533534
  0.3887511755830059  0.6924649820084244  0.6090169528533534
  0.3664861257076928  0.6282132759876922  0.6453575356830769
  0.2774593204630771  0.5767530668692307  0.7180363035246153
  0.2552049605202744  0.5895451963286672  0.7543734737227946
  0.2997123960491597  0.5895445637715013  0.7543744885364304
  0.2552169348095054  0.6410054054471287  0.6816947058812564
  0.2329626785584620  0.6537976316107693  0.7180363035246153
  0.2997231495710436  0.6665897610702055  0.7543734737227946
  0.3887284076695052  0.5639608407055903  0.6816947058812564
  0.3887272270045440  0.5895445637715013  0.7543744885364304
  0.3887392012937754  0.6410047728899628  0.6816957206948917
  0.3442317657648897  0.6410054054471287  0.6816947058812564
  0.3219854826242297  0.6795303916253066  0.6816964690681643
  0.3887379805264284  0.6665897610702055  0.7543734737227946
  0.4777336657679668  0.4613319203409746  0.6090159380397180
  0.4332262703414673  0.4613312877838092  0.6090169528533534
  0.4554794095169235  0.4741241465046152  0.6453575356830769
  0.4554873826273059  0.4998569065191530  0.6090177012266257
  0.4777444593922365  0.5383758525253475  0.6090169528533534
  0.5222411012968525  0.4613312877838092  0.6090169528533534
  0.5444942404723083  0.4741241465046152  0.6453575356830769
  0.5222518548187360  0.5383764850825132  0.6090159380397180
  0.5445022135826907  0.4998569065191530  0.6090177012266257
  0.4999975985676927  0.5511687112461539  0.6453575356830769
  0.4777324851030060  0.4869156434068860  0.6816957206948917
  0.4332130752848898  0.4354560668455901  0.7543734737227946
  0.4109667921442290  0.4739810530237682  0.7543752369097028
  0.4777205108137751  0.4354554342884245  0.7543744885364304
  0.4109707933230770  0.4997085021276924  0.7180363035246153
  0.4777312643356591  0.5125006315871284  0.7543734737227946
  0.4332238689091595  0.5124999990299629  0.7543744885364304
  0.4554849811949982  0.5510256177653066  0.7543752369097028
  0.5667473160583908  0.4869156434068860  0.6816957206948917
  0.5222398805295051  0.4869162759640515  0.6816947058812564
  0.5444902392934597  0.4483966974006913  0.6816964690681643
  0.5222279062402746  0.4354560668455901  0.7543734737227946
  0.5667353417691594  0.4354554342884245  0.7543744885364304
  0.4999816230996137  0.4739810530237682  0.7543752369097028
  0.4999935973888446  0.5254412621422296  0.6816964690681643
  0.4999856242784618  0.4997085021276924  0.7180363035246153
  0.5667460952910434  0.5125006315871284  0.7543734737227946
  0.5222386998645443  0.5124999990299629  0.7543744885364304
  0.4109907407226908  0.5769014712606911  0.6090177012266257
  0.4777660065383902  0.6924649820084244  0.6090169528533534
  0.4332585710095054  0.6924656145655900  0.6090159380397180
  0.5000055716780751  0.5769014712606911  0.6090177012266257
  0.5222734019648901  0.6924656145655900  0.6090159380397180
  0.4554969554842291  0.6024858268837683  0.6816964690681643
  0.4332346224310435  0.5895451963286672  0.7543734737227946
  0.4777540322491601  0.6410047728899628  0.6816957206948917
  0.5445038133292310  0.5767530668692307  0.7180363035246153
  0.5667580695802743  0.5639608407055903  0.6816947058812564
  0.5445117864396138  0.6024858268837683  0.6816964690681643
  0.5222506741537752  0.5639602081484244  0.6816957206948917
  0.5000031702457673  0.6280701825068449  0.7543752369097028
  0.5667568889153135  0.5895445637715013  0.7543744885364304
  0.5667688632045449  0.6410047728899628  0.6816957206948917
  0.5000071714246159  0.6537976316107693  0.7180363035246153
  0.5667676424371971  0.6665897610702055  0.7543734737227946
  0.3219439880784622  0.4482482930092306  0.7907150713661536
  0.2329291571230775  0.4482482930092306  0.7907150713661536
  0.2996896281356591  0.4610404224686671  0.8270522415643334
  0.2774433449949986  0.4995654086468451  0.8270540047512411
  0.2774473461738466  0.5252928577507692  0.7907150713661536
  0.2997004217599292  0.5380843546530398  0.8270532563779688
  0.2329387299800006  0.5508772133738461  0.8633938392076924
  0.3441970636645443  0.4610397899115015  0.8270532563779688
  0.4109588190338466  0.4482482930092306  0.7907150713661536
  0.3442078171864283  0.5380849872102055  0.8270522415643334
  0.3664621771292315  0.5252928577507692  0.7907150713661536
  0.3664581759503829  0.4995654086468451  0.8270540047512411
  0.3887140319479674  0.5636693428332824  0.8997310094058718
  0.2774313707057677  0.4481051995283836  0.8997327725927795
  0.2996884474706983  0.4866241455345783  0.8997320242195072
  0.3219495597565369  0.5251497642699220  0.8997327725927795
  0.2997111752818132  0.6151295519517439  0.8270522415643334
  0.2996992009925822  0.5636693428332824  0.8997310094058718
  0.2997219689060829  0.6921734841361168  0.8270532563779688
  0.2774648921411523  0.6536545381299222  0.8270540047512411
  0.3219655352246159  0.6023374224923076  0.7907150713661536
  0.3664837242753851  0.6793819872338459  0.7907150713661536
  0.3887367998614676  0.6921734841361168  0.8270532563779688
  0.3664717499861542  0.6279217781153845  0.8633938392076924
  0.3887248255722367  0.6407132750176553  0.8997320242195072
  0.4777192900464282  0.4610404224686671  0.8270522415643334
  0.4332118946199291  0.4610397899115015  0.8270532563779688
  0.4554650337953844  0.4738326486323077  0.8633938392076924
  0.4332106738525821  0.4866247780917440  0.8997310094058718
  0.4554770080846158  0.5252928577507692  0.7907150713661536
  0.4777300836706979  0.5380843546530398  0.8270532563779688
  0.4332226481418126  0.5380849872102055  0.8270522415643334
  0.4554730069057677  0.4995654086468451  0.8270540047512411
  0.4777288629033513  0.5636693428332824  0.8997310094058718
  0.4332214674768518  0.5636687102761168  0.8997320242195072
  0.4999736499892309  0.4482482930092306  0.7907150713661536
  0.5667329403368522  0.4866241455345783  0.8997320242195072
  0.5222255048079669  0.4866247780917440  0.8997310094058718
  0.5444878378611521  0.4995654086468451  0.8270540047512411
  0.5222374790971974  0.5380849872102055  0.8270522415643334
  0.4999832228461541  0.5508772133738461  0.8633938392076924
  0.5667436938587361  0.5636693428332824  0.8997310094058718
  0.5222362984322366  0.5636687102761168  0.8997320242195072
  0.4999792216673060  0.5251497642699220  0.8997327725927795
  0.4999712485569227  0.4994170042553847  0.9360726070492308
  0.4332334417660827  0.6151289193945781  0.8270532563779688
  0.4777408371925818  0.6151295519517439  0.8270522415643334
  0.4109803661800007  0.6023374224923076  0.7907150713661536
  0.4554945540519214  0.6536545381299222  0.8270540047512411
  0.4554985552307699  0.6793819872338459  0.7907150713661536
  0.4554865809415389  0.6279217781153845  0.8633938392076924
  0.4554825797626905  0.6021943290114605  0.8997327725927795
  0.4109859378580757  0.6792388937529990  0.8997327725927795
  0.4999911959565369  0.5766099733883837  0.8270540047512411
  0.4999951971353850  0.6023374224923076  0.7907150713661536
  0.5222482727214676  0.6151289193945781  0.8270532563779688
  0.5222590262433511  0.6921741166932824  0.8270522415643334
  0.5667664617722363  0.6921734841361168  0.8270532563779688
  0.5444974107180752  0.6021943290114605  0.8997327725927795
  0.5222470519541210  0.6407139075748207  0.8997310094058718
  0.4554746066523080  0.5764615689969230  0.9360726070492308
  0.5444894376076924  0.5764615689969230  0.9360726070492308
  0.5890028566661543  0.4485397908815383  0.5726787678415385
  0.6557741213030061  0.5383758525253475  0.6090169528533534
  0.7447889522583904  0.5383758525253475  0.6090169528533534
  0.6335050702488449  0.4483966974006913  0.6816964690681643
  0.5889964540549985  0.4739810530237682  0.7543752369097028
  0.5890004552338466  0.4997085021276924  0.7180363035246153
  0.6112655051091596  0.5639602081484244  0.6816957206948917
  0.6112535308199286  0.5124999990299629  0.7543744885364304
  0.7002695424402742  0.4869162759640515  0.6816947058812564
  0.7225199012042288  0.4483966974006913  0.6816964690681643
  0.7002575681510438  0.4354560668455901  0.7543734737227946
  0.7002803360645443  0.5639602081484244  0.6816957206948917
  0.6780152861892309  0.4997085021276924  0.7180363035246153
  0.7002683617753135  0.5124999990299629  0.7543744885364304
  0.5890244038123085  0.6026289203646152  0.5726787678415385
  0.5890204026334599  0.5769014712606911  0.6090177012266257
  0.6335425928630772  0.6796734851061539  0.5726787678415385
  0.6112882329202745  0.6924656145655900  0.6090159380397180
  0.6780352335888447  0.5769014712606911  0.6090177012266257
  0.7225454495292311  0.6282132759876922  0.6453575356830769
  0.7003030638756592  0.6924656145655900  0.6090159380397180
  0.6335266173949986  0.6024858268837683  0.6816964690681643
  0.6557729005356591  0.5639608407055903  0.6816947058812564
  0.6335186442846158  0.5767530668692307  0.7180363035246153
  0.6112642843418127  0.5895451963286672  0.7543734737227946
  0.5890180012011522  0.6280701825068449  0.7543752369097028
  0.6112762586310435  0.6410054054471287  0.6816947058812564
  0.5890299754903831  0.6795303916253066  0.6816964690681643
  0.5890220023800002  0.6537976316107693  0.7180363035246153
  0.6112750779660828  0.6665891285130399  0.7543744885364304
  0.7225334752400001  0.5767530668692307  0.7180363035246153
  0.6780328321565370  0.6280701825068449  0.7543752369097028
  0.7002791152971974  0.5895451963286672  0.7543734737227946
  0.6780448064457678  0.6795303916253066  0.6816964690681643
  0.7002910895864283  0.6410054054471287  0.6816947058812564
  0.7002899089214676  0.6665891285130399  0.7543744885364304
  0.6557489519571973  0.4610404224686671  0.8270522415643334
  0.6112415565306982  0.4610397899115015  0.8270532563779688
  0.6334906945273059  0.4481051995283836  0.8997327725927795
  0.6334946957061539  0.4738326486323077  0.8633938392076924
  0.6112523100525822  0.5380849872102055  0.8270522415643334
  0.6335026688165368  0.4995654086468451  0.8270540047512411
  0.5889940526226908  0.5251497642699220  0.8997327725927795
  0.7225095266615383  0.4738326486323077  0.8633938392076924
  0.7225215009507696  0.5252928577507692  0.7907150713661536
  0.7002671410079665  0.5380849872102055  0.8270522415643334
  0.6780128847569236  0.5508772133738461  0.8633938392076924
  0.6780088835780755  0.5251497642699220  0.8997327725927795
  0.7002659603430061  0.5636687102761168  0.8997320242195072
  0.5889860795123075  0.4994170042553847  0.9360726070492308
  0.5890100280907693  0.6023374224923076  0.7907150713661536
  0.5890060269119213  0.5766099733883837  0.8270540047512411
  0.6112631036768519  0.6151289193945781  0.8270532563779688
  0.6557585248141204  0.5636693428332824  0.8997310094058718
  0.6557812927276211  0.6921734841361168  0.8270532563779688
  0.6335242159626905  0.6536545381299222  0.8270540047512411
  0.6335282171415385  0.6793819872338459  0.7907150713661536
  0.6112738571987358  0.6921741166932824  0.8270522415643334
  0.6112618829095058  0.6407139075748207  0.8997310094058718
  0.6557693184383906  0.6407132750176553  0.8997320242195072
  0.7002779346322366  0.6151289193945781  0.8270532563779688
  0.7225310738076929  0.6279217781153845  0.8633938392076924
  0.7225430480969233  0.6793819872338459  0.7907150713661536
  0.7002886881541206  0.6921741166932824  0.8270522415643334
  0.7670500645442294  0.5769014712606911  0.6090177012266257
  0.8560569223892309  0.5511687112461539  0.6453575356830769
  0.8560449481000004  0.4997085021276924  0.7180363035246153
  0.7670380902549981  0.5254412621422296  0.6816964690681643
  0.7892951670199291  0.5639602081484244  0.6816957206948917
  0.8115483061953849  0.5767530668692307  0.7180363035246153
  0.7893178948310440  0.6924656145655900  0.6090159380397180
  0.8115602804846154  0.6282132759876922  0.6453575356830769
  0.7893059205418127  0.6410054054471287  0.6816947058812564
  0.7670596374011527  0.6795303916253066  0.6816964690681643
  0.8783327257864283  0.6924656145655900  0.6090159380397180
  0.8560664952461541  0.6537976316107693  0.7180363035246153
  0.8560744683565370  0.6795303916253066  0.6816964690681643
  0.9005751114400001  0.6282132759876922  0.6453575356830769
  0.7670261159657676  0.4739810530237682  0.7543752369097028
  0.7892712184414677  0.4610397899115015  0.8270532563779688
  0.7892939462525822  0.5895451963286672  0.7543734737227946
  0.8115363319061544  0.5252928577507692  0.7907150713661536
  0.7892831927306982  0.5124999990299629  0.7543744885364304
  0.7670356888226912  0.5766099733883837  0.8270540047512411
  0.7892819719633513  0.5380849872102055  0.8270522415643334
  0.7670476631119213  0.6280701825068449  0.7543752369097028
  0.7892927655876214  0.6151289193945781  0.8270532563779688
  0.8560624940673061  0.6280701825068449  0.7543752369097028
  0.8338121353033514  0.6665897610702055  0.7543734737227946
  0.2330034042907703  0.7058408364738461  0.2092849286338461
  0.3442832851214676  0.7700925424945783  0.1729443458041226
  0.3665364242969234  0.7828854012153845  0.2092849286338461
  0.2552564798768523  0.7186323333761168  0.2456231136456610
  0.2552552591095059  0.7442173215563593  0.3183008666735642
  0.3665244500076929  0.7314251920969230  0.2819636964753845
  0.3442700900648902  0.7442173215563593  0.3183008666735642
  0.3442820643541202  0.7956775306748211  0.2456220988320257
  0.2552672333987355  0.7956775306748211  0.2456220988320257
  0.3220357812134602  0.8342025168529990  0.2456238620189336
  0.3220278081030774  0.8084697568384615  0.2819636964753845
  0.4555512552523086  0.7828854012153845  0.2092849286338461
  0.4555592283626910  0.8086181612299219  0.1729450941773951
  0.4332861417876215  0.7186323333761168  0.2456231136456610
  0.4332849210202745  0.7442173215563593  0.3183008666735642
  0.4332968953095050  0.7956775306748211  0.2456220988320257
  0.4555392809630781  0.7314251920969230  0.2819636964753845
  0.4778043308383907  0.7956768981176551  0.2456231136456610
  0.4333076889337751  0.8727214628591935  0.2456231136456610
  0.4110506121688445  0.8342025168529990  0.2456238620189336
  0.4778150843602746  0.8727220954163596  0.2456220988320257
  0.5000574700138469  0.8084697568384615  0.2819636964753845
  0.4555608281092313  0.8855143215799998  0.2819636964753845
  0.4778031100710437  0.8212618862978976  0.3183008666735642
  0.4333064681664286  0.8983064510394363  0.3183008666735642
  0.2330010028584625  0.7570095477200000  0.3546424643169231
  0.2552540784445446  0.7698010446222703  0.3909806493287379
  0.3665204488288448  0.7056977429929989  0.3183026298604720
  0.3220118326349988  0.7312820986160758  0.3909813977020104
  0.3442689093999289  0.7698010446222703  0.3909806493287379
  0.3220238069242293  0.7827423077345375  0.3183026298604720
  0.3442808836891599  0.8212612537407320  0.3183018814871996
  0.3442796629218129  0.8468462419209746  0.3909796345151026
  0.2329890285692312  0.7055493386015385  0.4273212321584615
  0.2552421041553137  0.7183408355038090  0.4636594171702764
  0.2775032164411523  0.7568664542391527  0.4636601655435488
  0.3220038595246160  0.7055493386015385  0.4273212321584615
  0.3665220485753852  0.7825939033430768  0.4273212321584615
  0.3442569351106985  0.7183408355038090  0.4636594171702764
  0.3665100742861542  0.7311336942246154  0.5000000000000000
  0.2330105757153853  0.8596384680846154  0.4273212321584615
  0.2552528576771977  0.7953860328025131  0.4636584023566412
  0.2552636513014678  0.8724299649868860  0.4636594171702764
  0.3220254066707701  0.8596384680846154  0.4273212321584615
  0.3442676886325820  0.7953860328025131  0.4636584023566412
  0.3442784822568521  0.8724299649868860  0.4636594171702764
  0.3220134323815387  0.8081782589661537  0.5000000000000000
  0.4555352797842296  0.7056977429929989  0.3183026298604720
  0.3887775255937754  0.7442166889991937  0.3183018814871996
  0.4332837403553138  0.7698010446222703  0.3909806493287379
  0.4110266635903831  0.7312820986160758  0.3909813977020104
  0.5000534688349988  0.7827423077345375  0.3183026298604720
  0.4777923565491597  0.7442166889991937  0.3183018814871996
  0.4777911357818133  0.7698016771794363  0.3909796345151026
  0.5000414945457679  0.7312820986160758  0.3909813977020104
  0.4110386378796140  0.7827423077345375  0.3183026298604720
  0.4555568269303832  0.8597868724760759  0.3183026298604720
  0.4778019294060830  0.8468456093638089  0.3909806493287379
  0.4555448526411519  0.8083266633576144  0.3909813977020104
  0.4110186904800007  0.7055493386015385  0.4273212321584615
  0.4332717660660828  0.7183408355038090  0.4636594171702764
  0.4332825195879668  0.7953860328025131  0.4636584023566412
  0.4555249052415390  0.7311336942246154  0.5000000000000000
  0.5000335214353850  0.7055493386015385  0.4273212321584615
  0.4777791614925823  0.7183414680609748  0.4636584023566412
  0.4555328783519219  0.7568664542391527  0.4636601655435488
  0.4777899551168525  0.7953854002453474  0.4636594171702764
  0.4555368795307699  0.7825939033430768  0.4273212321584615
  0.4110402376261544  0.8596384680846154  0.4273212321584615
  0.4332933132122369  0.8724299649868860  0.4636594171702764
  0.4110282633369235  0.8081782589661537  0.5000000000000000
  0.5000550685815391  0.8596384680846154  0.4273212321584615
  0.5000510674026911  0.8339110189806913  0.4636601655435488
  0.5000430942923082  0.8081782589661537  0.5000000000000000
  0.3665395945426907  0.9109555837222296  0.4636601655435488
  0.4110482107365372  0.8853712280991527  0.3909813977020104
  0.4333052875014670  0.9238901741053475  0.3909806493287379
  0.5000630416919216  0.8853712280991527  0.3909813977020104
  0.4333040667341204  0.9494751622855900  0.4636584023566412
  0.5890627281123081  0.7058408364738461  0.2092849286338461
  0.5890707012226909  0.7315735964883835  0.1729450941773951
  0.5223129470322367  0.7700925424945783  0.1729443458041226
  0.6780775590676928  0.7058408364738461  0.2092849286338461
  0.6780855321780757  0.7315735964883835  0.1729450941773951
  0.6335809171630777  0.7828854012153845  0.2092849286338461
  0.6113277779876215  0.7700925424945783  0.1729443458041226
  0.5445740593180753  0.8086181612299219  0.1729450941773951
  0.5445620850288448  0.7571579521114604  0.2456238620189336
  0.5223009727430062  0.7186323333761168  0.2456231136456610
  0.5668083681695053  0.7186329659332824  0.2456220988320257
  0.6113158036983906  0.7186323333761168  0.2456231136456610
  0.5445541119184620  0.7314251920969230  0.2819636964753845
  0.5668071875045445  0.7442166889991937  0.3183018814871996
  0.5890603266800012  0.7570095477200000  0.3546424643169231
  0.5890682997903831  0.7827423077345375  0.3183026298604720
  0.6113145829310436  0.7442173215563593  0.3183008666735642
  0.5668191617937755  0.7956768981176551  0.2456231136456610
  0.5223225198891599  0.8727214628591935  0.2456231136456610
  0.5668299153156594  0.8727220954163596  0.2456220988320257
  0.5890802740796141  0.8342025168529990  0.2456238620189336
  0.6113265572202745  0.7956775306748211  0.2456220988320257
  0.5890723009692312  0.8084697568384615  0.2819636964753845
  0.5445716578857680  0.8597868724760759  0.3183026298604720
  0.5223105455999290  0.8212612537407320  0.3183018814871996
  0.6558231991248896  0.7186329659332824  0.2456220988320257
  0.6335689428738468  0.7314251920969230  0.2819636964753845
  0.7225837738292311  0.7314251920969230  0.2819636964753845
  0.6780751576353851  0.7570095477200000  0.3546424643169231
  0.6780831307457679  0.7827423077345375  0.3183026298604720
  0.7003294138864283  0.7442173215563593  0.3183008666735642
  0.7003413881756593  0.7956775306748211  0.2456220988320257
  0.6780951050349988  0.8342025168529990  0.2456238620189336
  0.6335785157307700  0.8340541124615383  0.3546424643169231
  0.7003402075106985  0.8212612537407320  0.3183018814871996
  0.7225933466861543  0.8340541124615383  0.3546424643169231
  0.5668059667371976  0.7698016771794363  0.3909796345151026
  0.5890563255011523  0.7312820986160758  0.3909813977020104
  0.6113134022660829  0.7698010446222703  0.3909806493287379
  0.5445517104861543  0.7825939033430768  0.4273212321584615
  0.5222865970214676  0.7183408355038090  0.4636594171702764
  0.5445477093073062  0.7568664542391527  0.4636601655435488
  0.5667939924479671  0.7183414680609748  0.4636584023566412
  0.6113014279768524  0.7183408355038090  0.4636594171702764
  0.5223093248325824  0.8468462419209746  0.3909796345151026
  0.5668167603614673  0.8468456093638089  0.3909806493287379
  0.5890698995369235  0.8596384680846154  0.4273212321584615
  0.6113241557879668  0.8468462419209746  0.3909796345151026
  0.5222973505433516  0.7953860328025131  0.4636584023566412
  0.5223081441676213  0.8724299649868860  0.4636594171702764
  0.5668047860722373  0.7953854002453474  0.4636594171702764
  0.5445612833430771  0.8852228237076923  0.5000000000000000
  0.5890579252476934  0.8081782589661537  0.5000000000000000
  0.6113121814987363  0.7953860328025131  0.4636584023566412
  0.6780711564565375  0.7312820986160758  0.3909813977020104
  0.7003282332214676  0.7698010446222703  0.3909806493287379
  0.6780631833461546  0.7055493386015385  0.4273212321584615
  0.7225813723969238  0.7825939033430768  0.4273212321584615
  0.7003162589322367  0.7183408355038090  0.4636594171702764
  0.6780847304923082  0.8596384680846154  0.4273212321584615
  0.6558196170276220  0.7953854002453474  0.4636594171702764
  0.7003270124541207  0.7953860328025131  0.4636584023566412
  0.6780807293134602  0.8339110189806913  0.4636601655435488
  0.7003378060783908  0.8724299649868860  0.4636594171702764
  0.6558303705495055  0.8724305975440515  0.4636584023566412
  0.5445756590646166  0.8855143215799998  0.2819636964753845
  0.5668287346506982  0.8983058184822704  0.3183018814871996
  0.6113361300771977  0.8983064510394363  0.3183008666735642
  0.5890818738261548  0.9110986772030767  0.3546424643169231
  0.5223201184568521  0.9238901741053475  0.3909806493287379
  0.5445732576323083  0.9366830328261537  0.4273212321584615
  0.5668275138833517  0.9238908066625131  0.3909796345151026
  0.5890778726473064  0.8853712280991527  0.3909813977020104
  0.6113349494122365  0.9238901741053475  0.3909806493287379
  0.5223188976895052  0.9494751622855900  0.4636584023566412
  0.5445692564534603  0.9109555837222296  0.4636601655435488
  0.5668263332183905  0.9494745297284244  0.4636594171702764
  0.6780927036026911  0.8853712280991527  0.3909813977020104
  0.6335840874088446  0.9109555837222296  0.4636601655435488
  0.7893442448418132  0.7442173215563593  0.3183008666735642
  0.7670859874119218  0.7312820986160758  0.3909813977020104
  0.7893430641768524  0.7698010446222703  0.3909806493287379
  0.7670979617011523  0.7827423077345375  0.3183026298604720
  0.8115986047846159  0.7314251920969230  0.2819636964753845
  0.7893310898876215  0.7183408355038090  0.4636594171702764
  0.8115842290630773  0.7311336942246154  0.5000000000000000
  0.7893418434095054  0.7953860328025131  0.4636584023566412
  0.8115962033523082  0.7825939033430768  0.4273212321584615
  0.7670955602688450  0.8339110189806913  0.4636601655435488
  0.2552408833879667  0.7439258236840516  0.5363371701981795
  0.2774912421519214  0.7054062451206912  0.5363389333850875
  0.2329746528476929  0.7052578407292307  0.6453575356830769
  0.2552516770122369  0.8209697558684244  0.5363381850118148
  0.3220094312026906  0.7824508098622296  0.5363389333850875
  0.2997590724387360  0.8209703884255902  0.5363371701981795
  0.2775127892980755  0.8594953746037681  0.5363389333850875
  0.2775048161876927  0.8337626145892306  0.5726787678415385
  0.2775008150088446  0.8080351654853067  0.6090177012266257
  0.2997578917737752  0.8465541114915012  0.6090169528533534
  0.2552504562448900  0.8465547440486669  0.6090159380397180
  0.3220110309492309  0.8593469702123074  0.6453575356830769
  0.4332705452987363  0.7439258236840516  0.5363371701981795
  0.3442557143433515  0.7439258236840516  0.5363371701981795
  0.4110162890476934  0.7567180498476920  0.5726787678415385
  0.4332813389230060  0.8209697558684244  0.5363381850118148
  0.3442665079676212  0.8209697558684244  0.5363381850118148
  0.3887739033941207  0.8209703884255902  0.5363371701981795
  0.3665156459642294  0.8080351654853067  0.6090177012266257
  0.3442652872002747  0.8465547440486669  0.6090159380397180
  0.3887727227291604  0.8465541114915012  0.6090169528533534
  0.4110258619046157  0.8593469702123074  0.6453575356830769
  0.4332801181556590  0.8465547440486669  0.6090159380397180
  0.2997459174845443  0.7950939023730397  0.6816957206948917
  0.2997351238602741  0.7180499701886670  0.6816947058812564
  0.2552277284337751  0.7180493376315011  0.6816957206948917
  0.2774888407196137  0.7565749563668452  0.6816964690681643
  0.2774768664303832  0.7051147472483837  0.7543752369097028
  0.3219990566600004  0.8078867610938461  0.7180363035246153
  0.2997446967171973  0.8206788905532822  0.7543734737227946
  0.3887499548156584  0.7180499701886670  0.6816947058812564
  0.3665036716749984  0.7565749563668452  0.6816964690681643
  0.3887607484399290  0.7950939023730397  0.6816957206948917
  0.3664956985646152  0.7308421963523076  0.7180363035246153
  0.3887487741506981  0.7436336932545783  0.7543744885364304
  0.3887595276725821  0.8206788905532822  0.7543734737227946
  0.3665132445319212  0.8592038767314605  0.7543752369097028
  0.3887715019618125  0.8721390996717440  0.6816947058812564
  0.4110138876153848  0.8078867610938461  0.7180363035246153
  0.3220230052384619  0.9108071793307692  0.5726787678415385
  0.3442772614895052  0.8980149531671285  0.5363371701981795
  0.4332920924448900  0.8980149531671285  0.5363371701981795
  0.4110378361938467  0.9108071793307692  0.5726787678415385
  0.5445357350180757  0.7054062451206912  0.5363389333850875
  0.4777779808276215  0.7439251911268859  0.5363381850118148
  0.4555225038092313  0.7823024054707689  0.6453575356830769
  0.5000191457138464  0.7052578407292307  0.6453575356830769
  0.5000390931134602  0.7824508098622296  0.5363389333850875
  0.4777887343495055  0.8209703884255902  0.5363371701981795
  0.4555424512088442  0.8594953746037681  0.5363389333850875
  0.5445493090538475  0.8337626145892306  0.5726787678415385
  0.4555344780984626  0.8337626145892306  0.5726787678415385
  0.5445453078749984  0.8080351654853067  0.6090177012266257
  0.4777875536845447  0.8465541114915012  0.6090169528533534
  0.5222949491110438  0.8465547440486669  0.6090159380397180
  0.5000406928600005  0.8593469702123074  0.6453575356830769
  0.5000486659703824  0.8850797302268451  0.6090177012266257
  0.6113002072095054  0.7439258236840516  0.5363371701981795
  0.5890459509584626  0.7567180498476920  0.5726787678415385
  0.5890419497796135  0.7309906007437683  0.6090177012266257
  0.6112990265445442  0.7695095467499629  0.6090169528533534
  0.6558064219710437  0.7695101793071283  0.6090159380397180
  0.5445572821642289  0.8594953746037681  0.5363389333850875
  0.5668035653048907  0.8209703884255902  0.5363371701981795
  0.6558183962602746  0.8209703884255902  0.5363371701981795
  0.5668023846399295  0.8465541114915012  0.6090169528533534
  0.6113097800664286  0.8465547440486669  0.6090159380397180
  0.6335601388303832  0.8080351654853067  0.6090177012266257
  0.6335641400092318  0.8337626145892306  0.5726787678415385
  0.6558172155953138  0.8465541114915012  0.6090169528533534
  0.4777647857710433  0.7180499701886670  0.6816947058812564
  0.5445333335857675  0.7565749563668452  0.6816964690681643
  0.4555185026303832  0.7565749563668452  0.6816964690681643
  0.4555065283411523  0.7051147472483837  0.7543752369097028
  0.4555105295200004  0.7308421963523076  0.7180363035246153
  0.4777636051060825  0.7436336932545783  0.7543744885364304
  0.5445213592965367  0.7051147472483837  0.7543752369097028
  0.5445253604753851  0.7308421963523076  0.7180363035246153
  0.5222829748218129  0.7950945349302054  0.6816947058812564
  0.5000366916811524  0.8336195211083833  0.6816964690681643
  0.4777755793953133  0.7950939023730397  0.6816957206948917
  0.4555280754873060  0.8592038767314605  0.7543752369097028
  0.5445469076215388  0.8849313258353846  0.7180363035246153
  0.5667796167264280  0.7180499701886670  0.6816947058812564
  0.6112870522553137  0.7180493376315011  0.6816957206948917
  0.6112978057771976  0.7950945349302054  0.6816947058812564
  0.6112858314879668  0.7436343258117439  0.7543734737227946
  0.6335361902519214  0.7051147472483837  0.7543752369097028
  0.5668011638725821  0.8721390996717440  0.6816947058812564
  0.5890435495261543  0.8078867610938461  0.7180363035246153
  0.5667891895833517  0.8206788905532822  0.7543734737227946
  0.6113085994014678  0.8721384671145781  0.6816957206948917
  0.6558159948279668  0.8721390996717440  0.6816947058812564
  0.6558040205387360  0.8206788905532822  0.7543734737227946
  0.4777995279737752  0.8980143206099629  0.5363381850118148
  0.5000526671492315  0.9108071793307692  0.5726787678415385
  0.5000606402596138  0.9365399393453068  0.5363389333850875
  0.5223069234002747  0.8980149531671285  0.5363371701981795
  0.6113217543556595  0.8980149531671285  0.5363371701981795
  0.5668143589291600  0.8980143206099629  0.5363381850118148
  0.6558291898845447  0.8980143206099629  0.5363381850118148
  0.5890754712149986  0.9365399393453068  0.5363389333850875
  0.6113205736906983  0.9235986762330398  0.6090169528533534
  0.5890674981046162  0.9108071793307692  0.5726787678415385
  0.4555400497765369  0.9106640858499220  0.6816964690681643
  0.3219870823707696  0.7564265519753846  0.7907150713661536
  0.3887475533833507  0.7692186814348209  0.8270522415643334
  0.4109979121473062  0.7306991028714607  0.8270540047512411
  0.5000167442815395  0.7564265519753846  0.7907150713661536
  0.5222698198676212  0.7692180488776551  0.8270532563779688
  0.4777623843387359  0.7692186814348209  0.8270522415643334
  0.5000127431026906  0.7306991028714607  0.8270540047512411
  0.4777504100495050  0.7177584723163594  0.8997310094058718
  0.5000047699923081  0.7049663428569231  0.8633938392076924
  0.5222578455783903  0.7177578397591936  0.8997320242195072
  0.4555201023769235  0.8334711167169231  0.7907150713661536
  0.5445309321534603  0.8077436676129990  0.8270540047512411
  0.5445349333323087  0.8334711167169231  0.7907150713661536
  0.5890275740580754  0.7306991028714607  0.8270540047512411
  0.6557920462495050  0.7692186814348209  0.8270522415643334
  0.6112846508230055  0.7692180488776551  0.8270532563779688
  0.5890196009476925  0.7049663428569231  0.8633938392076924
  0.7003150381648902  0.7439258236840516  0.5363371701981795
  0.6780607819138473  0.7567180498476920  0.5726787678415385
  0.6780488076246155  0.7052578407292307  0.6453575356830769
  0.6780567807349979  0.7309906007437683  0.6090177012266257
  0.7225669966753852  0.7823024054707689  0.6453575356830769
  0.7670716116903831  0.7309906007437683  0.6090177012266257
  0.6780687550242297  0.7824508098622296  0.5363389333850875
  0.7003258317891599  0.8209697558684244  0.5363381850118148
  0.7670835859796145  0.7824508098622296  0.5363389333850875
  0.7225789709646165  0.8337626145892306  0.5726787678415385
  0.7003246110218129  0.8465547440486669  0.6090159380397180
  0.7448320465506986  0.8465541114915012  0.6090169528533534
  0.8560984169349983  0.7824508098622296  0.5363389333850875
  0.7893298691202745  0.7439258236840516  0.5363371701981795
  0.8783447000756592  0.7439258236840516  0.5363371701981795
  0.8115818276307690  0.7823024054707689  0.6453575356830769
  0.8560784695353846  0.7052578407292307  0.6453575356830769
  0.8560864426457679  0.7309906007437683  0.6090177012266257
  0.7893406627445446  0.8209697558684244  0.5363381850118148
  0.7448092786371971  0.7180499701886670  0.6816947058812564
  0.7003018832106980  0.7180493376315011  0.6816957206948917
  0.6780543793026902  0.7821593119899221  0.7543752369097028
  0.7003234303568525  0.8721384671145781  0.6816957206948917
  0.6780583804815395  0.8078867610938461  0.7180363035246153
  0.7003114560676212  0.8206782579961166  0.7543744885364304
  0.8338241095925819  0.7180499701886670  0.6816947058812564
  0.8115698533415385  0.7308421963523076  0.7180363035246153
  0.8115658521626905  0.7051147472483837  0.7543752369097028
  0.6780823290600005  0.9108071793307692  0.5726787678415385
  0.7003365853110438  0.8980149531671285  0.5363371701981795
  0.6780464061923077  0.7564265519753846  0.7907150713661536
  0.6780424050134597  0.7306991028714607  0.8270540047512411
  0.6780344319030773  0.7049663428569231  0.8633938392076924
  0.1884013952153850  0.2685748079030769  0.7180363035246153
  0.1661482560399288  0.2557819491822704  0.6816957206948917
  0.1439047533107699  0.3456193726446153  0.7180363035246153
  0.1216516141353137  0.3328265139238089  0.6816957206948917
  0.1884109680723082  0.3712037282676922  0.7907150713661536
  0.1661578288968520  0.3584108695468860  0.7543744885364304
  0.1216611869922371  0.4354554342884245  0.7543744885364304
  0.2551511127060827  0.2043217400638092  0.7543744885364304
  0.2106544708014676  0.2813663048053475  0.7543744885364304
  0.2329076099769233  0.2941591635261538  0.7907150713661536
  0.2551606855630059  0.3069506604284244  0.8270532563779688
  0.2106640436583910  0.3839952251699629  0.8270532563779688
  0.5000032031180756  0.3207664171576143  0.1002663263358569
  0.6780464390646159  0.4491227866261540  0.1366061607923077
  0.6112966579845442  0.5133744926468858  0.1002655779625842
  0.7225646281153851  0.5261673513676921  0.1366061607923077
  0.6557920791218128  0.4619149160855900  0.1729433309904873
  0.5667569217876213  0.2822407984222706  0.1002655779625842
  0.5890180340734600  0.3207664171576143  0.1002663263358569
  0.6557932998891598  0.4363299279053475  0.1002655779625842
  0.7003006953156593  0.4363305604625131  0.1002645631489489
  0.7447853629310439  0.3078257866025131  0.1729433309904873
  0.7893035519818131  0.3848703513440515  0.1729433309904873
  0.2997112081541205  0.3078257866025131  0.1729433309904873
  0.2997339760676211  0.4363299279053475  0.1002655779625842
  0.4110019461984621  0.4491227866261540  0.1366061607923077
  0.3887475862556589  0.4619149160855900  0.1729433309904873
  0.4109803990523080  0.2950336571430769  0.1366061607923077
  0.3442078500587356  0.2307812218609747  0.1729433309904873
  0.3887260391095048  0.3078257866025131  0.1729433309904873
  0.3887380133987361  0.3592859957209747  0.1002645631489489
  0.5000167771538464  0.4491227866261540  0.1366061607923077
  0.3664917302580753  0.3978109818991527  0.1002663263358569
  0.4332562024495050  0.4363305604625131  0.1002645631489489
  0.4332669960737747  0.5133744926468858  0.1002655779625842
  0.4777624172110437  0.4619149160855900  0.1729433309904873
  0.4999952300076927  0.2950336571430769  0.1366061607923077
  0.4777408700648896  0.3078257866025131  0.1729433309904873
  0.4777528443541205  0.3592859957209747  0.1002645631489489
  0.5890316081092312  0.4491227866261540  0.1366061607923077
  0.4555065612134601  0.3978109818991527  0.1002663263358569
  0.5890435823984621  0.5005829957446154  0.0639273929507692
  0.5222710334048897  0.4363305604625131  0.1002645631489489
  0.5222818270291598  0.5133744926468858  0.1002655779625842
  0.5667772481664280  0.4619149160855900  0.1729433309904873
  0.5000287514430773  0.5005829957446154  0.0639273929507692
  0.3219871152430773  0.4491227866261540  0.1366061607923077
  0.2997327553002746  0.4619149160855900  0.1729433309904873
  0.3219655680969237  0.2950336571430769  0.1366061607923077
  0.7003102681725825  0.5389594808271284  0.1729433309904873
  0.7003222424618130  0.5904196899455900  0.1002645631489489
  0.6780759593211525  0.6289446761237683  0.1002663263358569
  0.7893250991279668  0.5389594808271284  0.1729433309904873
  0.5890531552553853  0.6032119161092304  0.1366061607923077
  0.4555281083596137  0.5519001113822297  0.1002663263358569
  0.5222806062618134  0.5389594808271284  0.1729433309904873
  0.5222925805510439  0.5904196899455900  0.1002645631489489
  0.6335713443061540  0.6802564808507691  0.1366061607923077
  0.5668107696018131  0.6674642546871284  0.1002645631489489
  0.6113169843633518  0.6930486103102054  0.1729433309904873
  0.6780679862107696  0.6032119161092304  0.1366061607923077
  0.6112954372171977  0.5389594808271284  0.1729433309904873
  0.6113182051306983  0.6674636221299628  0.1002655779625842
  0.7003318153187366  0.6930486103102054  0.1729433309904873
  0.5445429393149985  0.5519001113822297  0.1002663263358569
  0.2552576605418131  0.6930486103102054  0.1729433309904873
  0.3665268514400011  0.6802564808507691  0.1366061607923077
  0.3887906805479667  0.7700931750517437  0.1729433309904873
  0.2997447295895050  0.5133751252040515  0.1002645631489489
  0.4110234933446157  0.6032119161092304  0.1366061607923077
  0.2774984464488446  0.5519001113822297  0.1002663263358569
  0.3442509443510438  0.5389594808271284  0.1729433309904873
  0.3442629186402748  0.5904196899455900  0.1002645631489489
  0.3442737122645445  0.6674636221299628  0.1002655779625842
  0.3220166354996138  0.6289446761237683  0.1002663263358569
  0.4332873224525822  0.6930486103102054  0.1729433309904873
  0.5000383243000005  0.6032119161092304  0.1366061607923077
  0.3665132774042294  0.5519001113822297  0.1002663263358569
  0.4332657753064286  0.5389594808271284  0.1729433309904873
  0.4332777495956591  0.5904196899455900  0.1002645631489489
  0.5221884341476215  0.0505241084530398  0.5363381850118148
  0.5222004084368520  0.1019843175715014  0.4636594171702764
  0.5667066231983904  0.1275686731945783  0.5363381850118148
  0.6779745933292313  0.1403615319153848  0.5726787678415385
  0.5444679233338464  0.1150686741646155  0.2819636964753845
  0.5222123827260825  0.1534445266899628  0.3909806493287379
  0.6334803528569235  0.1662373854107692  0.4273212321584615
  0.5444615207226906  0.1405099363068452  0.4636601655435488
  0.7224927823800001  0.2174060966569230  0.5726787678415385
  0.6557202333864282  0.1531536613748207  0.6090159380397180
  0.6112152393922368  0.1019843175715014  0.4636594171702764
  0.7669894242846157  0.1403615319153848  0.5726787678415385
  0.5667209989199290  0.1278601710668860  0.3183018814871996
  0.6334763516780755  0.1405099363068452  0.4636601655435488
  0.6779825664396137  0.1660942919299220  0.5363389333850875
  0.7892544741599291  0.2046132379361167  0.5363381850118148
  0.7669973973949985  0.1660942919299220  0.5363389333850875
  0.3664238857015387  0.1147771762923078  0.5000000000000000
  0.2551678898599291  0.1534445266899628  0.3909806493287379
  0.3664358599907692  0.1662373854107692  0.4273212321584615
  0.3441695257587356  0.1275693057517439  0.5363371701981795
  0.3441803193830061  0.2046132379361167  0.5363381850118148
  0.3219232426180751  0.1660942919299220  0.5363389333850875
  0.4554267423676925  0.0633169671738461  0.5726787678415385
  0.3441707465260829  0.1019843175715014  0.4636594171702764
  0.4554387166569235  0.1147771762923078  0.5000000000000000
  0.4331723824248898  0.0761090966332823  0.6090159380397180
  0.3441827208153134  0.1534445266899628  0.3909806493287379
  0.4554506909461535  0.1662373854107692  0.4273212321584615
  0.3219256440503833  0.1149255806837682  0.3909813977020104
  0.4331843567141199  0.1275693057517439  0.5363371701981795
  0.5444631204692310  0.2174060966569230  0.5726787678415385
  0.4776905714756590  0.1531536613748207  0.6090159380397180
  0.4331736031922364  0.0505241084530398  0.5363381850118148
  0.4331855774814677  0.1019843175715014  0.4636594171702764
  0.5444535476123082  0.1147771762923078  0.5000000000000000
  0.4109285007165366  0.0634653715653065  0.4636601655435488
  0.5221872133802746  0.0761090966332823  0.6090159380397180
  0.4554530923784622  0.1150686741646155  0.2819636964753845
  0.4331867581464280  0.0764005945055900  0.3909796345151026
  0.4331975517706982  0.1534445266899628  0.3909806493287379
  0.5444655219015387  0.1662373854107692  0.4273212321584615
  0.4109404750057676  0.1149255806837682  0.3909813977020104
  0.5221991876695051  0.1275693057517439  0.5363371701981795
  0.5222099812937753  0.2046132379361167  0.5363381850118148
  0.6334779514246166  0.2174060966569230  0.5726787678415385
  0.5667054024310434  0.1531536613748207  0.6090159380397180
  0.4999529045288442  0.1660942919299220  0.5363389333850875
  0.2774090547461540  0.1147771762923078  0.5000000000000000
  0.2774210290353844  0.1662373854107692  0.4273212321584615
  0.2551546948033508  0.1275693057517439  0.5363371701981795
  0.2996609095648899  0.1531536613748207  0.6090159380397180
  0.5889861123846161  0.1921132389061539  0.2819636964753845
  0.5222135633910437  0.1278608036240517  0.3183008666735642
  0.5222243570153139  0.2049047358084244  0.3183018814871996
  0.6779985419076927  0.2432819501523076  0.4273212321584615
  0.6112367865383904  0.2560734470545781  0.4636594171702764
  0.6112259929141207  0.1790295148702054  0.4636584023566412
  0.6557430012999292  0.2816578026776552  0.5363381850118148
  0.7670109714307698  0.2944506613984615  0.5726787678415385
  0.4777301165430061  0.2307805893038091  0.1729443458041226
  0.4554730397780755  0.1922616432976143  0.1729450941773951
  0.5222363313045444  0.2563649449268860  0.2456231136456610
  0.4999792545396138  0.2178459989206913  0.2456238620189336
  0.5667425460660827  0.2819493005499629  0.3183018814871996
  0.5444854693011525  0.2434303545437682  0.3183026298604720
  0.6557549755891597  0.3331180117961168  0.4636594171702764
  0.8115291604815390  0.3714952261400000  0.5726787678415385
  0.4999912288288447  0.2693062080391529  0.1729450941773951
  0.5444974435903834  0.2948905636622298  0.2456238620189336
  0.6112607351168519  0.3589938652915014  0.3183018814871996
  0.7225287052476929  0.3717867240123077  0.3546424643169231
  0.5890036583519217  0.3204749192853066  0.3183026298604720
  0.6335098731134600  0.3460592749083837  0.3909813977020104
  0.7002731646399289  0.4101625765376549  0.4636594171702764
  0.6780160878749983  0.3716436305314604  0.4636601655435488
  0.7225223026365371  0.3972279861545375  0.5363389333850875
  0.6112727094060828  0.4104540744099627  0.2456231136456610
  0.7002743453048897  0.3845788534717439  0.3909796345151026
  0.7002851389291598  0.4616227856561166  0.3909806493287379
  0.7447913536906982  0.4872071412791935  0.4636594171702764
  0.7225342769257675  0.4486881952729990  0.4636601655435488
  0.9005655385830774  0.5255843556230767  0.5726787678415385
  0.5890276069303831  0.4233953375222296  0.1729450941773951
  0.7670588685876930  0.5002914978723078  0.2819636964753845
  0.6335338216919214  0.4489796931453067  0.2456238620189336
  0.7002971132183907  0.5130829947745783  0.3183018814871996
  0.7447925343556590  0.4616234182132823  0.3909796345151026
  0.7448033279799291  0.5386673503976552  0.3909806493287379
  0.7225462512149989  0.5001484043914605  0.3909813977020104
  0.9005775128723084  0.5770445647415384  0.5000000000000000
  0.6558028727460830  0.5389588482699627  0.1729443458041226
  0.7002982938833511  0.4874992717086669  0.2456220988320257
  0.7003090875076212  0.5645432038930396  0.2456231136456610
  0.7448045086448898  0.5130836273317440  0.3183008666735642
  0.7225582255042293  0.5516086135099222  0.3183026298604720
  0.7893215170306983  0.6157119151391935  0.3909806493287379
  0.7670644402657677  0.5771929691329991  0.3909813977020104
  0.8115706550273060  0.6027773247560759  0.4636601655435488
  0.5667329732091599  0.1793203801853474  0.2456231136456610
  0.6780009433400005  0.1921132389061539  0.2819636964753845
  0.7002516174937753  0.2560734470545781  0.4636594171702764
  0.6779945407288447  0.2175545010483836  0.4636601655435488
  0.8560258023861541  0.2944506613984615  0.5726787678415385
  0.7225007554903830  0.2431388566714606  0.5363389333850875
  0.7892532533925821  0.2301982261163593  0.6090159380397180
  0.5667449474983904  0.2307805893038091  0.1729443458041226
  0.5444878707334598  0.1922616432976143  0.1729450941773951
  0.6557465833971977  0.2049053683655900  0.3183008666735642
  0.7670253471523084  0.2947421592707692  0.3546424643169231
  0.6335003002565368  0.2434303545437682  0.3183026298604720
  0.7002527981587360  0.2304897239886669  0.3909796345151026
  0.7447590129202748  0.2560740796117439  0.4636584023566412
  0.7892652276818131  0.2816584352348208  0.5363371701981795
  0.8337714424433513  0.3072427908578978  0.6090159380397180
  0.6112631365491596  0.3078251540453475  0.1729443458041226
  0.7225311066800006  0.3206180127661538  0.2092849286338461
  0.5890060597842295  0.2693062080391529  0.1729450941773951
  0.8115435362030776  0.3717867240123077  0.3546424643169231
  0.7447709872095052  0.3075342887302055  0.3909796345151026
  0.8337834167325823  0.3587029999763593  0.5363371701981795
  0.6557813255999289  0.3848697187868860  0.1729443458041226
  0.7670492957307699  0.3976625775076923  0.2092849286338461
  0.8115555104923081  0.4232469331307693  0.2819636964753845
  0.7447829614987357  0.3589944978486666  0.3183008666735642
  0.7670428931196140  0.4231038396499222  0.3909813977020104
  0.8337953910218132  0.4101632090948208  0.4636584023566412
  0.8115491078811523  0.4486881952729990  0.4636601655435488
  0.7002995146506981  0.4619142835284243  0.1729443458041226
  0.6780424378857675  0.4233953375222296  0.1729450941773951
  0.7447949357879666  0.4104547069671285  0.2456220988320257
  0.7448057294122368  0.4874986391515012  0.2456231136456610
  0.7225486526473062  0.4489796931453067  0.2456238620189336
  0.9005799143046160  0.5258758534953846  0.3546424643169231
  0.8783243736968521  0.5642517060207322  0.4636594171702764
  0.9005735116934598  0.5513171156376143  0.5363389333850875
  0.7448177037014673  0.5389588482699627  0.1729443458041226
  0.7225606269365367  0.5004399022637682  0.1729450941773951
  0.8783255543618129  0.5386679829548209  0.3909796345151026
  0.8560792712211525  0.5771929691329991  0.3909813977020104
  0.6334907273996141  0.1408014341791528  0.2456238620189336
  0.7002432253018128  0.1278608036240517  0.3183008666735642
  0.7002540189260825  0.2049047358084244  0.3183018814871996
  0.8115219890569235  0.2176975945292307  0.3546424643169231
  0.7447494400633515  0.1534451592471286  0.3909796345151026
  0.7225031569226906  0.1919701454253067  0.3909813977020104
  0.7892556548248904  0.1790295148702054  0.4636584023566412
  0.7670093716842294  0.2175545010483836  0.4636601655435488
  0.8115155864457677  0.2431388566714606  0.5363389333850875
  0.7002551995910438  0.1793210127425131  0.2456220988320257
  0.7447722079768522  0.2819493005499629  0.3183018814871996
  0.7225151312119216  0.2434303545437682  0.3183026298604720
  0.8337846374999293  0.3331180117961168  0.4636594171702764
  0.8782800586371974  0.2816584352348208  0.5363371701981795
  0.8560337754965369  0.3201834214129989  0.5363389333850875
  0.7447841822660831  0.3334095096684244  0.2456231136456610
  0.8337966117891598  0.3845782209145783  0.3909806493287379
  0.7225390797903830  0.3463507727806913  0.1729450941773951
  0.7670452945519217  0.3719351284037681  0.2456238620189336
  0.8115515093134600  0.3975194840268450  0.3183026298604720
  0.7893143456060828  0.4619142835284243  0.1729443458041226
  0.8338097667433518  0.4104547069671285  0.2456220988320257
  0.8338205603676215  0.4874986391515012  0.2456231136456610
  0.8115634836026909  0.4489796931453067  0.2456238620189336
  0.8783159815048901  0.4360390625902053  0.3183008666735642
  0.9228329898906982  0.5386673503976552  0.3909806493287379
  0.9450821278873063  0.5257327600145374  0.4636601655435488
  0.8115754578919214  0.5004399022637682  0.1729450941773951
  0.8783279557941202  0.4874992717086669  0.2456220988320257
  0.9228341705556590  0.5130836273317440  0.3183008666735642
  0.7892688498814673  0.2049047358084244  0.3183018814871996
  0.8115179878780755  0.1919701454253067  0.3909813977020104
  0.8782812794045444  0.2560734470545781  0.4636594171702764
  0.8560242026396142  0.2175545010483836  0.4636601655435488
  0.7892808241706982  0.2563649449268860  0.2456231136456610
  0.9005543659796139  0.3460592749083837  0.3909813977020104
  0.0549258452230775  0.5000000000000000  0.5000000000000000
  0.0549378195123082  0.5514602091184615  0.4273212321584615
  0.1439502490353850  0.6026289203646152  0.5726787678415385
  0.0771777000418131  0.5383764850825132  0.6090159380397180
  0.1439622233246159  0.6540891294830770  0.5000000000000000
  0.0771896743310435  0.5898366942009746  0.5363371701981795
  0.0772004679553137  0.6668806263853476  0.5363381850118148
  0.0994105128384617  0.3714952261400000  0.5726787678415385
  0.0771561528956590  0.3842873555994362  0.6090159380397180
  0.1439406761784616  0.5000000000000000  0.5000000000000000
  0.0771681271848899  0.4357475647178977  0.5363371701981795
  0.0771789208091596  0.5127914969022707  0.5363381850118148
  0.1439526504676927  0.5514602091184615  0.4273212321584615
  0.2329650799907702  0.6026289203646152  0.5726787678415385
  0.0994400330949984  0.5513171156376143  0.5363389333850875
  0.1661925309971972  0.5383764850825132  0.6090159380397180
  0.1439646247569236  0.6029204182369232  0.3546424643169231
  0.1216982905248896  0.5642523385778978  0.4636584023566412
  0.1217090841491597  0.6412962707622705  0.4636594171702764
  0.2329770542800003  0.6540891294830770  0.5000000000000000
  0.0994520073842291  0.6027773247560759  0.4636601655435488
  0.1662152989106980  0.6668806263853476  0.5363381850118148
  0.2774832690415390  0.6796734851061539  0.5726787678415385
  0.2107107200479664  0.6154210498240515  0.6090159380397180
  0.1439071547430772  0.2944506613984615  0.5726787678415385
  0.0994129142707694  0.3203265148938461  0.4273212321584615
  0.1884253437938465  0.3714952261400000  0.5726787678415385
  0.1884373180830774  0.4229554352584615  0.5000000000000000
  0.2329435328446157  0.4485397908815383  0.5726787678415385
  0.0994184859488445  0.3972279861545375  0.5363389333850875
  0.1661709838510440  0.3842873555994362  0.6090159380397180
  0.1439430776107695  0.4488312887538460  0.3546424643169231
  0.1216767433787359  0.4101632090948208  0.4636584023566412
  0.1216875370030061  0.4872071412791935  0.4636594171702764
  0.0994304602380754  0.4486881952729990  0.4636601655435488
  0.1661829581402742  0.4357475647178977  0.5363371701981795
  0.1661937517645443  0.5127914969022707  0.5363381850118148
  0.2774617218953849  0.5255843556230767  0.5726787678415385
  0.1439550519000005  0.5002914978723078  0.2819636964753845
  0.1216887176679668  0.4616234182132823  0.3909796345151026
  0.1216995112922367  0.5386673503976552  0.3909806493287379
  0.2329674814230771  0.5514602091184615  0.4273212321584615
  0.0994424345273062  0.5001484043914605  0.3909813977020104
  0.2107011471910439  0.5127921294594365  0.5363371701981795
  0.1884548640503832  0.5513171156376143  0.5363389333850875
  0.1884732409507699  0.5773360626138465  0.2819636964753845
  0.1217006919571982  0.5130836273317440  0.3183008666735642
  0.1217114855814675  0.5901275595161167  0.3183018814871996
  0.0994544088165368  0.5516086135099222  0.3183026298604720
  0.2774856704738463  0.6285047738600000  0.4273212321584615
  0.2107131214802744  0.5642523385778978  0.4636584023566412
  0.2107239151045445  0.6412962707622705  0.4636594171702764
  0.1884668383396139  0.6027773247560759  0.4636601655435488
  0.2552193362418131  0.5898366942009746  0.5363371701981795
  0.2552301298660832  0.6668806263853476  0.5363381850118148
  0.3664980999969242  0.6796734851061539  0.5726787678415385
  0.1439287018892311  0.4485397908815383  0.5726787678415385
  0.1662045052864285  0.5898366942009746  0.5363371701981795
  0.0549138709338468  0.4485397908815383  0.5726787678415385
  0.1439095561753850  0.2432819501523076  0.4273212321584615
  0.2997220017783902  0.3848697187868860  0.1729443458041226
  0.4109899719092308  0.3976625775076923  0.2092849286338461
  0.3219711397749983  0.3719351284037681  0.2456238620189336
  0.5000024014323078  0.4488312887538460  0.3546424643169231
  0.3664773545365366  0.3975194840268450  0.3183026298604720
  0.5445086161938456  0.4744156443769229  0.4273212321584615
  0.4777360672002746  0.4101632090948208  0.4636584023566412
  0.4777468608245443  0.4872071412791935  0.4636594171702764
  0.4554897840596137  0.4486881952729990  0.4636601655435488
  0.5222422819618129  0.4357475647178977  0.5363371701981795
  0.6335210457169231  0.5255843556230767  0.5726787678415385
  0.4999959988211520  0.4742725508960759  0.5363389333850875
  0.3219831140642292  0.4233953375222296  0.1729450941773951
  0.3887356119664280  0.4104547069671285  0.2456220988320257
  0.5000143757215387  0.5002914978723078  0.2819636964753845
  0.4332418267279672  0.4360390625902053  0.3183008666735642
  0.5445205904830779  0.5258758534953846  0.3546424643169231
  0.4777480414895051  0.4616234182132823  0.3909796345151026
  0.4777588351137748  0.5386673503976552  0.3909806493287379
  0.4555017583488446  0.5001484043914605  0.3909813977020104
  0.5000079731103829  0.5257327600145374  0.4636601655435488
  0.5667604710125821  0.5127921294594365  0.5363371701981795
  0.5667712646368518  0.5898360616438090  0.5363381850118148
  0.6780392347676932  0.6026289203646152  0.5726787678415385
  0.3887583798799286  0.5389588482699627  0.1729443458041226
  0.3665013031149985  0.5004399022637682  0.1729450941773951
  0.4332538010171972  0.4874992717086669  0.2456220988320257
  0.5445325647723084  0.5773360626138465  0.2819636964753845
  0.4110075178765368  0.5260242578868450  0.2456238620189336
  0.4777600157787359  0.5130836273317440  0.3183008666735642
  0.4777708094030056  0.5901275595161167  0.3183018814871996
  0.5222770241645444  0.6157119151391935  0.3909806493287379
  0.5000199473996138  0.5771929691329991  0.3909813977020104
  0.5667724453018130  0.5642523385778978  0.4636584023566412
  0.6780512090569233  0.6540891294830770  0.5000000000000000
  0.6112894536876210  0.6668806263853476  0.5363381850118148
  0.5890323769226904  0.6283616803791529  0.5363389333850875
  0.6557848748248896  0.6154210498240515  0.6090159380397180
  0.4109564504738466  0.1921132389061539  0.2819636964753845
  0.3441946951045443  0.2049047358084244  0.3183018814871996
  0.3219376183396137  0.1663857898022297  0.3183026298604720
  0.3886901162418125  0.1534451592471286  0.3909796345151026
  0.3887009098660826  0.2304890914315013  0.3909806493287379
  0.4999688799969232  0.2432819501523076  0.4273212321584615
  0.3664438331011520  0.1919701454253067  0.3909813977020104
  0.4777025457648895  0.2046138704932825  0.5363371701981795
  0.4777133393891597  0.2816578026776552  0.5363381850118148
  0.5889813095200002  0.2944506613984615  0.5726787678415385
  0.4554562626242291  0.2431388566714606  0.5363389333850875
  0.5222087605264278  0.2301982261163593  0.6090159380397180
  0.4109684247630770  0.2435734480246153  0.2092849286338461
  0.3442066693937748  0.2563649449268860  0.2456231136456610
  0.4999808542861541  0.2947421592707692  0.3546424643169231
  0.4777145200541209  0.2560740796117439  0.4636584023566412
  0.5889932838092307  0.3459108705169230  0.5000000000000000
  0.4554682369134596  0.2945990657899220  0.4636601655435488
  0.5222207348156588  0.2816584352348208  0.5363371701981795
  0.5222315284399289  0.3587023674191938  0.5363381850118148
  0.5667269495771970  0.3072427908578978  0.6090159380397180
  0.3442186436830058  0.3078251540453475  0.1729443458041226
  0.3219615669180751  0.2693062080391529  0.1729450941773951
  0.3887140648202743  0.2563655774840516  0.2456220988320257
  0.4999928285753850  0.3462023683892308  0.2819636964753845
  0.4332202795818131  0.2819499331071285  0.3183008666735642
  0.4777264943433509  0.3075342887302055  0.3909796345151026
  0.4777372879676210  0.3845782209145783  0.3909806493287379
  0.4554802112026909  0.3460592749083837  0.3909813977020104
  0.5222327091048901  0.3331186443532824  0.4636584023566412
  0.5222435027291593  0.4101625765376549  0.4636594171702764
  0.6335114728600003  0.4229554352584615  0.5000000000000000
  0.6780176876215387  0.4485397908815383  0.5726787678415385
  0.5444926407257675  0.3972279861545375  0.5363389333850875
  0.3887368327337750  0.3848697187868860  0.1729443458041226
  0.5000048028646155  0.3976625775076923  0.2092849286338461
  0.4332322538710435  0.3334101422255901  0.2456220988320257
  0.4109859707303827  0.3719351284037681  0.2456238620189336
  0.4777384686325818  0.3589944978486666  0.3183008666735642
  0.4777492622568515  0.4360384300330398  0.3183018814871996
  0.4554921854919214  0.3975194840268450  0.3183026298604720
  0.6335234471492304  0.4744156443769229  0.4273212321584615
  0.5667616917799291  0.4872071412791935  0.4636594171702764
  0.6112679065414673  0.5127914969022707  0.5363381850118148
  0.7225358766723079  0.5255843556230767  0.5726787678415385
  0.5890108297765367  0.4742725508960759  0.5363389333850875
  0.6557633276787355  0.4613319203409746  0.6090159380397180
  0.4777504429218128  0.4104547069671285  0.2456220988320257
  0.4777612365460829  0.4874986391515012  0.2456231136456610
  0.5890292066769235  0.5002914978723078  0.2819636964753845
  0.4555041597811519  0.4489796931453067  0.2456238620189336
  0.5667628724448893  0.4616234182132823  0.3909796345151026
  0.5667736660691595  0.5386673503976552  0.3909806493287379
  0.6112798808306987  0.5642517060207322  0.4636594171702764
  0.5890228040657681  0.5257327600145374  0.4636601655435488
  0.7670540657230771  0.6026289203646152  0.5726787678415385
  0.4777732108353134  0.5389588482699627  0.1729443458041226
  0.5890411809661540  0.5517517069907693  0.2092849286338461
  0.4555161340703828  0.5004399022637682  0.1729450941773951
  0.5667748467341203  0.5130836273317440  0.3183008666735642
  0.5667856403583904  0.5901275595161167  0.3183018814871996
  0.6780536104892310  0.6029204182369232  0.3546424643169231
  0.5890347783549985  0.5771929691329991  0.3909813977020104
  0.6557980698814675  0.6412962707622705  0.4636594171702764
  0.7670660400123080  0.6540891294830770  0.5000000000000000
  0.6335409931165364  0.6027773247560759  0.4636601655435488
  0.6780472078780752  0.6283616803791529  0.5363389333850875
  0.7447997057802743  0.6154210498240515  0.6090159380397180
  0.4554650666676930  0.1665288832830771  0.2092849286338461
  0.3887033112983908  0.1793203801853474  0.2456231136456610
  0.4999712814292314  0.1921132389061539  0.2819636964753845
  0.4332095260599287  0.2049047358084244  0.3183018814871996
  0.4777049471971972  0.1534451592471286  0.3909796345151026
  0.4777157408214678  0.2304890914315013  0.3909806493287379
  0.5889837109523079  0.2432819501523076  0.4273212321584615
  0.4554586640565368  0.1919701454253067  0.3909813977020104
  0.5222219555830061  0.2560734470545781  0.4636594171702764
  0.5444710935796134  0.2431388566714606  0.5363389333850875
  0.3887152855876209  0.2307805893038091  0.1729443458041226
  0.5444894704800002  0.2691578036476922  0.2819636964753845
  0.4777277151106979  0.2819493005499629  0.3183018814871996
  0.5889956852415389  0.2947421592707692  0.3546424643169231
  0.4554706383457677  0.2434303545437682  0.3183026298604720
  0.5444830678688444  0.2945990657899220  0.4636601655435488
  0.6112355657710435  0.2816584352348208  0.5363371701981795
  0.6112463593953132  0.3587023674191938  0.5363381850118148
  0.6557417805325823  0.3072427908578978  0.6090159380397180
  0.4777288957756591  0.2563655774840516  0.2456220988320257
  0.4777396893999288  0.3334095096684244  0.2456231136456610
  0.5890076595307694  0.3462023683892308  0.2819636964753845
  0.4554826126349982  0.2948905636622298  0.2456238620189336
  0.5667413252987357  0.3075342887302055  0.3909796345151026
  0.5667521189230058  0.3845782209145783  0.3909806493287379
  0.5444950421580752  0.3460592749083837  0.3909813977020104
  0.6112475400602745  0.3331186443532824  0.4636584023566412
  0.6112583336845446  0.4101625765376549  0.4636594171702764
  0.5890012569196136  0.3716436305314604  0.4636601655435488
  0.6557537548218128  0.3587029999763593  0.5363371701981795
  0.7670325185769234  0.4485397908815383  0.5726787678415385
  0.4777516636891593  0.3848697187868860  0.1729443458041226
  0.4554945869242291  0.3463507727806913  0.1729450941773951
  0.5222470848264279  0.3334101422255901  0.2456220988320257
  0.6335258485815386  0.4232469331307693  0.2819636964753845
  0.5667532995879666  0.3589944978486666  0.3183008666735642
  0.5667640932122359  0.4360384300330398  0.3183018814871996
  0.6780320633430773  0.4488312887538460  0.3546424643169231
  0.5445070164473061  0.3975194840268450  0.3183026298604720
  0.6112595143495049  0.3845788534717439  0.3909796345151026
  0.5890132312088444  0.4231038396499222  0.3909813977020104
  0.6557657291110437  0.4101632090948208  0.4636584023566412
  0.6557765227353138  0.4872071412791935  0.4636594171702764
  0.7670444928661539  0.5000000000000000  0.5000000000000000
  0.7002719438725820  0.4357475647178977  0.5363371701981795
  0.7447781586341202  0.4613319203409746  0.6090159380397180
  0.5667652738771971  0.4104547069671285  0.2456220988320257
  0.5667760675014677  0.4874986391515012  0.2456231136456610
  0.6780440376323082  0.5002914978723078  0.2819636964753845
  0.5445189907365366  0.4489796931453067  0.2456238620189336
  0.5890252054980754  0.4745640487683838  0.3183026298604720
  0.6557777034002742  0.4616234182132823  0.3909796345151026
  0.6557884970245442  0.5386673503976552  0.3909806493287379
  0.7670564671553848  0.5514602091184615  0.4273212321584615
  0.6335314202596137  0.5001484043914605  0.3909813977020104
  0.7002839181618125  0.4872077738363597  0.4636584023566412
  0.7447901329233512  0.5127921294594365  0.5363371701981795
  0.8560688966784619  0.6026289203646152  0.5726787678415385
  0.5667880417906986  0.5389588482699627  0.1729443458041226
  0.6780560119215387  0.5517517069907693  0.2092849286338461
  0.5445309650257676  0.5004399022637682  0.1729450941773951
  0.6557896776895050  0.5130836273317440  0.3183008666735642
  0.7670684414446157  0.6029204182369232  0.3546424643169231
  0.6335433945488446  0.5516086135099222  0.3183026298604720
  0.7448021072125817  0.5642523385778978  0.4636584023566412
  0.7448129008368523  0.6412962707622705  0.4636594171702764
  0.8560808709676928  0.6540891294830770  0.5000000000000000
  0.7225558240719212  0.6027773247560759  0.4636601655435488
  0.7893083219741204  0.5898366942009746  0.5363371701981795
  0.7893191155983905  0.6668806263853476  0.5363381850118148
  0.8338145367356586  0.6154210498240515  0.6090159380397180
  0.4332645946414674  0.5645432038930396  0.2456231136456610
  0.6112571129171972  0.4357475647178977  0.5363371701981795
  0.6780416362000000  0.5514602091184615  0.4273212321584615
  0.3664462345334598  0.1408014341791528  0.2456238620189336
  0.6335138742923081  0.3717867240123077  0.3546424643169231
  0.6558004713137747  0.5901275595161167  0.3183018814871996
  0.1439215304646154  0.2947421592707692  0.3546424643169231
  0.1216551962325820  0.2560740796117439  0.4636584023566412
  0.0994089130919213  0.2945990657899220  0.4636601655435488
  0.1661614109941205  0.2816584352348208  0.5363371701981795
  0.1439151278534599  0.3201834214129989  0.5363389333850875
  0.1884397195153847  0.3717867240123077  0.3546424643169231
  0.2329459342769230  0.3973710796353845  0.4273212321584615
  0.2106903936691595  0.4357469321607322  0.5363381850118148
  0.1884516938046156  0.4232469331307693  0.2819636964753845
  0.1216791448110439  0.3589944978486666  0.3183008666735642
  0.1216899384353131  0.4360384300330398  0.3183018814871996
  0.2329579085661539  0.4488312887538460  0.3546424643169231
  0.2107023679583904  0.4872071412791935  0.4636594171702764
  0.3219703380892309  0.5000000000000000  0.5000000000000000
  0.2329515059549985  0.4742725508960759  0.5363389333850875
  0.2329698828553848  0.5002914978723078  0.2819636964753845
  0.2107035486233512  0.4616234182132823  0.3909796345151026
  0.2107143422476213  0.5386673503976552  0.3909806493287379
  0.3219823123784619  0.5514602091184615  0.4273212321584615
  0.1884572654826907  0.5001484043914605  0.3909813977020104
  0.3664885271400001  0.5770445647415384  0.5000000000000000
  0.2997159781464282  0.5127921294594365  0.5363371701981795
  0.2774696950057673  0.5513171156376143  0.5363389333850875
  0.3442221929079665  0.5383764850825132  0.6090159380397180
  0.2107155229125823  0.5130836273317440  0.3183008666735642
  0.2107263165368518  0.5901275595161167  0.3183018814871996
  0.3219942866676923  0.6029204182369232  0.3546424643169231
  0.1884692397719212  0.5516086135099222  0.3183026298604720
  0.2997279524356591  0.5642523385778978  0.4636584023566412
  0.2997387460599288  0.6412962707622705  0.4636594171702764
  0.2774816692949982  0.6027773247560759  0.4636601655435488
  0.3442341671971974  0.5898366942009746  0.5363371701981795
  0.3442449608214671  0.6668806263853476  0.5363381850118148
  0.2774306018923081  0.2688663057753845  0.5000000000000000
  0.2106688465230054  0.2816578026776552  0.5363381850118148
  0.3219368166538463  0.2944506613984615  0.5726787678415385
  0.1439175292857674  0.2690147101668452  0.3909813977020104
  0.2551762419495049  0.2816584352348208  0.5363371701981795
  0.2106927951014672  0.3845782209145783  0.3909806493287379
  0.3219607652323078  0.3973710796353845  0.4273212321584615
  0.2551990098630059  0.4101625765376549  0.4636594171702764
  0.3442006457618128  0.3842873555994362  0.6090159380397180
  0.2106939757664282  0.3589944978486666  0.3183008666735642
  0.2107047693906981  0.4360384300330398  0.3183018814871996
  0.3219727395215387  0.4488312887538460  0.3546424643169231
  0.2997171989137751  0.4872071412791935  0.4636594171702764
  0.4109851690446152  0.5000000000000000  0.5000000000000000
  0.2774601221488445  0.4486881952729990  0.4636601655435488
  0.2107059500556589  0.4104547069671285  0.2456220988320257
  0.2107167436799290  0.4874986391515012  0.2456231136456610
  0.3664909285723083  0.5258758534953846  0.3546424643169231
  0.2997183795787359  0.4616234182132823  0.3909796345151026
  0.2997291732030056  0.5386673503976552  0.3909806493287379
  0.2774720964380750  0.5001484043914605  0.3909813977020104
  0.3442353879645444  0.5642517060207322  0.4636594171702764
  0.4555033580953845  0.5770445647415384  0.5000000000000000
  0.5000095728569236  0.6026289203646152  0.5726787678415385
  0.2329778559657672  0.5260242578868450  0.2456238620189336
  0.2997303538679664  0.5130836273317440  0.3183008666735642
  0.2997411474922366  0.5901275595161167  0.3183018814871996
  0.4110091176230771  0.6029204182369232  0.3546424643169231
  0.2774840707273060  0.5516086135099222  0.3183026298604720
  0.3442473622537748  0.6157119151391935  0.3909806493287379
  0.5445277619076925  0.6796734851061539  0.5726787678415385
  0.4777552129141200  0.6154210498240515  0.6090159380397180
  0.2106712479553138  0.2304890914315013  0.3909806493287379
  0.1884141711903831  0.1919701454253067  0.3909813977020104
  0.2996836774783901  0.2816578026776552  0.5363381850118148
  0.4109516476092311  0.2944506613984615  0.5726787678415385
  0.2106724286202747  0.2049053683655900  0.3183008666735642
  0.2106832222445440  0.2819493005499629  0.3183018814871996
  0.1884261454796136  0.2434303545437682  0.3183026298604720
  0.2329323602411522  0.2690147101668452  0.3909813977020104
  0.2996956517676210  0.3331180117961168  0.4636594171702764
  0.2551906176710440  0.2819499331071285  0.3183008666735642
  0.3664693814261542  0.3717867240123077  0.3546424643169231
  0.2329443345303826  0.3204749192853066  0.3183026298604720
  0.2996968324325818  0.3075342887302055  0.3909796345151026
  0.2997076260568520  0.3845782209145783  0.3909806493287379
  0.4109755961876921  0.3973710796353845  0.4273212321584615
  0.2774505492919214  0.3460592749083837  0.3909813977020104
  0.4554818109492308  0.4229554352584615  0.5000000000000000
  0.2552133855845442  0.4104540744099627  0.2456231136456610
  0.2997088067218128  0.3589944978486666  0.3183008666735642
  0.2997196003460820  0.4360384300330398  0.3183018814871996
  0.4109875704769234  0.4488312887538460  0.3546424643169231
  0.2774625235811519  0.3975194840268450  0.3183026298604720
  0.3887212362448898  0.4101632090948208  0.4636584023566412
  0.3887320298691595  0.4872071412791935  0.4636594171702764
  0.3664749531042289  0.4486881952729990  0.4636601655435488
  0.5445062147615387  0.5255843556230767  0.5726787678415385
  0.2997207810110437  0.4104547069671285  0.2456220988320257
  0.2997315746353138  0.4874986391515012  0.2456231136456610
  0.2774744978703828  0.4489796931453067  0.2456238620189336
  0.4555057595276931  0.5258758534953846  0.3546424643169231
  0.3887332105341207  0.4616234182132823  0.3909796345151026
  0.3887440041583904  0.5386673503976552  0.3909806493287379
  0.3664869273934598  0.5001484043914605  0.3909813977020104
  0.5445181890507692  0.5770445647415384  0.5000000000000000
  0.4777456400571973  0.5127921294594365  0.5363371701981795
  0.4777564336814674  0.5898360616438090  0.5363381850118148
  0.4110115190553849  0.5517517069907693  0.2092849286338461
  0.2774864721596137  0.5004399022637682  0.1729450941773951
  0.3442497636860826  0.5645432038930396  0.2456231136456610
  0.4555177338169236  0.5773360626138465  0.2819636964753845
  0.3219926869211520  0.5260242578868450  0.2456238620189336
  0.3664989016826903  0.5516086135099222  0.3183026298604720
  0.4777576143464282  0.5642523385778978  0.4636584023566412
  0.5890363781015384  0.6540891294830770  0.5000000000000000
  0.5222746227322367  0.6668806263853476  0.5363381850118148
  0.5000175459673061  0.6283616803791529  0.5363389333850875
  0.5667700438695052  0.6154210498240515  0.6090159380397180
  0.2996752852864282  0.1534451592471286  0.3909796345151026
  0.4109540490415388  0.2432819501523076  0.4273212321584615
  0.3441815000479664  0.1790295148702054  0.4636584023566412
  0.3441922936722366  0.2560734470545781  0.4636594171702764
  0.3886877148095052  0.2046138704932825  0.5363371701981795
  0.3219535938076923  0.2435734480246153  0.2092849286338461
  0.4109660233307693  0.2947421592707692  0.3546424643169231
  0.3442042679614671  0.3075336561730399  0.3909806493287379
  0.3886996890987361  0.2560740796117439  0.4636584023566412
  0.4999784528538459  0.3459108705169230  0.5000000000000000
  0.4332059038602744  0.2816584352348208  0.5363371701981795
  0.2997100274891601  0.3334095096684244  0.2456231136456610
  0.2774529507242291  0.2948905636622298  0.2456238620189336
  0.3887116633879666  0.3075342887302055  0.3909796345151026
  0.3887224570122363  0.3845782209145783  0.3909806493287379
  0.4999904271430768  0.3973710796353845  0.4273212321584615
  0.3664653802473061  0.3460592749083837  0.3909813977020104
  0.4332178781495054  0.3331186443532824  0.4636584023566412
  0.5444966419046156  0.4229554352584615  0.5000000000000000
  0.4109715950088444  0.3716436305314604  0.4636601655435488
  0.4777348865353133  0.4357469321607322  0.5363381850118148
  0.5222303076725819  0.3842873555994362  0.6090159380397180
  0.7003210617968522  0.6160034130115013  0.1729443458041226
  0.8115890319276927  0.6287962717323076  0.2092849286338461
  0.7448164829341207  0.5645438364502057  0.2456220988320257
  0.7225701997934603  0.6030688226283835  0.2456238620189336
  0.7893226976956591  0.5901281920732824  0.3183008666735642
  0.7893334913199291  0.6671721242576550  0.3183018814871996
  0.8338397060814675  0.6927564798807317  0.3909806493287379
  0.8115826293165374  0.6542375338745374  0.3909813977020104
  0.9228413419802748  0.6668812589425130  0.5363371701981795
  0.9005950588396139  0.7054062451206912  0.5363389333850875
  0.7893346719848899  0.6415884011917439  0.2456220988320257
  0.7893454656091596  0.7186323333761168  0.2456231136456610
  0.8338408867464288  0.6671727568148207  0.3183008666735642
  0.8783483222753136  0.6671721242576550  0.3183018814871996
  0.9005974602719217  0.6542375338745374  0.3909813977020104
  0.1884828138076929  0.6799649829784615  0.3546424643169231
  0.1217102648141205  0.6157125476963593  0.3909796345151026
  0.1662272731999289  0.7183408355038090  0.4636594171702764
  0.2774952433307690  0.7311336942246154  0.5000000000000000
  0.1439701964349983  0.6798218894976144  0.4636601655435488
  0.2107334879614677  0.7439251911268859  0.5363381850118148
  0.3220014580923086  0.7567180498476920  0.5726787678415385
  0.1884947880969238  0.7314251920969230  0.2819636964753845
  0.1217222391033519  0.6671727568148207  0.3183008666735642
  0.1662392474891599  0.7698010446222703  0.3909806493287379
  0.2775072176200004  0.7825939033430768  0.4273212321584615
  0.2107346686264285  0.7183414680609748  0.4636584023566412
  0.2107454622506982  0.7953854002453474  0.4636594171702764
  0.3665196471430779  0.8337626145892306  0.5726787678415385
  0.2329946002473063  0.7824508098622296  0.5363389333850875
  0.2997470981495055  0.7695101793071283  0.6090159380397180
  0.2107466429156591  0.7698016771794363  0.3909796345151026
  0.3665316214323083  0.8852228237076923  0.5000000000000000
  0.2330065745365372  0.8339110189806913  0.4636601655435488
  0.2997698660630061  0.8980143206099629  0.5363381850118148
  0.2552648319664286  0.8468462419209746  0.3909796345151026
  0.2997710467279669  0.8724305975440515  0.4636584023566412
  0.3887834762510439  0.9235993087902050  0.6090159380397180
  0.1884852152400011  0.6287962717323076  0.2092849286338461
  0.1217126662464280  0.5645438364502057  0.2456220988320257
  0.1439725978673063  0.6286531782514605  0.3183026298604720
  0.2107250957695053  0.6157125476963593  0.3909796345151026
  0.2107358893937756  0.6927564798807317  0.3909806493287379
  0.2329850273903831  0.6798218894976144  0.4636601655435488
  0.2997375252925823  0.6668812589425130  0.5363371701981795
  0.2997483189168520  0.7439251911268859  0.5363381850118148
  0.3442437400541206  0.6924656145655900  0.6090159380397180
  0.2775096190523081  0.7314251920969230  0.2819636964753845
  0.2107370700587366  0.6671727568148207  0.3183008666735642
  0.2107478636830059  0.7442166889991937  0.3183018814871996
  0.3220158338138473  0.7570095477200000  0.3546424643169231
  0.2329970016796140  0.7312820986160758  0.3909813977020104
  0.2997494995818137  0.7183414680609748  0.4636584023566412
  0.2997602932060834  0.7953854002453474  0.4636594171702764
  0.3887619291048898  0.7695101793071283  0.6090159380397180
  0.2107490443479669  0.7186329659332824  0.2456220988320257
  0.2552660527337751  0.8212612537407320  0.3183018814871996
  0.3665340228646161  0.8340541124615383  0.3546424643169231
  0.2330089759688445  0.7827423077345375  0.3183026298604720
  0.2997614738710437  0.7698016771794363  0.3909796345151026
  0.2997722674953138  0.8468456093638089  0.3909806493287379
  0.2775151907303832  0.8083266633576144  0.3909813977020104
  0.4555464523876923  0.8852228237076923  0.5000000000000000
  0.3220214054919215  0.8339110189806913  0.4636601655435488
  0.3887846970183904  0.8980143206099629  0.5363381850118148
  0.3665276202534599  0.8594953746037681  0.5363389333850875
  0.2997734481602751  0.8212618862978976  0.3183008666735642
  0.4110522119153858  0.9110986772030767  0.3546424643169231
  0.2775271650196137  0.8597868724760759  0.3183026298604720
  0.4555584266769236  0.9366830328261537  0.4273212321584615
  0.3220333797811525  0.8853712280991527  0.3909813977020104
  0.3887858776833521  0.8724305975440515  0.4636584023566412
  0.4110458093042291  0.9365399393453068  0.5363389333850875
  0.4777983072064282  0.9235993087902050  0.6090159380397180
  0.3887978519725822  0.9238908066625131  0.3909796345151026
  0.0994639816734600  0.6542375338745374  0.3909813977020104
  0.2107226943371975  0.6668812589425130  0.5363371701981795
  0.2774976447630781  0.6799649829784615  0.3546424643169231
  0.1884804123753852  0.7311336942246154  0.5000000000000000
  0.1217078633818132  0.6668812589425130  0.5363371701981795
  0.1217186570060829  0.7439251911268859  0.5363381850118148
  0.2329866271369234  0.7567180498476920  0.5726787678415385
  0.1884923866646161  0.7825939033430768  0.4273212321584615
  0.2329986014261544  0.8081782589661537  0.5000000000000000
  0.2775167904769236  0.8852228237076923  0.5000000000000000
  0.2107274972018128  0.5645438364502057  0.2456220988320257
  0.2107382908260829  0.6415877686345782  0.2456231136456610
  0.3220062609569237  0.6543806273553845  0.2819636964753845
  0.1884812140611525  0.6030688226283835  0.2456238620189336
  0.3665124757184620  0.6799649829784615  0.3546424643169231
  0.2997399267248900  0.6157125476963593  0.3909796345151026
  0.2997507203491597  0.6927564798807317  0.3909806493287379
  0.2774936435842291  0.6542375338745374  0.3909813977020104
  0.3442461414864283  0.6412969033194361  0.4636584023566412
  0.6558327719818128  0.8212618862978976  0.3183008666735642
  0.6335864888411523  0.8597868724760759  0.3183026298604720
  0.7003389867433512  0.8468462419209746  0.3909796345151026
  0.7448452015048899  0.8724305975440515  0.4636584023566412
  0.5667868210233512  0.5645438364502057  0.2456220988320257
  0.5667976146476214  0.6415877686345782  0.2456231136456610
  0.6780655847784619  0.6543806273553845  0.2819636964753845
  0.5445405378826907  0.6030688226283835  0.2456238620189336
  0.6557992505464283  0.6157125476963593  0.3909796345151026
  0.6558100441706984  0.6927564798807317  0.3909806493287379
  0.7670780143015389  0.7055493386015385  0.4273212321584615
  0.6335529674057678  0.6542375338745374  0.3909813977020104
  0.7448116800695053  0.6668812589425130  0.5363371701981795
  0.7448224736937754  0.7439251911268859  0.5363381850118148
  0.8560904438246160  0.7567180498476920  0.5726787678415385
  0.7225653969288448  0.7054062451206912  0.5363389333850875
  0.5668095889368523  0.6930479777530396  0.1729443458041226
  0.5445525121719217  0.6545290317468452  0.1729450941773951
  0.6113050100741209  0.6415884011917439  0.2456220988320257
  0.5890587269334604  0.6801133873699218  0.2456238620189336
  0.6558112248356591  0.6671727568148207  0.3183008666735642
  0.6558220184599284  0.7442166889991937  0.3183018814871996
  0.7670899885907698  0.7570095477200000  0.3546424643169231
  0.6335649416949982  0.7056977429929989  0.3183026298604720
  0.7448236543587362  0.7183414680609748  0.4636584023566412
  0.7448344479830059  0.7953854002453474  0.4636594171702764
  0.8338360838818132  0.7695101793071283  0.6090159380397180
  0.6558339927491598  0.7956768981176551  0.2456231136456610
  0.7448356286479667  0.7698016771794363  0.3909796345151026
  0.7448464222722369  0.8468456093638089  0.3909806493287379
  0.7225893455073062  0.8083266633576144  0.3909813977020104
  0.7448476029371977  0.8212618862978976  0.3183008666735642
  0.7226013197965376  0.8597868724760759  0.3183026298604720
  0.6558016519787360  0.5645438364502057  0.2456220988320257
  0.7670804157338467  0.6543806273553845  0.2819636964753845
  0.6335553688380755  0.6030688226283835  0.2456238620189336
  0.7448140815018131  0.6157125476963593  0.3909796345151026
  0.7448248751260832  0.6927564798807317  0.3909806493287379
  0.8560928452569238  0.7055493386015385  0.4273212321584615
  0.7225677983611526  0.6542375338745374  0.3909813977020104
  0.8338373046491597  0.7439251911268859  0.5363381850118148
  0.8115802278842291  0.7054062451206912  0.5363389333850875
  0.7670923900230781  0.7058408364738461  0.2092849286338461
  0.6335673431273064  0.6545290317468452  0.1729450941773951
  0.7003306346537753  0.7186323333761168  0.2456231136456610
  0.7448260557910443  0.6671727568148207  0.3183008666735642
  0.7448368494153133  0.7442166889991937  0.3183018814871996
  0.7225797726503831  0.7056977429929989  0.3183026298604720
  0.8338384853141210  0.7183414680609748  0.4636584023566412
  0.8338492789383907  0.7953854002453474  0.4636594171702764
  0.7448380300802744  0.7186329659332824  0.2456220988320257
  0.7448488237045445  0.7956768981176551  0.2456231136456610
  0.7225917469396139  0.7571579521114604  0.2456238620189336
  0.8338504596033515  0.7698016771794363  0.3909796345151026
  0.8116041764626910  0.8083266633576144  0.3909813977020104
  0.7670740131226909  0.6798218894976144  0.4636601655435488
  0.8115922021734601  0.7568664542391527  0.4636601655435488
  0.3219998583457679  0.6798218894976144  0.4636601655435488
  0.3887631498722368  0.7439251911268859  0.5363381850118148
  0.5000311200030781  0.7567180498476920  0.5726787678415385
  0.3665060731073062  0.7054062451206912  0.5363389333850875
  0.3220182352461546  0.7058408364738461  0.2092849286338461
  0.2997519010141214  0.6671727568148207  0.3183008666735642
  0.2997626946383907  0.7442166889991937  0.3183018814871996
  0.4110306647692316  0.7570095477200000  0.3546424643169231
  0.2775056178734601  0.7056977429929989  0.3183026298604720
  0.3887643305371976  0.7183414680609748  0.4636584023566412
  0.3887751241614681  0.7953854002453474  0.4636594171702764
  0.3665180473965371  0.7568664542391527  0.4636601655435488
  0.4777767600602746  0.7695101793071283  0.6090159380397180
  0.2997638753033514  0.7186329659332824  0.2456220988320257
  0.2997746689276216  0.7956768981176551  0.2456231136456610
  0.4110426390584621  0.8084697568384615  0.2819636964753845
  0.2775175921626910  0.7571579521114604  0.2456238620189336
  0.4555488538200004  0.8340541124615383  0.3546424643169231
  0.3887763048264285  0.7698016771794363  0.3909796345151026
  0.3887870984506978  0.8468456093638089  0.3909806493287379
  0.3665300216857676  0.8083266633576144  0.3909813977020104
  0.4110362364473063  0.8339110189806913  0.4636601655435488
  0.3887882791156594  0.8212618862978976  0.3183008666735642
  0.3887990727399291  0.8983058184822704  0.3183018814871996
  0.5000670428707701  0.9110986772030767  0.3546424643169231
  0.3665419959749985  0.8597868724760759  0.3183026298604720
  0.4332944938771977  0.8468462419209746  0.3909796345151026
  0.4778007086387360  0.8724305975440515  0.4636584023566412
  0.4778115022630061  0.9494745297284244  0.4636594171702764
  0.4555544254980755  0.9109555837222296  0.4636601655435488
  0.5668131381618130  0.9235993087902050  0.6090159380397180
  0.4778126829279669  0.9238908066625131  0.3909796345151026
  0.3665148771507701  0.6287962717323076  0.2092849286338461
  0.2329898302549986  0.5774844670053065  0.1729450941773951
  0.2997531217814675  0.6415877686345782  0.2456231136456610
  0.2774960450165369  0.6030688226283835  0.2456238620189336
  0.3442593365430058  0.6671721242576550  0.3183018814871996
  0.4555273066738468  0.6799649829784615  0.3546424643169231
  0.3887547576802743  0.6157125476963593  0.3909796345151026
  0.3665084745396135  0.6542375338745374  0.3909813977020104
  0.5445397361969238  0.7311336942246154  0.5000000000000000
  0.4110146893011522  0.6798218894976144  0.4636601655435488
  0.4777671872033514  0.6668812589425130  0.5363371701981795
  0.4555209040626910  0.7054062451206912  0.5363389333850875
  0.2997650960706984  0.6930479777530396  0.1729443458041226
  0.4110330662015394  0.7058408364738461  0.2092849286338461
  0.2775080193057678  0.6545290317468452  0.1729450941773951
  0.3442713108322371  0.7186323333761168  0.2456231136456610
  0.5000454957246164  0.7570095477200000  0.3546424643169231
  0.5222853762541211  0.7439258236840516  0.5363371701981795
  0.5667915910156598  0.7695101793071283  0.6090159380397180
  0.3220262083565366  0.7315735964883835  0.1729450941773951
  0.3887894998830059  0.7956768981176551  0.2456231136456610
  0.3665324231180758  0.7571579521114604  0.2456238620189336
  0.4332957146445446  0.8212612537407320  0.3183018814871996
  0.5445636847753856  0.8340541124615383  0.3546424643169231
  0.6335761142984618  0.8852228237076923  0.5000000000000000
  0.5223212991218134  0.8983064510394363  0.3183008666735642
  0.3442617379753135  0.6160034130115013  0.1729443458041226
  0.4555297081061550  0.6287962717323076  0.2092849286338461
  0.3220046612103833  0.5774844670053065  0.1729450941773951
  0.3887571591125821  0.5645438364502057  0.2456220988320257
  0.3887679527368522  0.6415877686345782  0.2456231136456610
  0.5000359228676928  0.6543806273553845  0.2819636964753845
  0.3665108759719217  0.6030688226283835  0.2456238620189336
  0.4555233054949983  0.6542375338745374  0.3909813977020104
  0.6335545671523081  0.7311336942246154  0.5000000000000000
  0.5667820181587362  0.6668812589425130  0.5363371701981795
  0.5667928117830059  0.7439251911268859  0.5363381850118148
  0.5000478971569241  0.7058408364738461  0.2092849286338461
  0.4777815629248905  0.6671727568148207  0.3183008666735642
  0.5222985713106985  0.7698010446222703  0.3909806493287379
  0.6780727562030778  0.8081782589661537  0.5000000000000000
  0.6113110008337751  0.8209697558684244  0.5363381850118148
  0.5890539240688449  0.7824508098622296  0.5363389333850875
  0.4332981160768519  0.7700925424945783  0.1729443458041226
  0.5445660862076930  0.7828854012153845  0.2092849286338461
  0.4110410393119214  0.7315735964883835  0.1729450941773951
  0.4777935372141210  0.7186329659332824  0.2456220988320257
  0.4555472540734601  0.7571579521114604  0.2456238620189336
  0.5222997519756593  0.7442173215563593  0.3183008666735642
  0.5445596835965367  0.8083266633576144  0.3909813977020104
  0.6113229751230060  0.8724299649868860  0.4636594171702764
  0.7225909452538470  0.8852228237076923  0.5000000000000000
  0.5890658983580754  0.8339110189806913  0.4636601655435488
  0.6335721131196137  0.8594953746037681  0.5363389333850875
  0.5223117262648898  0.7956775306748211  0.2456220988320257
  0.5668179410264285  0.8212618862978976  0.3183008666735642
  0.4777719900679664  0.5645438364502057  0.2456220988320257
  0.4777827836922370  0.6415877686345782  0.2456231136456610
  0.5890507538230776  0.6543806273553845  0.2819636964753845
  0.4555257069273064  0.6030688226283835  0.2456238620189336
  0.5667844195910439  0.6157125476963593  0.3909796345151026
  0.6112906343525822  0.6412969033194361  0.4636584023566412
  0.7225693981076929  0.7311336942246154  0.5000000000000000
  0.6557968491141209  0.6668812589425130  0.5363371701981795
  0.6558076427383907  0.7439251911268859  0.5363381850118148
  0.7670756128692312  0.7567180498476920  0.5726787678415385
  0.6335505659734600  0.7054062451206912  0.5363389333850875
  0.4777947579814675  0.6930479777530396  0.1729443458041226
  0.5667963938802748  0.6671727568148207  0.3183008666735642
  0.5445501107396139  0.7056977429929989  0.3183026298604720
  0.6113026086418132  0.6927571124378978  0.3909796345151026
  0.6558088234033514  0.7183414680609748  0.4636584023566412
  0.7670875871584621  0.8081782589661537  0.5000000000000000
  0.7448212529264284  0.7695101793071283  0.6090159380397180
  0.5000558702673061  0.7315735964883835  0.1729450941773951
  0.6780871319246160  0.8084697568384615  0.2819636964753845
  0.6113253765553137  0.8212612537407320  0.3183018814871996
  0.6558207976925819  0.7698016771794363  0.3909796345151026
  0.6558315913168521  0.8468456093638089  0.3909806493287379
  0.7670995614476930  0.8596384680846154  0.4273212321584615
  0.6335745145519215  0.8083266633576144  0.3909813977020104
  0.7448332272156594  0.8209703884255902  0.5363371701981795
  0.7225869440749989  0.8594953746037681  0.5363389333850875
  0.5666946489091599  0.0761084640761166  0.6090169528533534
  0.6112128379599291  0.1531530288176552  0.6090169528533534
  0.5889557611949985  0.1146340828114604  0.6090177012266257
  0.6557190527214674  0.1787373844407318  0.6816957206948917
  0.6557310270106983  0.2301975935591936  0.6090169528533534
  0.8115052119030776  0.2685748079030769  0.7180363035246153
  0.6779801650073064  0.2172630031760759  0.6816964690681643
  0.7447434565337753  0.2813663048053475  0.7543744885364304
  0.7224863797688447  0.2428473587991529  0.7543752369097028
  0.7892520727276213  0.2557819491822704  0.6816957206948917
  0.4109181261738465  0.0889013227969230  0.6453575356830769
  0.3441683450937752  0.1531530288176552  0.6090169528533534
  0.3886745598553135  0.1787373844407318  0.6816957206948917
  0.5444487447476928  0.2171145987846153  0.7907150713661536
  0.3664294573796138  0.1916786475529990  0.6090177012266257
  0.4331927489060827  0.2557819491822704  0.6816957206948917
  0.5444607190369233  0.2685748079030769  0.7180363035246153
  0.4109356721411526  0.2172630031760759  0.6816964690681643
  0.4776881700433513  0.2043223726209746  0.7543734737227946
  0.5221943848048900  0.2299067282440516  0.8270522415643334
  0.6334731485600003  0.3197435191492308  0.8633938392076924
  0.4999329571292309  0.0889013227969230  0.6453575356830769
  0.4331712017599291  0.1016928196991935  0.6816957206948917
  0.4776774165214673  0.1272771753222706  0.7543744885364304
  0.4331831760491600  0.1531530288176552  0.6090169528533534
  0.4109260992842294  0.1146340828114604  0.6090177012266257
  0.4776893908106983  0.1787373844407318  0.6816957206948917
  0.4554323140457681  0.1402184384345374  0.6816964690681643
  0.6334635757030775  0.2171145987846153  0.7907150713661536
  0.4777013650999292  0.2301975935591936  0.6090169528533534
  0.4554442883349986  0.1916786475529990  0.6090177012266257
  0.5222075798614675  0.2557819491822704  0.6816957206948917
  0.6334755499923080  0.2685748079030769  0.7180363035246153
  0.4999505030965373  0.2172630031760759  0.6816964690681643
  0.6779817647538467  0.2941591635261538  0.7907150713661536
  0.5444567178580751  0.2428473587991529  0.7543752369097028
  0.6112092157602744  0.2299067282440516  0.8270522415643334
  0.5889629326196143  0.2684317144222298  0.8270540047512411
  0.5889477880846157  0.0889013227969230  0.6453575356830769
  0.5221860327153138  0.1016928196991935  0.6816957206948917
  0.5221980070045448  0.1531530288176552  0.6090169528533534
  0.5666934281418129  0.1016934522563594  0.6816947058812564
  0.6112104365276213  0.2043217400638092  0.7543744885364304
  0.5444591192903834  0.1916786475529990  0.6090177012266257
  0.6112116171925817  0.1787380169978977  0.6816947058812564
  0.6112224108168522  0.2557819491822704  0.6816957206948917
  0.5889653340519216  0.2172630031760759  0.6816964690681643
  0.6557286255783905  0.2813663048053475  0.7543744885364304
  0.7669965957092311  0.2941591635261538  0.7907150713661536
  0.7002348403399293  0.3069506604284244  0.8270532563779688
  0.6779777635749987  0.2684317144222298  0.8270540047512411
  0.4554299126134599  0.1913871496806912  0.8270540047512411
  0.6112200093845446  0.3069506604284244  0.8270532563779688
  0.6334659771353849  0.1659458875384617  0.6453575356830769
  0.2329100114092306  0.2429904522799999  0.6453575356830769
  0.3219224409323081  0.2941591635261538  0.7907150713661536
  0.2996693017568519  0.2813663048053475  0.7543744885364304
  0.3886817312799289  0.3325350160515013  0.8997320242195072
  0.3664214842692314  0.1659458875384617  0.6453575356830769
  0.4109276990307697  0.1915302431615385  0.7180363035246153
  0.4999401285538467  0.2426989544076924  0.8633938392076924
  0.3886733390879665  0.2043223726209746  0.7543734737227946
  0.3886841327122367  0.2813663048053475  0.7543744885364304
  0.3664270559473061  0.2428473587991529  0.7543752369097028
  0.4776965622353137  0.3325350160515013  0.8997320242195072
  0.4554394854703831  0.2940160700453069  0.8997327725927795
  0.7447446371987361  0.2557825817394363  0.6816947058812564
  0.8560234009538468  0.3456193726446153  0.7180363035246153
  0.7224983540580752  0.2943075679176144  0.6816964690681643
  0.7892508519602744  0.2813669373625132  0.7543734737227946
  0.7892616455845446  0.3584108695468860  0.7543744885364304
  0.7447674051122367  0.3842867230422707  0.6090169528533534
  0.8560353752430773  0.3970795817630768  0.6453575356830769
  0.7225103283473061  0.3457677770360759  0.6090177012266257
  0.7892628262495053  0.3328271464809747  0.6816947058812564
  0.7892736198737750  0.4098710786653476  0.6816957206948917
  0.8115227578703832  0.3969364882822297  0.7543752369097028
  0.8115347321596140  0.4483966974006913  0.6816964690681643
  0.8782872300618133  0.4354560668455901  0.7543734737227946
  0.8782980236860830  0.5124999990299629  0.7543744885364304
  0.8338037832137751  0.5383758525253475  0.6090169528533534
  0.8115467064488445  0.4998569065191530  0.6090177012266257
  0.8782992043510438  0.4869162759640515  0.6816947058812564
  0.8783099979753135  0.5639602081484244  0.6816957206948917
  0.9005711102611526  0.6024858268837683  0.6816964690681643
  0.8337702617783905  0.3328265139238089  0.6816957206948917
  0.8782884508291599  0.4098710786653476  0.6816957206948917
  0.8560433483534601  0.4228123417776143  0.6090177012266257
  0.9228066398799291  0.4869156434068860  0.6816957206948917
  0.9005495631149985  0.4483966974006913  0.6816964690681643
  0.1439382747461543  0.5511687112461539  0.6453575356830769
  0.0771657257525821  0.4869162759640515  0.6816947058812564
  0.2329507042692311  0.6023374224923076  0.7907150713661536
  0.2774569190307699  0.6279217781153845  0.8633938392076924
  0.1216839148033513  0.5639608407055903  0.6816947058812564
  0.2774688933200008  0.6793819872338459  0.7907150713661536
  0.3219751080815391  0.7049663428569231  0.8633938392076924
  0.0994496059519216  0.6539460360022298  0.6090177012266257
  0.1662128974783907  0.7180493376315011  0.6816957206948917
  0.2774808676092312  0.7308421963523076  0.7180363035246153
  0.1439558207134606  0.6795303916253066  0.6816964690681643
  0.1884620354749991  0.7051147472483837  0.7543752369097028
  0.2552145333771976  0.6921741166932824  0.8270522415643334
  0.1439167276000004  0.3970795817630768  0.6453575356830769
  0.1884229423615389  0.4226639373861538  0.7180363035246153
  0.2774353718846153  0.4738326486323077  0.8633938392076924
  0.0771669465199291  0.4613312877838092  0.6090169528533534
  0.0994160845165370  0.4483966974006913  0.6816964690681643
  0.1661685824187360  0.4354560668455901  0.7543734737227946
  0.1661793760430061  0.5124999990299629  0.7543744885364304
  0.1439222992780755  0.4739810530237682  0.7543752369097028
  0.3219535609353854  0.5508772133738461  0.8633938392076924
  0.2329531057015388  0.5511687112461539  0.6453575356830769
  0.0994280588057677  0.4998569065191530  0.6090177012266257
  0.1661805567079669  0.4869162759640515  0.6816947058812564
  0.1661913503322366  0.5639602081484244  0.6816957206948917
  0.2551929862310439  0.5380849872102055  0.8270522415643334
  0.2552037798553136  0.6151289193945781  0.8270532563779688
  0.2329467030903830  0.5766099733883837  0.8270540047512411
  0.2774712947523081  0.6282132759876922  0.6453575356830769
  0.2107095393830058  0.6410047728899628  0.6816957206948917
  0.3219775095138463  0.6537976316107693  0.7180363035246153
  0.1884524626180754  0.6024858268837683  0.6816964690681643
  0.2552157541445446  0.6665891285130399  0.7543744885364304
  0.2329586773796140  0.6280701825068449  0.7543752369097028
  0.4109899390369234  0.7049663428569231  0.8633938392076924
  0.3442173900433519  0.6407139075748207  0.8997310094058718
  0.2107215136722367  0.6924649820084244  0.6090169528533534
  0.3219894838030773  0.7052578407292307  0.6453575356830769
  0.1884644369073062  0.6539460360022298  0.6090177012266257
  0.2329706516688445  0.6795303916253066  0.6816964690681643
  0.2997339431953138  0.7436336932545783  0.7543744885364304
  0.4110019133261543  0.7564265519753846  0.7907150713661536
  0.3442401579568521  0.7692180488776551  0.8270532563779688
  0.3219830811919215  0.7306991028714607  0.8270540047512411
  0.2774257990276930  0.3712037282676922  0.7907150713661536
  0.0994065116596138  0.3457677770360759  0.6090177012266257
  0.1661590095618130  0.3328271464809747  0.6816947058812564
  0.1661698031860829  0.4098710786653476  0.6816957206948917
  0.2551714390848898  0.3839958577271286  0.8270522415643334
  0.2551822327091600  0.4610397899115015  0.8270532563779688
  0.3664502028400001  0.4738326486323077  0.8633938392076924
  0.2329251559442294  0.4225208439053066  0.8270540047512411
  0.4109564176015384  0.4994170042553847  0.9360726070492308
  0.2774497476061544  0.4741241465046152  0.6453575356830769
  0.1884309154719218  0.4483966974006913  0.6816964690681643
  0.2329371302334599  0.4739810530237682  0.7543752369097028
  0.4109683918907697  0.5508772133738461  0.8633938392076924
  0.3441958428971973  0.4866247780917440  0.8997310094058718
  0.3442066365214675  0.5636687102761168  0.8997320242195072
  0.1884428897611525  0.4998569065191530  0.6090177012266257
  0.2551953876633513  0.4869162759640515  0.6816947058812564
  0.3664741514184619  0.5767530668692307  0.7180363035246153
  0.3442186108106984  0.6151289193945781  0.8270532563779688
  0.3219615340457678  0.5766099733883837  0.8270540047512411
  0.3664677488073061  0.6021943290114605  0.8997327725927795
  0.2552181555768527  0.6154204172668859  0.6090169528533534
  0.2997135767141205  0.5639608407055903  0.6816947058812564
  0.2997243703383911  0.6410047728899628  0.6816957206948917
  0.4109923404692312  0.6537976316107693  0.7180363035246153
  0.2774672935734604  0.6024858268837683  0.6816964690681643
  0.3442197914756596  0.5895451963286672  0.7543734737227946
  0.3442305850999289  0.6665891285130399  0.7543744885364304
  0.3219735083349983  0.6280701825068449  0.7543752369097028
  0.3887260062371975  0.6151295519517439  0.8270522415643334
  0.3664797230965370  0.6536545381299222  0.8270540047512411
  0.4332322209987362  0.6407139075748207  0.8997310094058718
  0.4332430146230059  0.7177578397591936  0.8997320242195072
  0.4110043147584621  0.7052578407292307  0.6453575356830769
  0.3442425593891598  0.7180493376315011  0.6816957206948917
  0.4332441952879667  0.6921741166932824  0.8270522415643334
  0.4332549889122368  0.7692180488776551  0.8270532563779688
  0.1662009231891598  0.6665891285130399  0.7543744885364304
  0.1439438464242296  0.6280701825068449  0.7543752369097028
  0.3442293643325824  0.6921741166932824  0.8270522415643334
  0.2774377733169230  0.4226639373861538  0.7180363035246153
  0.1661817774753139  0.4613312877838092  0.6090169528533534
  0.2551834133741212  0.4354560668455901  0.7543734737227946
  0.3664916973857680  0.7051147472483837  0.7543752369097028
  0.1884660366538469  0.7308421963523076  0.7180363035246153
  0.1439263004569236  0.4997085021276924  0.7180363035246153
  0.1884325152184619  0.5252928577507692  0.7907150713661536
  0.1661602303291596  0.3072421583007320  0.6090169528533534
  0.2774282004600003  0.3200350170215386  0.6453575356830769
  0.1439031535642292  0.2687232122945375  0.6090177012266257
  0.2551726598522364  0.3584108695468860  0.7543744885364304
  0.2996680809895049  0.3069512929855902  0.8270522415643334
  0.2996788746137755  0.3839952251699629  0.8270532563779688
  0.4109468447446156  0.3967880838907691  0.8633938392076924
  0.2774217978488445  0.3454762791637682  0.8270540047512411
  0.4554530595061544  0.4223724395138463  0.9360726070492308
  0.5667592903476217  0.5383758525253475  0.6090169528533534
  0.6780272604784618  0.5511687112461539  0.6453575356830769
  0.6112547114848899  0.4869162759640515  0.6816947058812564
  0.5890084283442290  0.5254412621422296  0.6816964690681643
  0.6557609262464282  0.5125006315871284  0.7543734737227946
  0.6557717198706979  0.5895445637715013  0.7543744885364304
  0.7670396900015388  0.6023374224923076  0.7907150713661536
  0.6335146431057678  0.5510256177653066  0.7543752369097028
  0.6780208578673060  0.5766099733883837  0.8270540047512411
  0.6112774793983909  0.6154204172668859  0.6090169528533534
  0.6557836941599292  0.6410047728899628  0.6816957206948917
  0.7447853300587362  0.6151295519517439  0.8270522415643334
  0.7447961236830063  0.6921734841361168  0.8270532563779688
  0.7225390469180752  0.6536545381299222  0.8270540047512411
  0.6557956684491602  0.6924649820084244  0.6090169528533534
  0.7670636385800003  0.7052578407292307  0.6453575356830769
  0.6335385916842291  0.6539460360022298  0.6090177012266257
  0.7447973043479666  0.6665897610702055  0.7543734737227946
  0.7448080979722368  0.7436336932545783  0.7543744885364304
  0.7225510212073062  0.7051147472483837  0.7543752369097028
  0.5667257689122367  0.3328265139238089  0.6816957206948917
  0.5444686921473065  0.2943075679176144  0.6816964690681643
  0.7224999538046155  0.3712037282676922  0.7907150713661536
  0.6334811216703836  0.3454762791637682  0.8270540047512411
  0.7002444131968525  0.4095795807930397  0.8997320242195072
  0.6779873364319214  0.3710606347868453  0.8997327725927795
  0.5667377432014672  0.3842867230422707  0.6090169528533534
  0.5444806664365370  0.3457677770360759  0.6090177012266257
  0.7225119280938460  0.4226639373861538  0.7180363035246153
  0.5889868811980757  0.3713521326591528  0.6816964690681643
  0.6557393791002745  0.3584115021040518  0.7543734737227946
  0.6557501727245442  0.4354554342884245  0.7543744885364304
  0.7670181428553847  0.4482482930092306  0.7907150713661536
  0.7002563874860830  0.4610397899115015  0.8270532563779688
  0.7225055254826906  0.4481051995283836  0.8997327725927795
  0.6112559322522364  0.4613312877838092  0.6090169528533534
  0.7225239023830774  0.4741241465046152  0.6453575356830769
  0.5889988554873062  0.4228123417776143  0.6090177012266257
  0.6557513533895050  0.4098717112225133  0.6816947058812564
  0.6557621470137751  0.4869156434068860  0.6816957206948917
  0.7670301171446157  0.4997085021276924  0.7180363035246153
  0.6780112850103829  0.4739810530237682  0.7543752369097028
  0.7447637829125821  0.4610404224686671  0.8270522415643334
  0.7447745765368522  0.5380843546530398  0.8270532563779688
  0.7225174997719220  0.4995654086468451  0.8270540047512411
  0.7670420914338462  0.5511687112461539  0.6453575356830769
  0.6335170445380754  0.4998569065191530  0.6090177012266257
  0.6780232592996142  0.5254412621422296  0.6816964690681643
  0.7447757572018130  0.5125006315871284  0.7543734737227946
  0.7447865508260827  0.5895445637715013  0.7543744885364304
  0.7225294740611521  0.5510256177653066  0.7543752369097028
  0.7002923103537757  0.6154204172668859  0.6090169528533534
  0.7447877314910434  0.5639608407055903  0.6816947058812564
  0.7447985251153140  0.6410047728899628  0.6816957206948917
  0.7225414483503830  0.6024858268837683  0.6816964690681643
  0.7893047398768519  0.6665891285130399  0.7543744885364304
  0.7448104994045445  0.6924649820084244  0.6090169528533534
  0.7225534226396139  0.6539460360022298  0.6090177012266257
  0.7893167141660828  0.7180493376315011  0.6816957206948917
  0.7225023552369233  0.3200350170215386  0.6453575356830769
  0.6557298062433513  0.2557825817394363  0.6816947058812564
  0.6557405998676215  0.3328265139238089  0.6816957206948917
  0.6334835231026904  0.2943075679176144  0.6816964690681643
  0.7002360210048896  0.2813669373625132  0.7543734737227946
  0.6779897378642292  0.3198919235406912  0.7543752369097028
  0.7447422357664280  0.3069512929855902  0.8270522415643334
  0.7447530293906985  0.3839952251699629  0.8270532563779688
  0.7224959526257679  0.3454762791637682  0.8270540047512411
  0.6557525741568520  0.3842867230422707  0.6090169528533534
  0.7670205442876925  0.3970795817630768  0.6453575356830769
  0.7002479952941205  0.3328271464809747  0.6816947058812564
  0.6780017121534596  0.3713521326591528  0.6816964690681643
  0.7447542100556589  0.3584115021040518  0.7543734737227946
  0.7447650036799290  0.4354554342884245  0.7543744885364304
  0.7002707632076212  0.4613312877838092  0.6090169528533534
  0.8115387333384617  0.4741241465046152  0.6453575356830769
  0.6780136864426906  0.4228123417776143  0.6090177012266257
  0.7447661843448897  0.4098717112225133  0.6816947058812564
  0.7447769779691594  0.4869156434068860  0.6816957206948917
  0.7892723991064281  0.4354560668455901  0.7543734737227946
  0.7225318754934598  0.4998569065191530  0.6090177012266257
  0.7892843733956589  0.4869162759640515  0.6816947058812564
  0.8337905881571973  0.5125006315871284  0.7543734737227946
  0.8338013817814675  0.5895445637715013  0.7543744885364304
  0.8115443050165368  0.5510256177653066  0.7543752369097028
  0.7893071413091600  0.6154204172668859  0.6090169528533534
  0.8338025624464283  0.5639608407055903  0.6816947058812564
  0.8115562793057678  0.6024858268837683  0.6816964690681643
  0.8338253303599288  0.6924649820084244  0.6090169528533534
  0.8115682535949986  0.6539460360022298  0.6090177012266257
  0.8783207514971975  0.6410054054471287  0.6816947058812564
  0.7670516642907693  0.6537976316107693  0.7180363035246153
  0.6334875242815390  0.3200350170215386  0.6453575356830769
  0.5889749069088444  0.3198919235406912  0.7543752369097028
  0.8115323307273064  0.4995654086468451  0.8270540047512411
  0.8338133560706984  0.6410047728899628  0.6816957206948917
  0.2551738405171975  0.3328271464809747  0.6816947058812564
  0.2329275573765367  0.3713521326591528  0.6816964690681643
  0.2996800552787359  0.3584115021040518  0.7543734737227946
  0.2774337721380754  0.3969364882822297  0.7543752369097028
  0.3886924848018133  0.4095802133502054  0.8997310094058718
  0.3887032784260826  0.4866241455345783  0.8997320242195072
  0.3664462016611520  0.4481051995283836  0.8997327725927795
  0.2551966084306982  0.4613312877838092  0.6090169528533534
  0.3664645785615387  0.4741241465046152  0.6453575356830769
  0.2329395316657676  0.4228123417776143  0.6090177012266257
  0.3887044590910434  0.4610404224686671  0.8270522415643334
  0.3887152527153135  0.5380843546530398  0.8270532563779688
  0.4109643907119212  0.5251497642699220  0.8997327725927795
  0.4109827676123080  0.5511687112461539  0.6453575356830769
  0.3442210122430057  0.5639602081484244  0.6816957206948917
  0.4554889823738467  0.5767530668692307  0.7180363035246153
  0.3219639354780751  0.5254412621422296  0.6816964690681643
  0.3664701502396138  0.5510256177653066  0.7543752369097028
  0.5445014118969232  0.6279217781153845  0.8633938392076924
  0.4777396565276211  0.6407132750176553  0.8997320242195072
  0.3442329865322371  0.6154204172668859  0.6090169528533534
  0.4555009566630772  0.6282132759876922  0.6453575356830769
  0.3219759097673061  0.5769014712606911  0.6090177012266257
  0.3664821245288443  0.6024858268837683  0.6816964690681643
  0.4332454160553137  0.6665891285130399  0.7543744885364304
  0.4109883392903831  0.6280701825068449  0.7543752369097028
  0.5000007688134597  0.6792388937529990  0.8997327725927795
  0.3664940988180753  0.6539460360022298  0.6090177012266257
  0.4332465967202744  0.6410054054471287  0.6816947058812564
  0.4332573903445441  0.7180493376315011  0.6816957206948917
  0.4110003135796135  0.6795303916253066  0.6816964690681643
  0.5890315752369234  0.7564265519753846  0.7907150713661536
  0.5667652410048898  0.7177584723163594  0.8997310094058718
  0.4109492461769234  0.3456193726446153  0.7180363035246153
  0.3441874908076216  0.3584108695468860  0.7543744885364304
  0.4331891267064285  0.3325356486086671  0.8997310094058718
  0.5444678904615387  0.4223724395138463  0.9360726070492308
  0.2996932503353133  0.3842867230422707  0.6090169528533534
  0.4554674352276922  0.4226639373861538  0.7180363035246153
  0.3664486030934597  0.3969364882822297  0.7543752369097028
  0.5444798647507691  0.4738326486323077  0.8633938392076924
  0.4109548178549985  0.4225208439053066  0.8270540047512411
  0.4777073157571981  0.4095802133502054  0.8997310094058718
  0.4777181093814674  0.4866241455345783  0.8997320242195072
  0.4554610326165368  0.4481051995283836  0.8997327725927795
  0.3442114393860825  0.4613312877838092  0.6090169528533534
  0.3219543626211523  0.4228123417776143  0.6090177012266257
  0.5444918390400001  0.5252928577507692  0.7907150713661536
  0.5889980538015388  0.5508772133738461  0.8633938392076924
  0.4332250495741208  0.4869162759640515  0.6816947058812564
  0.4332358431983905  0.5639602081484244  0.6816957206948917
  0.4109787664334599  0.5254412621422296  0.6816964690681643
  0.4777420579599288  0.5895445637715013  0.7543744885364304
  0.6335162428523080  0.6279217781153845  0.8633938392076924
  0.5667544874830058  0.6407132750176553  0.8997320242195072
  0.4332478174876214  0.6154204172668859  0.6090169528533534
  0.5445157876184620  0.6282132759876922  0.6453575356830769
  0.4777432386248900  0.5639608407055903  0.6816947058812564
  0.5222494533864283  0.5895451963286672  0.7543734737227946
  0.5222602470106984  0.6665891285130399  0.7543744885364304
  0.5667556681479666  0.6151295519517439  0.8270522415643334
  0.5890155997688444  0.6792388937529990  0.8997327725927795
  0.5890339766692312  0.7052578407292307  0.6453575356830769
  0.4555089297734600  0.6539460360022298  0.6090177012266257
  0.5222614276756592  0.6410054054471287  0.6816947058812564
  0.5222722212999289  0.7180493376315011  0.6816957206948917
  0.5000151445349983  0.6795303916253066  0.6816964690681643
  0.3441898922399289  0.3072421583007320  0.6090169528533534
  0.3219328154749982  0.2687232122945375  0.6090177012266257
  0.4999640771323081  0.3456193726446153  0.7180363035246153
  0.5444702918938464  0.3712037282676922  0.7907150713661536
  0.4332035024279667  0.3328271464809747  0.6816947058812564
  0.4777097171895054  0.3584115021040518  0.7543734737227946
  0.5889884809446156  0.4482482930092306  0.7907150713661536
  0.4554634340488445  0.3969364882822297  0.7543752369097028
  0.5222267255753135  0.4610397899115015  0.8270532563779688
  0.4999696488103828  0.4225208439053066  0.8270540047512411
  0.5667221467125825  0.4095802133502054  0.8997310094058718
  0.5444758635719216  0.4481051995283836  0.8997327725927795
  0.4109691935765367  0.4228123417776143  0.6090177012266257
  0.4777216914787359  0.4098717112225133  0.6816947058812564
  0.4554754083380754  0.4483966974006913  0.6816964690681643
  0.6335066699953849  0.5252928577507692  0.7907150713661536
  0.5667341210018130  0.4610404224686671  0.8270522415643334
  0.5667449146260827  0.5380843546530398  0.8270532563779688
  0.6112403357633512  0.4866247780917440  0.8997310094058718
  0.6112511293876214  0.5636687102761168  0.8997320242195072
  0.5890124295230775  0.5511687112461539  0.6453575356830769
  0.6780248590461541  0.6023374224923076  0.7907150713661536
  0.5444998121503829  0.5510256177653066  0.7543752369097028
  0.6335122416734600  0.6021943290114605  0.8997327725927795
  0.5222626484430062  0.6154204172668859  0.6090169528533534
  0.6335306185738467  0.6282132759876922  0.6453575356830769
  0.6780368333353850  0.6537976316107693  0.7180363035246153
  0.6557704991033514  0.6151295519517439  0.8270522415643334
  0.5667808374937749  0.6924649820084244  0.6090169528533534
  0.5445237607288443  0.6539460360022298  0.6090177012266257
  0.7225550223861542  0.7308421963523076  0.7180363035246153
  0.6557824733925819  0.6665897610702055  0.7543734737227946
  0.6557932670168520  0.7436336932545783  0.7543744885364304
  0.4777001443325818  0.2557825817394363  0.6816947058812564
  0.6334851228492312  0.3712037282676922  0.7907150713661536
  0.5667233674799294  0.3839952251699629  0.8270532563779688
  0.5889725054765371  0.3710606347868453  0.8997327725927795
  0.4554658354811523  0.3457677770360759  0.6090177012266257
  0.5222291270076216  0.4098710786653476  0.6816957206948917
  0.6334970971384613  0.4226639373861538  0.7180363035246153
  0.4999720502426905  0.3713521326591528  0.6816964690681643
  0.5667245481448897  0.3584115021040518  0.7543734737227946
  0.6780033119000004  0.4482482930092306  0.7907150713661536
  0.6557477712922365  0.4866241455345783  0.8997320242195072
  0.6335090714276926  0.4741241465046152  0.6453575356830769
  0.5667365224341206  0.4098717112225133  0.6816947058812564
  0.6112427371956589  0.4354560668455901  0.7543734737227946
  0.6557597455814679  0.5380843546530398  0.8270532563779688
  0.7670277157123080  0.5508772133738461  0.8633938392076924
  0.7002551667187360  0.4866247780917440  0.8997310094058718
  0.2552397027230059  0.7695095467499629  0.6090169528533534
  0.3665076728538465  0.7823024054707689  0.6453575356830769
  0.3442413386218129  0.7436343258117439  0.7543734737227946
  0.3442521322460826  0.8206782579961166  0.7543744885364304
  0.3219950554811524  0.7821593119899221  0.7543752369097028
  0.3442533129110438  0.7950945349302054  0.6816947058812564
  0.3442641065353135  0.8721384671145781  0.6816957206948917
  0.4555320766661540  0.8849313258353846  0.7180363035246153
  0.3220190040596138  0.8850797302268451  0.6090177012266257
  0.3442545336783903  0.7695095467499629  0.6090169528533534
  0.3219974569134602  0.7309906007437683  0.6090177012266257
  0.5000287185707696  0.8078867610938461  0.7180363035246153
  0.4332561695771976  0.7436343258117439  0.7543734737227946
  0.4332669632014673  0.8206782579961166  0.7543744885364304
  0.4110098864365367  0.7821593119899221  0.7543752369097028
  0.4555161011980755  0.8077436676129990  0.8270540047512411
  0.4332681438664281  0.7950945349302054  0.6816947058812564
  0.4332789374906987  0.8721384671145781  0.6816957206948917
  0.4110218607257676  0.8336195211083833  0.6816964690681643
  0.4777743586279673  0.8206788905532822  0.7543734737227946
  0.4332909117799292  0.9235986762330398  0.6090169528533534
  0.4777863329171974  0.8721390996717440  0.6816947058812564
  0.3220070297703829  0.8336195211083833  0.6816964690681643
  0.4110338350149986  0.8850797302268451  0.6090177012266257
  0.1884780109430774  0.7823024054707689  0.6453575356830769
  0.2774928418984617  0.7823024054707689  0.6453575356830769
  0.2107310865291595  0.7950939023730397  0.6816957206948917
  0.2552265076664281  0.7436343258117439  0.7543734737227946
  0.2552384819556590  0.7950945349302054  0.6816947058812564
  0.2997566710064282  0.8721390996717440  0.6816947058812564
  0.4332693646337751  0.7695095467499629  0.6090169528533534
  0.4110122878688440  0.7309906007437683  0.6090177012266257
  0.5222710005325824  0.7436343258117439  0.7543734737227946
  0.5222817941568521  0.8206782579961166  0.7543744885364304
  0.5000247173919211  0.7821593119899221  0.7543752369097028
  0.5667772152941207  0.7692186814348209  0.8270522415643334
  0.7893286884553137  0.7695095467499629  0.6090169528533534
  0.8115778264519214  0.7565749563668452  0.6816964690681643
  0.8115898007411524  0.8080351654853067  0.6090177012266257
  0.5890555238153848  0.8593469702123074  0.6453575356830769
  0.4555304769196137  0.8080351654853067  0.6090177012266257
  0.5222937684460834  0.8721384671145781  0.6816957206948917
  0.5445429064426908  0.8592038767314605  0.7543752369097028
  0.5223057427353135  0.9235986762330398  0.6090169528533534
  0.5222841955891598  0.7695095467499629  0.6090169528533534
  0.6335521657200004  0.7823024054707689  0.6453575356830769
  0.5667904103506981  0.7950939023730397  0.6816957206948917
  0.6112966251122369  0.8206782579961166  0.7543744885364304
  0.5890395483473059  0.7821593119899221  0.7543752369097028
  0.6780703547707696  0.8593469702123074  0.6453575356830769
  0.5890515226365367  0.8336195211083833  0.6816964690681643
  0.6335577373980755  0.8592038767314605  0.7543752369097028
  0.5890634969257672  0.8850797302268451  0.6090177012266257
  0.6557944476818127  0.7180499701886670  0.6816947058812564
  0.6558052413060829  0.7950939023730397  0.6816957206948917
  0.6335481645411523  0.7565749563668452  0.6816964690681643
  0.7003006624433515  0.7436343258117439  0.7543734737227946
  0.7003126367325824  0.7950945349302054  0.6816947058812564
  0.6780663535919216  0.8336195211083833  0.6816964690681643
  0.6780783278811520  0.8850797302268451  0.6090177012266257
  0.7003138574999294  0.7695095467499629  0.6090169528533534
  0.7448200722614677  0.7950939023730397  0.6816957206948917
  0.7225629954965371  0.7565749563668452  0.6816964690681643
  0.7893154933987359  0.7436343258117439  0.7543734737227946
  0.7225749697857675  0.8080351654853067  0.6090177012266257
  0.7893274676879668  0.7950945349302054  0.6816947058812564
  0.4777420908322366  0.2822407984222706  0.1002655779625842
  0.5890100609630775  0.2950336571430769  0.1366061607923077
  0.5222375119695056  0.2307812218609747  0.1729433309904873
  0.5222494862587360  0.2822414309794362  0.1002645631489489
  0.5222602798830062  0.3592853631638091  0.1002655779625842
  0.6335282500138467  0.3720782218846153  0.1366061607923077
  0.5667557010202748  0.3078257866025131  0.1729433309904873
  0.5667676753095052  0.3592859957209747  0.1002645631489489
  0.5667784689337749  0.4363299279053475  0.1002655779625842
  0.5445213921688448  0.3978109818991527  0.1002663263358569
  0.6112738900710436  0.3848703513440515  0.1729433309904873
  0.6112858643602745  0.4363305604625131  0.1002645631489489
  0.5890395812196141  0.4748555466406915  0.1002663263358569
  0.6780248919184623  0.2950336571430769  0.1366061607923077
  0.6112523429248899  0.2307812218609747  0.1729433309904873
  0.6112751108383905  0.3592853631638091  0.1002655779625842
  0.7225430809692315  0.3720782218846153  0.1366061607923077
  0.6557825062648901  0.3592859957209747  0.1002645631489489
  0.7670612700200002  0.4491227866261540  0.1366061607923077
  0.6335362231242292  0.3978109818991527  0.1002663263358569
  0.7002887210264284  0.3848703513440515  0.1729433309904873
  0.7003114889399290  0.5133744926468858  0.1002655779625842
  0.6780544121749988  0.4748555466406915  0.1002663263358569
  0.7448069100771976  0.4619149160855900  0.1729433309904873
  0.3664837571476924  0.3720782218846153  0.1366061607923077
  0.3442293972048897  0.3848703513440515  0.1729433309904873
  0.3442413714941206  0.4363305604625131  0.1002645631489489
  0.3442521651183899  0.5133744926468858  0.1002655779625842
  0.4555201352492313  0.5261673513676921  0.1366061607923077
  0.3219950883534597  0.4748555466406915  0.1002663263358569
  0.3442306179722366  0.3592853631638091  0.1002655779625842
  0.4554985881030772  0.3720782218846153  0.1366061607923077
  0.4555105623923081  0.4235384310030770  0.0639273929507692
  0.3887488070230059  0.4363299279053475  0.1002655779625842
  0.4332442281602745  0.3848703513440515  0.1729433309904873
  0.4110099193088445  0.4748555466406915  0.1002663263358569
  0.4332226810141208  0.2307812218609747  0.1729433309904873
  0.4332346553033513  0.2822414309794362  0.1002645631489489
  0.4332454489276210  0.3592853631638091  0.1002655779625842
  0.5445134190584620  0.3720782218846153  0.1366061607923077
  0.4109883721626909  0.3207664171576143  0.1002663263358569
  0.5445253933476929  0.4235384310030770  0.0639273929507692
  0.4777636379783907  0.4363299279053475  0.1002655779625842
  0.5222590591156601  0.3848703513440515  0.1729433309904873
  0.6335497971600013  0.5261673513676921  0.1366061607923077
  0.5000247502642292  0.4748555466406915  0.1002663263358569
  0.5445349662046156  0.5261673513676921  0.1366061607923077
  0.2329722842876925  0.4491227866261540  0.1366061607923077
  0.2107179243448894  0.4619149160855900  0.1729433309904873
  0.2774689261923081  0.3720782218846153  0.1366061607923077
  0.2552145662495054  0.3848703513440515  0.1729433309904873
  0.3665053042938465  0.5261673513676921  0.1366061607923077
  0.6558040534110442  0.5133751252040515  0.1002645631489489
  0.6558148470353139  0.5904190573884244  0.1002655779625842
  0.6335577702703833  0.5519001113822297  0.1002663263358569
  0.7448284572233512  0.6160040455686669  0.1729433309904873
  0.7225726012257676  0.5519001113822297  0.1002663263358569
  0.5668203424587362  0.7700931750517437  0.1729433309904873
  0.5445469404938466  0.5776275604861538  0.0639273929507692
  0.4777743915002746  0.5133751252040515  0.1002645631489489
  0.4777851851245439  0.5904190573884244  0.1002655779625842
  0.5223033741753131  0.6674636221299628  0.1002655779625842
  0.5000462974103830  0.6289446761237683  0.1002663263358569
  0.6558351734141210  0.7700931750517437  0.1729433309904873
  0.5667892224556598  0.5133751252040515  0.1002645631489489
  0.5668000160799287  0.5904190573884244  0.1002655779625842
  0.5890611283657677  0.6289446761237683  0.1002663263358569
  0.6558136262679674  0.6160040455686669  0.1729433309904873
  0.6558256005571974  0.6674642546871284  0.1002645631489489
  0.5667987953125826  0.6160040455686669  0.1729433309904873
  0.2107394714910437  0.6160040455686669  0.1729433309904873
  0.3220086623892310  0.6032119161092304  0.1366061607923077
  0.2552361133956590  0.5389594808271284  0.1729433309904873
  0.2997543024464283  0.6160040455686669  0.1729433309904873
  0.4110450404907698  0.7573010455923072  0.1366061607923077
  0.2997555232137752  0.5904190573884244  0.1002655779625842
  0.4555416823953850  0.6802564808507691  0.1366061607923077
  0.3887691334018130  0.6160040455686669  0.1729433309904873
  0.3887811076910435  0.6674642546871284  0.1002645631489489
  0.4778055115033515  0.7700931750517437  0.1729433309904873
  0.4555321095384618  0.5776275604861538  0.0639273929507692
  0.3887595605448899  0.5133751252040515  0.1002645631489489
  0.3887703541691596  0.5904190573884244  0.1002655779625842
  0.4332885432199292  0.6674636221299628  0.1002655779625842
  0.5445565133507697  0.6802564808507691  0.1366061607923077
  0.4110314664549986  0.6289446761237683  0.1002663263358569
  0.4777839643571978  0.6160040455686669  0.1729433309904873
  0.4777959386464283  0.6674642546871284  0.1002645631489489
  0.5890747024015389  0.7573010455923072  0.1366061607923077
  0.4555496555057678  0.7059892408653068  0.1002663263358569
  0.5223021534079670  0.6930486103102054  0.1729433309904873
  0.4776941936753133  0.0763999619484244  0.3909806493287379
  0.5889621638061543  0.0891928206692309  0.4273212321584615
  0.6334683785676930  0.1147771762923078  0.5000000000000000
  0.4999433316719215  0.0634653715653065  0.4636601655435488
  0.5666958295741207  0.0505247410102056  0.5363371701981795
  0.5444495464334602  0.0890497271883835  0.5363389333850875
  0.6112020443356589  0.0761090966332823  0.6090159380397180
  0.4777061679645442  0.1278601710668860  0.3183018814871996
  0.5889741380953848  0.1406530297876923  0.3546424643169231
  0.4554490911996141  0.0893412250606913  0.3183026298604720
  0.4999553059611523  0.1149255806837682  0.3909813977020104
  0.5667185974876212  0.1790288823130397  0.4636594171702764
  0.6779865676184622  0.1918217410338461  0.5000000000000000
  0.6112140186248899  0.1275693057517439  0.5363371701981795
  0.6112248122491596  0.2046132379361167  0.5363381850118148
  0.5889677354842290  0.1660942919299220  0.5363389333850875
  0.5667090246306981  0.0763999619484244  0.3909806493287379
  0.6779769947615391  0.0891928206692309  0.4273212321584615
  0.7224832095230773  0.1147771762923078  0.5000000000000000
  0.5889581626273062  0.0634653715653065  0.4636601655435488
  0.6557214541537751  0.1275686731945783  0.5363381850118148
  0.6334643773888445  0.0890497271883835  0.5363389333850875
  0.6779889690507696  0.1406530297876923  0.3546424643169231
  0.5444639221549984  0.0893412250606913  0.3183026298604720
  0.6112164200571976  0.0764005945055900  0.3909796345151026
  0.6112272136814673  0.1534445266899628  0.3909806493287379
  0.7224951838123083  0.1662373854107692  0.4273212321584615
  0.5889701369165371  0.1149255806837682  0.3909813977020104
  0.6557226348187358  0.1019849501286671  0.4636584023566412
  0.6557334284430060  0.1790288823130397  0.4636594171702764
  0.7670013985738465  0.1918217410338461  0.5000000000000000
  0.7002288495802742  0.1275693057517439  0.5363371701981795
  0.8115076133353849  0.2174060966569230  0.5726787678415385
  0.7447350643418129  0.1531536613748207  0.6090159380397180
  0.7002300703476215  0.1019843175715014  0.4636594171702764
  0.7447362851091599  0.1275686731945783  0.5363381850118148
  0.6557358298753138  0.1278601710668860  0.3183018814871996
  0.7002420446368520  0.1534445266899628  0.3909806493287379
  0.6779849678719214  0.1149255806837682  0.3909813977020104
  0.7447482593983908  0.1790288823130397  0.4636594171702764
  0.7224911826334602  0.1405099363068452  0.4636601655435488
  0.3219176709400000  0.0891928206692309  0.4273212321584615
  0.2996621303322369  0.1275686731945783  0.5363381850118148
  0.4109301004630779  0.1403615319153848  0.5726787678415385
  0.3219296452292313  0.1406530297876923  0.3546424643169231
  0.2996633109971972  0.1019849501286671  0.4636584023566412
  0.2996741046214674  0.1790288823130397  0.4636594171702764
  0.2774170278565368  0.1405099363068452  0.4636601655435488
  0.4554482895138466  0.2174060966569230  0.5726787678415385
  0.4109325018953847  0.0891928206692309  0.4273212321584615
  0.3886769612876212  0.1275686731945783  0.5363381850118148
  0.4999449314184622  0.1403615319153848  0.5726787678415385
  0.3664198845226906  0.0890497271883835  0.5363389333850875
  0.2996765060537751  0.1278601710668860  0.3183018814871996
  0.3886781419525820  0.1019849501286671  0.4636584023566412
  0.3886889355768521  0.1790288823130397  0.4636594171702764
  0.4999569057076927  0.1918217410338461  0.5000000000000000
  0.3664318588119211  0.1405099363068452  0.4636601655435488
  0.4331951503383905  0.2046132379361167  0.5363381850118148
  0.5444415733230773  0.0633169671738461  0.5726787678415385
  0.3886793627199290  0.0763999619484244  0.3909806493287379
  0.4999473328507695  0.0891928206692309  0.4273212321584615
  0.4776917922430060  0.1275686731945783  0.5363381850118148
  0.5889597623738470  0.1403615319153848  0.5726787678415385
  0.4554347154780754  0.0890497271883835  0.5363389333850875
  0.3886913370091594  0.1278601710668860  0.3183018814871996
  0.4999593071400004  0.1406530297876923  0.3546424643169231
  0.4776929729079668  0.1019849501286671  0.4636584023566412
  0.4777037665322369  0.1790288823130397  0.4636594171702764
  0.5889717366630774  0.1918217410338461  0.5000000000000000
  0.4554466897673059  0.1405099363068452  0.4636601655435488
  0.4109420747523079  0.1918217410338461  0.5000000000000000
  0.3886757405202743  0.1531536613748207  0.6090159380397180
  0.4109444761846157  0.1406530297876923  0.3546424643169231
  0.4109380735734594  0.1660942919299220  0.5363389333850875
  0.4776809986187359  0.0505247410102056  0.5363371701981795
  0.1884037966476924  0.2174060966569230  0.5726787678415385
  0.2329004385523083  0.1403615319153848  0.5726787678415385
  0.2329124128415388  0.1918217410338461  0.5000000000000000
  0.1661506574722366  0.2046132379361167  0.5363381850118148
  0.2774186276030771  0.2174060966569230  0.5726787678415385
  0.3219152695076931  0.1403615319153848  0.5726787678415385
  0.2106592736660826  0.1790288823130397  0.4636594171702764
  0.3219272437969232  0.1918217410338461  0.5000000000000000
  0.2551654884276213  0.2046132379361167  0.5363381850118148
  0.3664334585584619  0.2174060966569230  0.5726787678415385
  0.5444798976230774  0.1665288832830771  0.2092849286338461
  0.4777181422537751  0.1793203801853474  0.2456231136456610
  0.4999672802503833  0.1663857898022297  0.3183026298604720
  0.5667197781525820  0.1534451592471286  0.3909796345151026
  0.5667305717768522  0.2304890914315013  0.3909806493287379
  0.7225047566692314  0.2688663057753845  0.5000000000000000
  0.9005663402688449  0.3975194840268450  0.3183026298604720
  0.8560601255073065  0.3719351284037681  0.2456238620189336
  0.5889797097734599  0.2175545010483836  0.4636601655435488
  0.6557322076756591  0.2046138704932825  0.5363371701981795
  0.6334859245349986  0.2431388566714606  0.5363389333850875
  0.7002384224371974  0.2301982261163593  0.6090159380397180
  0.5889980866738466  0.2435734480246153  0.2092849286338461
  0.5222255376802747  0.1793210127425131  0.2456220988320257
  0.6335043014353854  0.2691578036476922  0.2819636964753845
  0.5667317524418130  0.2049053683655900  0.3183008666735642
  0.6780105161969232  0.2947421592707692  0.3546424643169231
  0.6112379672033517  0.2304897239886669  0.3909796345151026
  0.6112487608276214  0.3075336561730399  0.3909806493287379
  0.7225167309584619  0.3203265148938461  0.4273212321584615
  0.5889916840626908  0.2690147101668452  0.3909813977020104
  0.6557441819648900  0.2560740796117439  0.4636584023566412
  0.7670229457200002  0.3459108705169230  0.5000000000000000
  0.6334978988242291  0.2945990657899220  0.4636601655435488
  0.7002611903506984  0.3587023674191938  0.5363381850118148
  0.6780041135857678  0.3201834214129989  0.5363389333850875
  0.7447566114879670  0.3072427908578978  0.6090159380397180
  0.5222483055937749  0.3078251540453475  0.1729443458041226
  0.6335162757246158  0.3206180127661538  0.2092849286338461
  0.5667437267310439  0.2563655774840516  0.2456220988320257
  0.5667545203553136  0.3334095096684244  0.2456231136456610
  0.6780224904861546  0.3462023683892308  0.2819636964753845
  0.6112499414925822  0.2819499331071285  0.3183008666735642
  0.6557561562541204  0.3075342887302055  0.3909796345151026
  0.6557669498783906  0.3845782209145783  0.3909806493287379
  0.7670349200092311  0.3973710796353845  0.4273212321584615
  0.7002623710156592  0.3331186443532824  0.4636584023566412
  0.8115411347707695  0.4229554352584615  0.5000000000000000
  0.7447793794014677  0.4357469321607322  0.5363381850118148
  0.8560473495323082  0.4485397908815383  0.5726787678415385
  0.7892748005387362  0.3842873555994362  0.6090159380397180
  0.5667664946445445  0.3848697187868860  0.1729443458041226
  0.6780344647753851  0.3976625775076923  0.2092849286338461
  0.5445094178796139  0.3463507727806913  0.1729450941773951
  0.6112619157818131  0.3334101422255901  0.2456220988320257
  0.7225406795369238  0.4232469331307693  0.2819636964753845
  0.5890156326411522  0.3719351284037681  0.2456238620189336
  0.6557681305433514  0.3589944978486666  0.3183008666735642
  0.6557789241676215  0.4360384300330398  0.3183018814871996
  0.7670468942984621  0.4488312887538460  0.3546424643169231
  0.8115531090600003  0.4744156443769229  0.4273212321584615
  0.6780280621642293  0.4231038396499222  0.3909813977020104
  0.7447805600664285  0.4101632090948208  0.4636584023566412
  0.8560593238215392  0.5000000000000000  0.5000000000000000
  0.7892867748279667  0.4357475647178977  0.5363371701981795
  0.7892975684522369  0.5127914969022707  0.5363381850118148
  0.7670404916873063  0.4742725508960759  0.5363389333850875
  0.6112846836953137  0.4619142835284243  0.1729443458041226
  0.7225526538261543  0.4747071422492308  0.2092849286338461
  0.6557801048325823  0.4104547069671285  0.2456220988320257
  0.6557908984568520  0.4874986391515012  0.2456231136456610
  0.7002863195941210  0.4360390625902053  0.3183008666735642
  0.8115650833492308  0.5258758534953846  0.3546424643169231
  0.6780400364534601  0.4745640487683838  0.3183026298604720
  0.8560712981107695  0.5514602091184615  0.4273212321584615
  0.7892987491171977  0.4872077738363597  0.4636584023566412
  0.7893095427414674  0.5642517060207322  0.4636594171702764
  0.7670524659765368  0.5257327600145374  0.4636601655435488
  0.8338049638787359  0.5127921294594365  0.5363371701981795
  0.8338157575030056  0.5898360616438090  0.5363381850118148
  0.8115586807380755  0.5513171156376143  0.5363389333850875
  0.8783111786402742  0.5383764850825132  0.6090159380397180
  0.7670708428769235  0.5517517069907693  0.2092849286338461
  0.6335457959811523  0.5004399022637682  0.1729450941773951
  0.8115770576384622  0.5773360626138465  0.2819636964753845
  0.6780520107426911  0.5260242578868450  0.2456238620189336
  0.7448153022691599  0.5901275595161167  0.3183018814871996
  0.8560832724000009  0.6029204182369232  0.3546424643169231
  0.7893107234064282  0.5386679829548209  0.3909796345151026
  0.9005894871615389  0.6285047738600000  0.4273212321584615
  0.8338169381679669  0.5642523385778978  0.4636584023566412
  0.8338277317922366  0.6412962707622705  0.4636594171702764
  0.8783231529295051  0.5898366942009746  0.5363371701981795
  0.8783339465537753  0.6668806263853476  0.5363381850118148
  0.8560768697888447  0.6283616803791529  0.5363389333850875
  0.9228293676910438  0.6154210498240515  0.6090159380397180
  0.5444758964442293  0.1408014341791528  0.2456238620189336
  0.6112283943464285  0.1278608036240517  0.3183008666735642
  0.6112391879706982  0.2049047358084244  0.3183018814871996
  0.7225071581015392  0.2176975945292307  0.3546424643169231
  0.5889821112057676  0.1663857898022297  0.3183026298604720
  0.6557346091079668  0.1534451592471286  0.3909796345151026
  0.6557454027322365  0.2304890914315013  0.3909806493287379
  0.7670133728630775  0.2432819501523076  0.4273212321584615
  0.6334883259673063  0.1919701454253067  0.3909813977020104
  0.7002408238695056  0.1790295148702054  0.4636584023566412
  0.8115195876246162  0.2688663057753845  0.5000000000000000
  0.7447470386310439  0.2046138704932825  0.5363371701981795
  0.7447578322553136  0.2816578026776552  0.5363381850118148
  0.6780129176292313  0.2435734480246153  0.2092849286338461
  0.6112403686356594  0.1793210127425131  0.2456220988320257
  0.6112511622599291  0.2563649449268860  0.2456231136456610
  0.7225191323907697  0.2691578036476922  0.2819636964753845
  0.5889940854949985  0.2178459989206913  0.2456238620189336
  0.7002635917830057  0.3075336561730399  0.3909806493287379
  0.8115315619138467  0.3203265148938461  0.4273212321584615
  0.6780065150180751  0.2690147101668452  0.3909813977020104
  0.7447698065445445  0.3331180117961168  0.4636594171702764
  0.8560377766753851  0.3459108705169230  0.5000000000000000
  0.7225127297796139  0.2945990657899220  0.4636601655435488
  0.7892760213060828  0.3587023674191938  0.5363381850118148
  0.9005439914369238  0.3714952261400000  0.5726787678415385
  0.7670189445411522  0.3201834214129989  0.5363389333850875
  0.6557585576864287  0.2563655774840516  0.2456220988320257
  0.6557693513106984  0.3334095096684244  0.2456231136456610
  0.7670373214415389  0.3462023683892308  0.2819636964753845
  0.6335122745457678  0.2948905636622298  0.2456238620189336
  0.7002647724479669  0.2819499331071285  0.3183008666735642
  0.7002755660722366  0.3589938652915014  0.3183018814871996
  0.6780184893073065  0.3204749192853066  0.3183026298604720
  0.8560497509646159  0.3973710796353845  0.4273212321584615
  0.7225247040688448  0.3460592749083837  0.3909813977020104
  0.7892772019710440  0.3331186443532824  0.4636584023566412
  0.7892879955953137  0.4101625765376549  0.4636594171702764
  0.9005559657261543  0.4229554352584615  0.5000000000000000
  0.7670309188303835  0.3716436305314604  0.4636601655435488
  0.8337942103568520  0.4357469321607322  0.5363381850118148
  0.9450621804876930  0.4485397908815383  0.5726787678415385
  0.8115371335919218  0.3972279861545375  0.5363389333850875
  0.8782896314941205  0.3842873555994362  0.6090159380397180
  0.6335242488349982  0.3463507727806913  0.1729450941773951
  0.7002767467371974  0.3334101422255901  0.2456220988320257
  0.7002875403614676  0.4104540744099627  0.2456231136456610
  0.6780304635965370  0.3719351284037681  0.2456238620189336
  0.7447937551230058  0.4360384300330398  0.3183018814871996
  0.8560617252538468  0.4488312887538460  0.3546424643169231
  0.7225366783580757  0.3975194840268450  0.3183026298604720
  0.7892891762602745  0.3845788534717439  0.3909796345151026
  0.7892999698845442  0.4616227856561166  0.3909806493287379
  0.9005679400153851  0.4744156443769229  0.4273212321584615
  0.8338061846460829  0.4872071412791935  0.4636594171702764
  0.9450741547769235  0.5000000000000000  0.5000000000000000
  0.8783016057833515  0.4357475647178977  0.5363371701981795
  0.8783123994076212  0.5127914969022707  0.5363381850118148
  0.8560553226426910  0.4742725508960759  0.5363389333850875
  0.9228078205448897  0.4613319203409746  0.6090159380397180
  0.8115674847815391  0.4747071422492308  0.2092849286338461
  0.8560736995430773  0.5002914978723078  0.2819636964753845
  0.7893011505495053  0.4360390625902053  0.3183008666735642
  0.7893119441737750  0.5130829947745783  0.3183018814871996
  0.7670548674088444  0.4745640487683838  0.3183026298604720
  0.8338073653110437  0.4616234182132823  0.3909796345151026
  0.8338181589353139  0.5386673503976552  0.3909806493287379
  0.9450861290661544  0.5514602091184615  0.4273212321584615
  0.8115610821703833  0.5001484043914605  0.3909813977020104
  0.8783135800725824  0.4872077738363597  0.4636584023566412
  0.8560672969319215  0.5257327600145374  0.4636601655435488
  0.9228197948341207  0.5127921294594365  0.5363371701981795
  0.9228305884583908  0.5898360616438090  0.5363381850118148
  0.7893131248387358  0.4874992717086669  0.2456220988320257
  0.7893239184630060  0.5645432038930396  0.2456231136456610
  0.7670668416980754  0.5260242578868450  0.2456238620189336
  0.8338193396002742  0.5130836273317440  0.3183008666735642
  0.8338301332245444  0.5901275595161167  0.3183018814871996
  0.8115730564596142  0.5516086135099222  0.3183026298604720
  0.8783363479860826  0.6157119151391935  0.3909806493287379
  0.9228317691233516  0.5642523385778978  0.4636584023566412
  0.9228425627476213  0.6412962707622705  0.4636594171702764
  0.9005854859826907  0.6027773247560759  0.4636601655435488
  0.6557478041645447  0.1793203801853474  0.2456231136456610
  0.6779969421611524  0.1663857898022297  0.3183026298604720
  0.7447602336876212  0.2304890914315013  0.3909806493287379
  0.8560282038184622  0.2432819501523076  0.4273212321584615
  0.7892664484491601  0.2560734470545781  0.4636594171702764
  0.8337618695864282  0.2046138704932825  0.5363371701981795
  0.8337726632106983  0.2816578026776552  0.5363381850118148
  0.6557597784537752  0.2307805893038091  0.1729443458041226
  0.7002659932153139  0.2563649449268860  0.2456231136456610
  0.8115339633461540  0.2691578036476922  0.2819636964753845
  0.6780089164503833  0.2178459989206913  0.2456238620189336
  0.7447614143525825  0.2049053683655900  0.3183008666735642
  0.8560401781076927  0.2947421592707692  0.3546424643169231
  0.7892676291141207  0.2304897239886669  0.3909796345151026
  0.9005463928692310  0.3203265148938461  0.4273212321584615
  0.7670213459734599  0.2690147101668452  0.3909813977020104
  0.8337738438756596  0.2560740796117439  0.4636584023566412
  0.8115275607349982  0.2945990657899220  0.4636601655435488
  0.8782908522614680  0.3587023674191938  0.5363381850118148
  0.7002779675045444  0.3078251540453475  0.1729443458041226
  0.6780208907396138  0.2693062080391529  0.1729450941773951
  0.7447733886418130  0.2563655774840516  0.2456220988320257
  0.8560521523969241  0.3462023683892308  0.2819636964753845
  0.7225271055011525  0.2948905636622298  0.2456238620189336
  0.7892796034033517  0.2819499331071285  0.3183008666735642
  0.7892903970276214  0.3589938652915014  0.3183018814871996
  0.9005583671584619  0.3717867240123077  0.3546424643169231
  0.7670333202626908  0.3204749192853066  0.3183026298604720
  0.8337858181648901  0.3075342887302055  0.3909796345151026
  0.8115395350242296  0.3460592749083837  0.3909813977020104
  0.8782920329264288  0.3331186443532824  0.4636584023566412
  0.8783028265506980  0.4101625765376549  0.4636594171702764
  0.8560457497857679  0.3716436305314604  0.4636601655435488
  0.9227982476879666  0.3587029999763593  0.5363371701981795
  0.9228090413122367  0.4357469321607322  0.5363381850118148
  0.9005519645473061  0.3972279861545375  0.5363389333850875
  0.7892915776925817  0.3334101422255901  0.2456220988320257
  0.7893023713168523  0.4104540744099627  0.2456231136456610
  0.8337977924541204  0.3589944978486666  0.3183008666735642
  0.8338085860783901  0.4360384300330398  0.3183018814871996
  0.8783040072156593  0.3845788534717439  0.3909796345151026
  0.8783148008399290  0.4616227856561166  0.3909806493287379
  0.8560577240749984  0.4231038396499222  0.3909813977020104
  0.9228210156014672  0.4872071412791935  0.4636594171702764
  0.9005639388365371  0.4486881952729990  0.4636601655435488
  0.9450701535980753  0.4742725508960759  0.5363389333850875
  0.7670572688411522  0.4233953375222296  0.1729450941773951
  0.8783267751291595  0.5130829947745783  0.3183018814871996
  0.8560696983642293  0.4745640487683838  0.3183026298604720
  0.9228221962664285  0.4616234182132823  0.3909796345151026
  0.9005759131257676  0.5001484043914605  0.3909813977020104
  0.8783387494183907  0.5645432038930396  0.2456231136456610
  0.8560816726534601  0.5260242578868450  0.2456238620189336
  0.8337750646430061  0.2304890914315013  0.3909806493287379
  0.8337870389322369  0.2819493005499629  0.3183018814871996
  0.8115299621673063  0.2434303545437682  0.3183026298604720
  0.8782932536937753  0.3075336561730399  0.3909806493287379
  0.8560361769288447  0.2690147101668452  0.3909813977020104
  0.9227994684553136  0.3331180117961168  0.4636594171702764
  0.9005423916903834  0.2945990657899220  0.4636601655435488
  0.8337990132214674  0.3334095096684244  0.2456231136456610
  0.8115419364565373  0.2948905636622298  0.2456238620189336
  0.8783052279830057  0.3589938652915014  0.3183018814871996
  0.8560481512180755  0.3204749192853066  0.3183026298604720
  0.9228114427445445  0.3845782209145783  0.3909806493287379
  0.0994320599846160  0.5255843556230767  0.5726787678415385
  0.0994440342738467  0.5770445647415384  0.5000000000000000
  0.0994560085630772  0.6285047738600000  0.4273212321584615
  0.1884684380861542  0.6796734851061539  0.5726787678415385
  0.1216958890925823  0.6154210498240515  0.6090159380397180
  0.0994224871276926  0.4229554352584615  0.5000000000000000
  0.0994344614169233  0.4744156443769229  0.4273212321584615
  0.1884468909400003  0.5255843556230767  0.5726787678415385
  0.0549218440442290  0.4742725508960759  0.5363389333850875
  0.0771801014741204  0.4872077738363597  0.4636584023566412
  0.0771908950983905  0.5642517060207322  0.4636594171702764
  0.1884588652292310  0.5770445647415384  0.5000000000000000
  0.0549338183334599  0.5257327600145374  0.4636601655435488
  0.1216863162356593  0.5127921294594365  0.5363371701981795
  0.1884708395184622  0.6285047738600000  0.4273212321584615
  0.1439582221457674  0.6283616803791529  0.5363389333850875
  0.1439191290323079  0.3459108705169230  0.5000000000000000
  0.0771573736630059  0.3587023674191938  0.5363381850118148
  0.1216527948002747  0.3072427908578978  0.6090159380397180
  0.0994248885600003  0.3717867240123077  0.3546424643169231
  0.1439311033215389  0.3973710796353845  0.4273212321584615
  0.0771585543279669  0.3331186443532824  0.4636584023566412
  0.0771693479522368  0.4101625765376549  0.4636594171702764
  0.1216647690895050  0.3587029999763593  0.5363371701981795
  0.1216755627137751  0.4357469321607322  0.5363381850118148
  0.0771705286171974  0.3845788534717439  0.3909796345151026
  0.0771813222414673  0.4616227856561166  0.3909806493287379
  0.1884492923723081  0.4744156443769229  0.4273212321584615
  0.2329555071338466  0.5000000000000000  0.5000000000000000
  0.1439366749996137  0.4742725508960759  0.5363389333850875
  0.2106891729018129  0.4613319203409746  0.6090159380397180
  0.0771932965306985  0.5130829947745783  0.3183018814871996
  0.1884612666615390  0.5258758534953846  0.3546424643169231
  0.1661949324295051  0.4872077738363597  0.4636584023566412
  0.1662057260537755  0.5642517060207322  0.4636594171702764
  0.2774736961846158  0.5770445647415384  0.5000000000000000
  0.1439486492888447  0.5257327600145374  0.4636601655435488
  0.2107119408153136  0.5898360616438090  0.5363381850118148
  0.3219799109461550  0.6026289203646152  0.5726787678415385
  0.2552073619525821  0.5383764850825132  0.6090159380397180
  0.2329794557123080  0.6029204182369232  0.3546424643169231
  0.1662069067187358  0.5386679829548209  0.3909796345151026
  0.1662177003430058  0.6157119151391935  0.3909806493287379
  0.1439606235780754  0.5771929691329991  0.3909813977020104
  0.3219918852353850  0.6540891294830770  0.5000000000000000
  0.2329730531011522  0.6283616803791529  0.5363389333850875
  0.2997255510033514  0.6154210498240515  0.6090159380397180
  0.1216743419464282  0.4613319203409746  0.6090159380397180
  0.0994464357061542  0.5258758534953846  0.3546424643169231
  0.1216971098599290  0.5898360616438090  0.5363381850118148
  0.0771920757633515  0.5386679829548209  0.3909796345151026
  0.0772028693876214  0.6157119151391935  0.3909806493287379
  0.0994536071307695  0.6796734851061539  0.5726787678415385
  0.1884157709369233  0.2688663057753845  0.5000000000000000
  0.2774649250134600  0.3463507727806913  0.1729450941773951
  0.3442282165399289  0.4104540744099627  0.2456231136456610
  0.3887236376771975  0.3589944978486666  0.3183008666735642
  0.4332298524387358  0.3845788534717439  0.3909796345151026
  0.4332406460630059  0.4616227856561166  0.3909806493287379
  0.4109835692980753  0.4231038396499222  0.3909813977020104
  0.5890148309553848  0.5000000000000000  0.5000000000000000
  0.5222530755860826  0.5127914969022707  0.5363381850118148
  0.5667484967233511  0.4613319203409746  0.6090159380397180
  0.3442401908291594  0.4619142835284243  0.1729443458041226
  0.4555081609600000  0.4747071422492308  0.2092849286338461
  0.3887464055906986  0.4874986391515012  0.2456231136456610
  0.3664893288257676  0.4489796931453067  0.2456238620189336
  0.4332526203522364  0.5130829947745783  0.3183018814871996
  0.4109955435873058  0.4745640487683838  0.3183026298604720
  0.5890268052446153  0.5514602091184615  0.4273212321584615
  0.5222542562510438  0.4872077738363597  0.4636584023566412
  0.5222650498753139  0.5642517060207322  0.4636594171702764
  0.6335330200061540  0.5770445647415384  0.5000000000000000
  0.5445141878719212  0.5513171156376143  0.5363389333850875
  0.5000263500107696  0.5517517069907693  0.2092849286338461
  0.5890387795338466  0.6029204182369232  0.3546424643169231
  0.4555137326380750  0.5516086135099222  0.3183026298604720
  0.5222662305402742  0.5386679829548209  0.3909796345151026
  0.6335449942953849  0.6285047738600000  0.4273212321584615
  0.5667832389260827  0.6412962707622705  0.4636594171702764
  0.5445261621611521  0.6027773247560759  0.4636601655435488
  0.6112786600633513  0.5898366942009746  0.5363371701981795
  0.7225574238184620  0.6796734851061539  0.5726787678415385
  0.3441839014802742  0.1278608036240517  0.3183008666735642
  0.4554626652353849  0.2176975945292307  0.3546424643169231
  0.4331963310033513  0.1790295148702054  0.4636584023566412
  0.4332071246276210  0.2560734470545781  0.4636594171702764
  0.5444750947584619  0.2688663057753845  0.5000000000000000
  0.4109500478626903  0.2175545010483836  0.4636601655435488
  0.3441958757695051  0.1793210127425131  0.2456220988320257
  0.4554746395246158  0.2691578036476922  0.2819636964753845
  0.3219495926288442  0.2178459989206913  0.2456238620189336
  0.3887020905310439  0.2049053683655900  0.3183008666735642
  0.3887128841553136  0.2819493005499629  0.3183018814871996
  0.3664558073903830  0.2434303545437682  0.3183026298604720
  0.4332083052925817  0.2304897239886669  0.3909796345151026
  0.4332190989168518  0.3075336561730399  0.3909806493287379
  0.5444870690476920  0.3203265148938461  0.4273212321584615
  0.4109620221519212  0.2690147101668452  0.3909813977020104
  0.4777253136783902  0.3331180117961168  0.4636594171702764
  0.6334994985707695  0.3714952261400000  0.5726787678415385
  0.4999744516749983  0.3201834214129989  0.5363389333850875
  0.4554866138138463  0.3206180127661538  0.2092849286338461
  0.3887248584445440  0.3334095096684244  0.2456231136456610
  0.3664677816796134  0.2948905636622298  0.2456238620189336
  0.4332310732060828  0.3589938652915014  0.3183018814871996
  0.5444990433369233  0.3717867240123077  0.3546424643169231
  0.4109739964411522  0.3204749192853066  0.3183026298604720
  0.5890052580984612  0.3973710796353845  0.4273212321584615
  0.4999864259642297  0.3716436305314604  0.4636601655435488
  0.5667389238664280  0.3587029999763593  0.5363371701981795
  0.5667497174906981  0.4357469321607322  0.5363381850118148
  0.6112451386279663  0.3842873555994362  0.6090159380397180
  0.3664797559688444  0.3463507727806913  0.1729450941773951
  0.4332430474953133  0.4104540744099627  0.2456231136456610
  0.5445110176261538  0.4232469331307693  0.2819636964753845
  0.5890172323876925  0.4488312887538460  0.3546424643169231
  0.5222446833941201  0.3845788534717439  0.3909796345151026
  0.5222554770183903  0.4616227856561166  0.3909806493287379
  0.4999984002534602  0.4231038396499222  0.3909813977020104
  0.5667508981556589  0.4101632090948208  0.4636584023566412
  0.6780296619107695  0.5000000000000000  0.5000000000000000
  0.5445046150149989  0.4486881952729990  0.4636601655435488
  0.4332550217845442  0.4619142835284243  0.1729443458041226
  0.5445229919153847  0.4747071422492308  0.2092849286338461
  0.4109979450196136  0.4233953375222296  0.1729450941773951
  0.5222566576833515  0.4360390625902053  0.3183008666735642
  0.6335354214384618  0.5258758534953846  0.3546424643169231
  0.5000103745426906  0.4745640487683838  0.3183026298604720
  0.6112690872064281  0.4872077738363597  0.4636584023566412
  0.7225478509615388  0.5770445647415384  0.5000000000000000
  0.6557753019679669  0.5127921294594365  0.5363371701981795
  0.6557860955922366  0.5898360616438090  0.5363381850118148
  0.6335290188273059  0.5513171156376143  0.5363389333850875
  0.7002815167295051  0.5383764850825132  0.6090159380397180
  0.5222686319725820  0.4874992717086669  0.2456220988320257
  0.5222794255968517  0.5645432038930396  0.2456231136456610
  0.6335473957276927  0.5773360626138465  0.2819636964753845
  0.5000223488319211  0.5260242578868450  0.2456238620189336
  0.6112810614956586  0.5386679829548209  0.3909796345151026
  0.6112918551199287  0.6157119151391935  0.3909806493287379
  0.7225598252507692  0.6285047738600000  0.4273212321584615
  0.7002934910187356  0.5898366942009746  0.5363371701981795
  0.7003042846430058  0.6668806263853476  0.5363381850118148
  0.8115722547738463  0.6796734851061539  0.5726787678415385
  0.4331987324356590  0.1278608036240517  0.3183008666735642
  0.4109524492949985  0.1663857898022297  0.3183026298604720
  0.5222111619587360  0.1790295148702054  0.4636584023566412
  0.6334899257138462  0.2688663057753845  0.5000000000000000
  0.4999648788180751  0.2175545010483836  0.4636601655435488
  0.5667173767202743  0.2046138704932825  0.5363371701981795
  0.5667281703445440  0.2816578026776552  0.5363381850118148
  0.6779961404753850  0.2944506613984615  0.5726787678415385
  0.6112235914818126  0.2301982261163593  0.6090159380397180
  0.4999832557184618  0.2435734480246153  0.2092849286338461
  0.4332107067248899  0.1793210127425131  0.2456220988320257
  0.4332215003491596  0.2563649449268860  0.2456231136456610
  0.4109644235842290  0.2178459989206913  0.2456238620189336
  0.4777169214864286  0.2049053683655900  0.3183008666735642
  0.5222231362479665  0.2304897239886669  0.3909796345151026
  0.5222339298722366  0.3075336561730399  0.3909806493287379
  0.6335019000030772  0.3203265148938461  0.4273212321584615
  0.5667293510095056  0.2560740796117439  0.4636584023566412
  0.5667401446337749  0.3331180117961168  0.4636594171702764
  0.6780081147646150  0.3459108705169230  0.5000000000000000
  0.7225143295261542  0.3714952261400000  0.5726787678415385
  0.5889892826303831  0.3201834214129989  0.5363389333850875
  0.4332334746383901  0.3078251540453475  0.1729443458041226
  0.4109763978734599  0.2693062080391529  0.1729450941773951
  0.5222351105371978  0.2819499331071285  0.3183008666735642
  0.5222459041614671  0.3589938652915014  0.3183018814871996
  0.4999888273965369  0.3204749192853066  0.3183026298604720
  0.7225263038153851  0.4229554352584615  0.5000000000000000
  0.6557645484460825  0.4357469321607322  0.5363381850118148
  0.6335074716811518  0.3972279861545375  0.5363389333850875
  0.7002599695833515  0.3842873555994362  0.6090159380397180
  0.5890196338200002  0.3976625775076923  0.2092849286338461
  0.5222578784506985  0.4104540744099627  0.2456231136456610
  0.5000008016857674  0.3719351284037681  0.2456238620189336
  0.6112703079737750  0.4616227856561166  0.3909806493287379
  0.7225382781046156  0.4744156443769229  0.4273212321584615
  0.6335194459703828  0.4486881952729990  0.4636601655435488
  0.7002827374968517  0.5127914969022707  0.5363381850118148
  0.8115507076276927  0.5255843556230767  0.5726787678415385
  0.6780256607319211  0.4742725508960759  0.5363389333850875
  0.5222698527399294  0.4619142835284243  0.1729443458041226
  0.6335378228707695  0.4747071422492308  0.2092849286338461
  0.5000127759749984  0.4233953375222296  0.1729450941773951
  0.6112714886387358  0.4360390625902053  0.3183008666735642
  0.6112822822630055  0.5130829947745783  0.3183018814871996
  0.7225502523938465  0.5258758534953846  0.3546424643169231
  0.7002947117860830  0.5642517060207322  0.4636594171702764
  0.8115626819169236  0.5770445647415384  0.5000000000000000
  0.6780376350211520  0.5257327600145374  0.4636601655435488
  0.7448009265476218  0.5898360616438090  0.5363381850118148
  0.7225438497826907  0.5513171156376143  0.5363389333850875
  0.7892963476848899  0.5383764850825132  0.6090159380397180
  0.6112834629279663  0.4874992717086669  0.2456220988320257
  0.6112942565522369  0.5645432038930396  0.2456231136456610
  0.7225622266830775  0.5773360626138465  0.2819636964753845
  0.5890371797873059  0.5260242578868450  0.2456238620189336
  0.7002958924510430  0.5386679829548209  0.3909796345151026
  0.7003066860753135  0.6157119151391935  0.3909806493287379
  0.8115746562061540  0.6285047738600000  0.4273212321584615
  0.6780496093103829  0.5771929691329991  0.3909813977020104
  0.9005870857292315  0.6796734851061539  0.5726787678415385
  0.3442174229156588  0.3334101422255901  0.2456220988320257
  0.4554961866707695  0.4232469331307693  0.2819636964753845
  0.6112666857741204  0.5383764850825132  0.6090159380397180
  0.2996884803430060  0.1793203801853474  0.2456231136456610
  0.5222674513076212  0.5130829947745783  0.3183018814871996
  0.5445165893042293  0.5001484043914605  0.3909813977020104
  0.5445285635934598  0.5516086135099222  0.3183026298604720
  0.5444774961907697  0.2176975945292307  0.3546424643169231
  0.4999768531073060  0.2690147101668452  0.3909813977020104
  0.6780200890538464  0.3973710796353845  0.4273212321584615
  0.7670620388334599  0.6283616803791529  0.5363389333850875
  0.1216540155676210  0.2816578026776552  0.5363381850118148
  0.2329219856984616  0.2944506613984615  0.5726787678415385
  0.1661494367048896  0.2301982261163593  0.6090159380397180
  0.1884277452261537  0.3203265148938461  0.4273212321584615
  0.1216659898568519  0.3331180117961168  0.4636594171702764
  0.2329339599876920  0.3459108705169230  0.5000000000000000
  0.1661722046183902  0.3587023674191938  0.5363381850118148
  0.2774401747492308  0.3714952261400000  0.5726787678415385
  0.2106676257556591  0.3072427908578978  0.6090159380397180
  0.1439335047538464  0.3462023683892308  0.2819636964753845
  0.1216671705218127  0.3075342887302055  0.3909796345151026
  0.1216779641460824  0.3845782209145783  0.3909806493287379
  0.0994208873811520  0.3460592749083837  0.3909813977020104
  0.1661733852833515  0.3331186443532824  0.4636584023566412
  0.1661841789076207  0.4101625765376549  0.4636594171702764
  0.2774521490384617  0.4229554352584615  0.5000000000000000
  0.2106796000448895  0.3587029999763593  0.5363371701981795
  0.3219583638000000  0.4485397908815383  0.5726787678415385
  0.1884333169042291  0.3972279861545375  0.5363389333850875
  0.2551858148064280  0.3842873555994362  0.6090159380397180
  0.0994328616703830  0.3975194840268450  0.3183026298604720
  0.1661853595725819  0.3845788534717439  0.3909796345151026
  0.1661961531968516  0.4616227856561166  0.3909806493287379
  0.2774641233276922  0.4744156443769229  0.4273212321584615
  0.1439390764319213  0.4231038396499222  0.3909813977020104
  0.2106915743341204  0.4101632090948208  0.4636584023566412
  0.1884452911934598  0.4486881952729990  0.4636601655435488
  0.2551977890956590  0.4357475647178977  0.5363371701981795
  0.2552085827199287  0.5127914969022707  0.5363381850118148
  0.2997040038571973  0.4613319203409746  0.6090159380397180
  0.1884636680938467  0.4747071422492308  0.2092849286338461
  0.1217019127245440  0.4874986391515012  0.2456231136456610
  0.1661973338618133  0.4360390625902053  0.3183008666735642
  0.1662081274860826  0.5130829947745783  0.3183018814871996
  0.2774760976169235  0.5258758534953846  0.3546424643169231
  0.1439510507211520  0.4745640487683838  0.3183026298604720
  0.2552097633848899  0.4872077738363597  0.4636584023566412
  0.2552205570091600  0.5642517060207322  0.4636594171702764
  0.2329634802442290  0.5257327600145374  0.4636601655435488
  0.2997267717706979  0.5898360616438090  0.5363381850118148
  0.4109947419015389  0.6026289203646152  0.5726787678415385
  0.2329818571446157  0.5517517069907693  0.2092849286338461
  0.1662093081510433  0.4874992717086669  0.2456220988320257
  0.1662201017753130  0.5645432038930396  0.2456231136456610
  0.2774880719061545  0.5773360626138465  0.2819636964753845
  0.1439630250103829  0.5260242578868450  0.2456238620189336
  0.2552217376741204  0.5386679829548209  0.3909796345151026
  0.2552325312983901  0.6157119151391935  0.3909806493287379
  0.3665005014292311  0.6285047738600000  0.4273212321584615
  0.2329754545334599  0.5771929691329991  0.3909813977020104
  0.4110067161907693  0.6540891294830770  0.5000000000000000
  0.4555129309523077  0.6796734851061539  0.5726787678415385
  0.3219878840565365  0.6283616803791529  0.5363389333850875
  0.1884181723692310  0.2176975945292307  0.3546424643169231
  0.1661626317614673  0.2560734470545781  0.4636594171702764
  0.1439055549965367  0.2175545010483836  0.4636601655435488
  0.2106580528987357  0.2046138704932825  0.5363371701981795
  0.1884117697580752  0.2431388566714606  0.5363389333850875
  0.2551642676602744  0.2301982261163593  0.6090159380397180
  0.1884301466584615  0.2691578036476922  0.2819636964753845
  0.2329363614200002  0.2947421592707692  0.3546424643169231
  0.1661638124264283  0.2304897239886669  0.3909796345151026
  0.1661746060506980  0.3075336561730399  0.3909806493287379
  0.2774425761815381  0.3203265148938461  0.4273212321584615
  0.2106700271879668  0.2560740796117439  0.4636584023566412
  0.2106808208122363  0.3331180117961168  0.4636594171702764
  0.1884237440473059  0.2945990657899220  0.4636601655435488
  0.2551870355737746  0.3587023674191938  0.5363381850118148
  0.3664550057046155  0.3714952261400000  0.5726787678415385
  0.2329299588088444  0.3201834214129989  0.5363389333850875
  0.2996824567110436  0.3072427908578978  0.6090159380397180
  0.2329483357092312  0.3462023683892308  0.2819636964753845
  0.1661757867156592  0.2819499331071285  0.3183008666735642
  0.1661865803399287  0.3589938652915014  0.3183018814871996
  0.2774545504707694  0.3717867240123077  0.3546424643169231
  0.1439295035749983  0.3204749192853066  0.3183026298604720
  0.2106820014771975  0.3075342887302055  0.3909796345151026
  0.1884357183365368  0.3460592749083837  0.3909813977020104
  0.2551882162387362  0.3331186443532824  0.4636584023566412
  0.3664669799938465  0.4229554352584615  0.5000000000000000
  0.2329419330980753  0.3716436305314604  0.4636601655435488
  0.2996944310002741  0.3587029999763593  0.5363371701981795
  0.2997052246245447  0.4357469321607322  0.5363381850118148
  0.2774481478596136  0.3972279861545375  0.5363389333850875
  0.2329603099984616  0.3976625775076923  0.2092849286338461
  0.1661877610048897  0.3334101422255901  0.2456220988320257
  0.1661985546291596  0.4104540744099627  0.2456231136456610
  0.2774665247600004  0.4232469331307693  0.2819636964753845
  0.1439414778642290  0.3719351284037681  0.2456238620189336
  0.1884476926257675  0.3975194840268450  0.3183026298604720
  0.2552001905279667  0.3845788534717439  0.3909796345151026
  0.2552109841522364  0.4616227856561166  0.3909806493287379
  0.3664789542830770  0.4744156443769229  0.4273212321584615
  0.2329539073873058  0.4231038396499222  0.3909813977020104
  0.2997064052895050  0.4101632090948208  0.4636584023566412
  0.3442126200510433  0.4357475647178977  0.5363371701981795
  0.3442234136753139  0.5127914969022707  0.5363381850118148
  0.4554913838061540  0.5255843556230767  0.5726787678415385
  0.3219663369103828  0.4742725508960759  0.5363389333850875
  0.3887188348125821  0.4613319203409746  0.6090159380397180
  0.2774784990492308  0.4747071422492308  0.2092849286338461
  0.3219847138107696  0.5002914978723078  0.2819636964753845
  0.1884596669149982  0.4489796931453067  0.2456238620189336
  0.2552121648171976  0.4360390625902053  0.3183008666735642
  0.2552229584414669  0.5130829947745783  0.3183018814871996
  0.2329658816765367  0.4745640487683838  0.3183026298604720
  0.4109971433338466  0.5514602091184615  0.4273212321584615
  0.3442245943402742  0.4872077738363597  0.4636584023566412
  0.3219783111996138  0.5257327600145374  0.4636601655435488
  0.3887308091018130  0.5127921294594365  0.5363371701981795
  0.3887416027260831  0.5898360616438090  0.5363381850118148
  0.3664845259611521  0.5513171156376143  0.5363389333850875
  0.4332370238633513  0.5383764850825132  0.6090159380397180
  0.2107287179691595  0.5389588482699627  0.1729443458041226
  0.3219966881000005  0.5517517069907693  0.2092849286338461
  0.1884716412042289  0.5004399022637682  0.1729450941773951
  0.2552241391064281  0.4874992717086669  0.2456220988320257
  0.2552349327306982  0.5645432038930396  0.2456231136456610
  0.3665029028615392  0.5773360626138465  0.2819636964753845
  0.3442365686295051  0.5386679829548209  0.3909796345151026
  0.4555153323846158  0.6285047738600000  0.4273212321584615
  0.3219902854888442  0.5771929691329991  0.3909813977020104
  0.3887427833910435  0.5642523385778978  0.4636584023566412
  0.3887535770153136  0.6412962707622705  0.4636594171702764
  0.5000215471461541  0.6540891294830770  0.5000000000000000
  0.4332489981525817  0.5898366942009746  0.5363371701981795
  0.4110027150119213  0.6283616803791529  0.5363389333850875
  0.2774330033246153  0.2176975945292307  0.3546424643169231
  0.3219392180861541  0.2432819501523076  0.4273212321584615
  0.2551666690925821  0.1790295148702054  0.4636584023566412
  0.2551774627168518  0.2560734470545781  0.4636594171702764
  0.3664454328476924  0.2688663057753845  0.5000000000000000
  0.2329203859519212  0.2175545010483836  0.4636601655435488
  0.2996728838541204  0.2046138704932825  0.5363371701981795
  0.2774266007134600  0.2431388566714606  0.5363389333850875
  0.3441790986156592  0.2301982261163593  0.6090159380397180
  0.2774449776138462  0.2691578036476922  0.2819636964753845
  0.3219511923753850  0.2947421592707692  0.3546424643169231
  0.2551786433818131  0.2304897239886669  0.3909796345151026
  0.2551894370060828  0.3075336561730399  0.3909806493287379
  0.3664574071369229  0.3203265148938461  0.4273212321584615
  0.2996848581433518  0.2560740796117439  0.4636584023566412
  0.4109636218984611  0.3459108705169230  0.5000000000000000
  0.2774385750026904  0.2945990657899220  0.4636601655435488
  0.3441910729048897  0.2816584352348208  0.5363371701981795
  0.3442018665291594  0.3587023674191938  0.5363381850118148
  0.4554698366600003  0.3714952261400000  0.5726787678415385
  0.3219447897642292  0.3201834214129989  0.5363389333850875
  0.3886972876664284  0.3072427908578978  0.6090159380397180
  0.2774569519030772  0.3206180127661538  0.2092849286338461
  0.2106844029095050  0.2563655774840516  0.2456220988320257
  0.2106951965337749  0.3334095096684244  0.2456231136456610
  0.3219631666646155  0.3462023683892308  0.2819636964753845
  0.1884381197688443  0.2948905636622298  0.2456238620189336
  0.2552014112953132  0.3589938652915014  0.3183018814871996
  0.3442030471941210  0.3331186443532824  0.4636584023566412
  0.3442138408183902  0.4101625765376549  0.4636594171702764
  0.3219567640534597  0.3716436305314604  0.4636601655435488
  0.3887092619556589  0.3587029999763593  0.5363371701981795
  0.3887200555799290  0.4357469321607322  0.5363381850118148
  0.4999880257107696  0.4485397908815383  0.5726787678415385
  0.3664629788149980  0.3972279861545375  0.5363389333850875
  0.2107071708230056  0.3848697187868860  0.1729443458041226
  0.3219751409538464  0.3976625775076923  0.2092849286338461
  0.2552025919602740  0.3334101422255901  0.2456220988320257
  0.3664813557153847  0.4232469331307693  0.2819636964753845
  0.2329563088196135  0.3719351284037681  0.2456238620189336
  0.3442150214833510  0.3845788534717439  0.3909796345151026
  0.3442258151076212  0.4616227856561166  0.3909806493287379
  0.4554937852384613  0.4744156443769229  0.4273212321584615
  0.3219687383426906  0.4231038396499222  0.3909813977020104
  0.6780639850319216  0.5774844670053065  0.1729450941773951
  0.7448272765583904  0.6415877686345782  0.2456231136456610
  0.8560952466892314  0.6543806273553845  0.2819636964753845
  0.7670764145549986  0.6286531782514605  0.3183026298604720
  0.8338289124571974  0.6157125476963593  0.3909796345151026
  0.8783351272187361  0.6412969033194361  0.4636584023566412
  0.8783459208430058  0.7183408355038090  0.4636594171702764
  0.8560888440780752  0.6798218894976144  0.4636601655435488
  0.7448392508476214  0.6930479777530396  0.1729443458041226
  0.7670883888442295  0.6801133873699218  0.2456238620189336
  0.8338516803706985  0.7442166889991937  0.3183018814871996
  0.8115946036057679  0.7056977429929989  0.3183026298604720
  0.8561008183673066  0.7312820986160758  0.3909813977020104
  0.7893358927522365  0.6160034130115013  0.1729443458041226
  0.7670788159873059  0.5774844670053065  0.1729450941773951
  0.8338313138895050  0.5645438364502057  0.2456220988320257
  0.8338421075137752  0.6415877686345782  0.2456231136456610
  0.8115850307488446  0.6030688226283835  0.2456238620189336
  0.8783375286510439  0.5901281920732824  0.3183008666735642
  0.8560912455103834  0.6286531782514605  0.3183026298604720
  0.9228437434125821  0.6157125476963593  0.3909796345151026
  0.6112008636706981  0.1016928196991935  0.6816957206948917
  0.7224808080907696  0.1659458875384617  0.6453575356830769
  0.6334619759565367  0.1402184384345374  0.6816964690681643
  0.7002252674830061  0.2043217400638092  0.7543744885364304
  0.6779681907180755  0.1658027940576143  0.7543752369097028
  0.7669989971415389  0.2429904522799999  0.6453575356830769
  0.6334739502457677  0.1916786475529990  0.6090177012266257
  0.7002264481479664  0.1787380169978977  0.6816947058812564
  0.7002372417722366  0.2557819491822704  0.6816957206948917
  0.7447326629095051  0.2043223726209746  0.7543734737227946
  0.7002276689153134  0.1531530288176552  0.6090169528533534
  0.6779705921503828  0.1146340828114604  0.6090177012266257
  0.7224768069119215  0.1402184384345374  0.6816964690681643
  0.7447458579660826  0.2301975935591936  0.6090169528533534
  0.7224887812011520  0.1916786475529990  0.6090177012266257
  0.7669949959626907  0.2172630031760759  0.6816964690681643
  0.8337606889214674  0.2301975935591936  0.6090169528533534
  0.8115036121565368  0.1916786475529990  0.6090177012266257
  0.7002492160614675  0.3072421583007320  0.6090169528533534
  0.8115171861923081  0.3200350170215386  0.6453575356830769
  0.6779921392965369  0.2687232122945375  0.6090177012266257
  0.7447554308230058  0.3328265139238089  0.6816957206948917
  0.7670045688196140  0.3198919235406912  0.7543752369097028
  0.7670165431088448  0.3713521326591528  0.6816964690681643
  0.8337690410110441  0.3584115021040518  0.7543734737227946
  0.8337798346353138  0.4354554342884245  0.7543744885364304
  0.7892855941630059  0.4613312877838092  0.6090169528533534
  0.9005535642938465  0.4741241465046152  0.6453575356830769
  0.7670285173980753  0.4228123417776143  0.6090177012266257
  0.8337810153002745  0.4098717112225133  0.6816947058812564
  0.8337918089245446  0.4869156434068860  0.6816957206948917
  0.8560409469211524  0.4739810530237682  0.7543752369097028
  0.8560529212103829  0.5254412621422296  0.6816964690681643
  0.8783219722645448  0.6154204172668859  0.6090169528533534
  0.8560648954996137  0.5769014712606911  0.6090177012266257
  0.9005830845503834  0.6539460360022298  0.6090177012266257
  0.7892640470168518  0.3072421583007320  0.6090169528533534
  0.7670069702519212  0.2687232122945375  0.6090177012266257
  0.8337594681541208  0.2557825817394363  0.6816947058812564
  0.8115131850134599  0.2943075679176144  0.6816964690681643
  0.8337822360676210  0.3842867230422707  0.6090169528533534
  0.8115251593026909  0.3457677770360759  0.6090177012266257
  0.8782776572048900  0.3328271464809747  0.6816947058812564
  0.8560313740642292  0.3713521326591528  0.6816964690681643
  0.8783004251183902  0.4613312877838092  0.6090169528533534
  0.9228186141691594  0.5383758525253475  0.6090169528533534
  0.9005615374042293  0.4998569065191530  0.6090177012266257
  0.8782788779722366  0.3072421583007320  0.6090169528533534
  0.8560218012073060  0.2687232122945375  0.6090177012266257
  0.9227970670230058  0.3842867230422707  0.6090169528533534
  0.9005399902580752  0.3457677770360759  0.6090177012266257
  0.2081559116008501  0.3091994941337043  0.2284825650299094
  0.2081621625195029  0.3320330182146438  0.1900912133299868
  0.1884411203391094  0.3433648148285692  0.2285051634025882
  0.2329138136652633  0.1633998318501078  0.3738626990856652
  0.2081319630223887  0.2062790758967815  0.3738401007129862
  0.1686996206928044  0.2062830225871294  0.3738328930869006
  0.1439099249439323  0.2433294594599320  0.3759084332069006
  0.2081382139410413  0.2291125999777206  0.3354487490130638
  0.1687042907566676  0.2291162238837757  0.3354428233677641
  0.1884171717606482  0.2404443965916462  0.3738626990856652
  0.1242149530774198  0.3347877964471295  0.3011541252453622
  0.0994132830393168  0.3203740242014707  0.3759084332069006
  0.1242029787881891  0.2833275873286680  0.3738328930869006
  0.0994273094035348  0.3490394641071766  0.3354184973480949
  0.2081439373116194  0.2577392850152431  0.3011613328714478
  0.1687115949820356  0.2577432317055911  0.3011541252453622
  0.2081501882302720  0.2805728090961822  0.2627699811715252
  0.1884291460498785  0.2919046057101076  0.3011839312441265
  0.1884423066981896  0.3205714907724613  0.2606943942463988
  0.1636472954070041  0.3347838497567817  0.3011613328714478
  0.2132297840328046  0.3347877964471295  0.3011541252453622
  0.2132344540966677  0.3576209977437755  0.2627640555262256
  0.1636535463256566  0.3576173738377206  0.2627699811715252
  0.1439218992331630  0.2947896685783937  0.3032296653653622
  0.1884421403589195  0.3490394641071766  0.3354184973480949
  0.1439336905043437  0.3461558463955384  0.3333731620879373
  0.1884303324089591  0.2691112816539998  0.3333731620879373
  0.2132224798074368  0.3061607886253140  0.3354428233677641
  0.1636415720364259  0.3061571647192591  0.3354487490130638
  0.1636353211177733  0.2833236406383200  0.3738401007129862
  0.2132178097435739  0.2833275873286680  0.3738328930869006
  0.1884281139947015  0.3203740242014707  0.3759084332069006
  0.1439205298560324  0.3174889613331846  0.3738626990856652
  0.0994119136621868  0.3430733169562617  0.4465414669272034
  0.0746243396487339  0.3573258759654132  0.4808062846961406
  0.1636176234579645  0.2032367464823361  0.4808062846961406
  0.1636233468285424  0.2318634315198584  0.4465188685545248
  0.1439097419258824  0.2432354281586151  0.4787306977710143
  0.1636295977471950  0.2546969556007975  0.4081275168546021
  0.2081262396518106  0.1776523908592591  0.4081275168546021
  0.1884183581197282  0.2176510725355383  0.4060519299294758
  0.2081199887331580  0.1548188667783199  0.4465188685545248
  0.1884051974714173  0.1889841874731847  0.4465414669272034
  0.2329127816100862  0.1918692503414704  0.4485872010484390
  0.1884181917804579  0.2461190458702535  0.4807760330311719
  0.1884063838304975  0.1661908634170767  0.4787306977710143
  0.2329148336850735  0.1690744811287150  0.4807760330311719
  0.2131985312289756  0.2032403703883909  0.4808003590508410
  0.0994131000212668  0.3202799929001536  0.4787306977710143
  0.1241956745628213  0.2547005795068525  0.4081215912093025
  0.0994153351143041  0.2975792549887150  0.4080972651896333
  0.1439085555668022  0.2660287522147230  0.4465414669272034
  0.1439217162151128  0.2946956372770766  0.4060519299294758
  0.1191267049239273  0.3089079962613969  0.4465188685545248
  0.1439215498758426  0.3231636106117919  0.4807760330311719
  0.1191329558425797  0.3317415203423361  0.4081275168546021
  0.1439194978008555  0.3459583798245476  0.4485872010484390
  0.1636391706041182  0.3573258759654132  0.4808062846961406
  0.1687018893243601  0.2802849351299296  0.4808003590508410
  0.1884161397054706  0.2689138150830089  0.4485872010484390
  0.2081358125087338  0.2802813112238743  0.4808062846961406
  0.2081415358793117  0.3089079962613969  0.4465188685545248
  0.1884301660696888  0.2975792549887150  0.4080972651896333
  0.1687091935497276  0.3089119429517448  0.4465116609284391
  0.1884279309766513  0.3202799929001536  0.4787306977710143
  0.2081477867979642  0.3317415203423361  0.4081275168546021
  0.2132200783751290  0.3573294998714677  0.4808003590508410
  0.1687138636135905  0.3317451442483907  0.4081215912093025
  0.1884267446175712  0.3430733169562617  0.4465414669272034
  0.1438965812775713  0.2145685430962615  0.5192202347687421
  0.0746180887300811  0.3344923518844738  0.5191976363960632
  0.0993999393729557  0.2916131078378000  0.5192202347687421
  0.0994129336819963  0.3487479662348687  0.5534548008727104
  0.1241886030666511  0.2830360894563604  0.5918691966115160
  0.1242005773558818  0.3344962985748218  0.5191904287699776
  0.1241932731305136  0.3058692907530065  0.5534791268923795
  0.1439075235116246  0.2944981707060859  0.5212659688899776
  0.2329125985920358  0.1917752190401537  0.5514094656125527
  0.2131938611651120  0.1804071690917449  0.5191904287699776
  0.1884062174912270  0.1946588367517919  0.5534548008727104
  0.2081175873008503  0.2059875780244738  0.5918764042376016
  0.1686852449712667  0.2059915247148218  0.5918691966115160
  0.2329114122329560  0.2145685430962615  0.5192202347687421
  0.1884041654162397  0.2174536059645473  0.5212659688899776
  0.1686899150351291  0.2288247260114679  0.5534791268923795
  0.2081238382195028  0.2288211021054130  0.5534850525376792
  0.1686972192604969  0.2574517338332832  0.5191904287699776
  0.1884159566874206  0.2688197837816923  0.5514094656125527
  0.1439095755866119  0.2717034014933303  0.5534548008727104
  0.2081295615900807  0.2574477871429353  0.5191976363960632
  0.2132034340220359  0.2830360894563604  0.5918691966115160
  0.1636209453962347  0.2830321427660122  0.5918764042376016
  0.1884147703283403  0.2916131078378000  0.5192202347687421
  0.1636271963148873  0.3058656668469513  0.5534850525376792
  0.2132081040858979  0.3058692907530065  0.5534791268923795
  0.2132154083112661  0.3344962985748218  0.5191904287699776
  0.1636329196854656  0.3344923518844738  0.5191976363960632
  0.1439193147828051  0.3458643485232304  0.5514094656125527
  0.1884277646373811  0.3487479662348687  0.5534548008727104
  0.2328994379437247  0.1631083339777999  0.5918990026102804
  0.1884027960391096  0.2401528987193385  0.5918990026102804
  0.2329103801777784  0.2430379615876243  0.5939447367315160
  0.1438955492223937  0.2430379615876243  0.5939447367315160
  0.2329124322527658  0.2202431923748688  0.6261335687142487
  0.1884039823981900  0.2173595746632305  0.6240882334540911
  0.2328984058885475  0.1915777524691628  0.6666235045730544
  0.2131961297966676  0.2544090816345447  0.6261578947339179
  0.2081118639302721  0.1773608929869513  0.6261638203792175
  0.2329090108006483  0.2657372543424154  0.6645777704518190
  0.1636152220256568  0.2544054577284899  0.6261638203792175
  0.2131914597328050  0.2315758803378987  0.6645479644530544
  0.1884017639839322  0.2686223172107012  0.6666235045730544
  0.2329101971597285  0.2429439302863076  0.6967670012956295
  0.2131841555074369  0.2029488725160834  0.6988366625754564
  0.1884038160589197  0.2458275479979459  0.6988123365557872
  0.1686875136028218  0.2799934372576218  0.6988366625754564
  0.2329100308204580  0.2714119036210226  0.7714911043973258
  0.2081214367871951  0.2799898133515670  0.6988425882207560
  0.2329079787454707  0.2942066728337780  0.7393022724145929
  0.1191185801210415  0.3314500224700282  0.6261638203792175
  0.0993989073177788  0.3200825263291627  0.5939447367315160
  0.1439073404935746  0.2944041394047691  0.6240882334540911
  0.1439061541344946  0.3171974634608769  0.5918990026102804
  0.1686948178281896  0.3086204450794373  0.6645479644530544
  0.1686994878920525  0.3314536463760833  0.6261578947339179
  0.1884157903481504  0.2972877571164072  0.6261335687142487
  0.1884137382731631  0.3200825263291627  0.5939447367315160
  0.2081271601577732  0.3086164983890893  0.6645551720791399
  0.2081334110764258  0.3314500224700282  0.6261638203792175
  0.1439071741543044  0.3228721127394842  0.6988123365557872
  0.1241908716982063  0.3570380019991604  0.6988366625754564
  0.1439051220793171  0.3456668819522397  0.6666235045730544
  0.1884123688960332  0.3427818190839539  0.6645777704518190
  0.1636247948825800  0.3570343780931053  0.6988425882207560
  0.1884135552551131  0.3199884950278460  0.6967670012956295
  0.1884133889158429  0.3484564683625612  0.7714911043973258
  0.2132010325897279  0.3342048007025142  0.7372267322945930
  0.2131937283643597  0.3055777928806986  0.7715154304169949
  0.2132057026535910  0.3570380019991604  0.6988366625754564
  0.2329199530347016  0.3456668819522397  0.6666235045730544
  0.2329197700166517  0.3455728506509232  0.7694457691371682
  0.2132537326112662  0.4377082146840525  0.1557965895622852
  0.1439456647935742  0.3976160555139997  0.2606943942463988
  0.1439444784344943  0.4204093795701078  0.2285051634025882
  0.1191569044210411  0.4346619385792592  0.2627699811715252
  0.1884542809874209  0.3720316998909228  0.1880156264048604
  0.2132417583220355  0.3862480055655910  0.2284753574038237
  0.2132464283858986  0.4090812068622372  0.1900852876846872
  0.1636592696962348  0.3862440588752432  0.2284825650299094
  0.1884520625731629  0.4232944424383935  0.2305508975238236
  0.1687378121920521  0.4346655624853141  0.2627640555262256
  0.2081717353764259  0.4346619385792592  0.2627699811715252
  0.1884541146481500  0.4004996732256381  0.2627397295065563
  0.1884660889373810  0.4519598823440996  0.1900609616650180
  0.2081837096656568  0.4861221476977206  0.1900912133299868
  0.1687497864812831  0.4861257716037756  0.1900852876846872
  0.1687451164174200  0.4632925703071298  0.2284753574038237
  0.2081774587470040  0.4632886236167814  0.2284825650299094
  0.1884626674852635  0.4974539443116461  0.2285051634025882
  0.1439554206685476  0.5003390071799321  0.2305508975238236
  0.1884638538443434  0.4746606202555383  0.2606943942463988
  0.1439574727435349  0.4775442379671763  0.2627397295065563
  0.2081894330362349  0.5147488327352429  0.1558037971883711
  0.2132752797574203  0.5917973441671295  0.1557965895622852
  0.1439672119397286  0.5517051849970764  0.2606943942463988
  0.1242411702874370  0.5117101272268525  0.2627640555262256
  0.1439660255806484  0.5744985090531849  0.2285051634025882
  0.1191784515671952  0.5887510680623360  0.2627699811715252
  0.1884758281335746  0.5261208293739995  0.1880156264048604
  0.2132679755320527  0.5631703363453140  0.1900852876846872
  0.2132633054681894  0.5403371350486680  0.2284753574038237
  0.1636750934718105  0.5117065033207977  0.2627699811715252
  0.1636808168423889  0.5403331883583200  0.2284825650299094
  0.2132560012428214  0.5117101272268525  0.2627640555262256
  0.1884736097193173  0.5773835719214707  0.2305508975238236
  0.1884756617943039  0.5545888027087150  0.2627397295065563
  0.1884876360835353  0.6060490118271765  0.1900609616650180
  0.1687666635635743  0.6173816997902064  0.2284753574038237
  0.2081990058931579  0.6173777530998583  0.2284825650299094
  0.1439790198896890  0.6316333674502534  0.2627397295065563
  0.1884854009904980  0.6287497497386153  0.2606943942463988
  0.1687593593382063  0.5887546919683908  0.2627640555262256
  0.2081932825225800  0.5887510680623360  0.2627699811715252
  0.1191506535023889  0.4118284144983201  0.3011613328714478
  0.1191386792131578  0.3603682053798585  0.3738401007129862
  0.0797063368835738  0.3603721520702063  0.3738328930869006
  0.1191449301318104  0.3832017294607976  0.3354487490130638
  0.0994238879514175  0.3945335260747231  0.3738626990856652
  0.0994370485997284  0.4232004111370767  0.3333731620879373
  0.0746482882271953  0.4602462942023360  0.3354487490130638
  0.0994358622406485  0.4459937351931846  0.3011839312441265
  0.0746420373085427  0.4374127701213968  0.3738401007129862
  0.0549284324058824  0.4487847667601535  0.4060519299294758
  0.0994250743104975  0.3717402020186154  0.4060519299294758
  0.0994368822604582  0.4516683844717919  0.4080972651896333
  0.0746363139379643  0.4087860850838745  0.4081275168546021
  0.0746300630193118  0.3859525610029353  0.4465188685545248
  0.0549152717575715  0.4201178816978000  0.4465414669272034
  0.0994228558962402  0.4230029445660858  0.4485872010484390
  0.0549262139916248  0.5000475093076246  0.4485872010484390
  0.0797159097404972  0.4630010724348217  0.4465116609284391
  0.0994334608083407  0.4971624464393384  0.4465414669272034
  0.0797205798043601  0.4858342737314679  0.4081215912093025
  0.0994348301854711  0.4744631536845473  0.3759084332069006
  0.1191482520700810  0.4629971257444737  0.4465188685545248
  0.1884518795551130  0.4232004111370767  0.3333731620879373
  0.1687331421281893  0.4118323611886681  0.3011541252453622
  0.1884387189068017  0.3945335260747231  0.3738626990856652
  0.1687258379028214  0.3832053533668524  0.3354428233677641
  0.2081597610871949  0.3832017294607976  0.3354487490130638
  0.2081535101685426  0.3603682053798585  0.3738401007129862
  0.1687211678389581  0.3603721520702063  0.3738328930869006
  0.1884400882839318  0.3718342333199320  0.3032296653653622
  0.2081654844577733  0.4118284144983201  0.3011613328714478
  0.1439325041452636  0.3689491704516462  0.3011839312441265
  0.1439454984543038  0.4260840288487150  0.3354184973480949
  0.1242291959982063  0.4602499181083910  0.3354428233677641
  0.1439420770021870  0.4715780908162616  0.3738626990856652
  0.1242365002235741  0.4888769259302067  0.3011541252453622
  0.1242245259343430  0.4374167168117448  0.3738328930869006
  0.1439434463793169  0.4488787980614704  0.3032296653653622
  0.1636568682639270  0.4374127701213968  0.3738401007129862
  0.1636631191825796  0.4602462942023360  0.3354487490130638
  0.1636688425531579  0.4888729792398585  0.3011613328714478
  0.2132440269535905  0.4602499181083910  0.3354428233677641
  0.2132393568897273  0.4374167168117448  0.3738328930869006
  0.1884506931960328  0.4459937351931846  0.3011839312441265
  0.2132513311789585  0.4888769259302067  0.3011541252453622
  0.1439314720900860  0.3974185889430089  0.3759084332069006
  0.1242172217089756  0.4087897089899293  0.4081215912093025
  0.1439301027129561  0.4201178816978000  0.4465414669272034
  0.1439335241650735  0.3746238197302535  0.4080972651896333
  0.1636511448933489  0.4087860850838745  0.4081275168546021
  0.1884399052658818  0.3717402020186154  0.4060519299294758
  0.2132273826004971  0.3859565076932832  0.4465116609284391
  0.2132320526643600  0.4087897089899293  0.4081215912093025
  0.1884376868516243  0.4230029445660858  0.4485872010484390
  0.1439410449470092  0.5000475093076246  0.4485872010484390
  0.1191545029887333  0.4858306498254131  0.4081275168546021
  0.1439432633612669  0.4487847667601535  0.4060519299294758
  0.1687307406958820  0.4630010724348217  0.4465116609284391
  0.1687354107597446  0.4858342737314679  0.4081215912093025
  0.1884482917637253  0.4971624464393384  0.4465414669272034
  0.1884496611408552  0.4744631536845473  0.3759084332069006
  0.2081693339441181  0.4858306498254131  0.4081275168546021
  0.1884517132158425  0.4516683844717919  0.4080972651896333
  0.2081630830254658  0.4629971257444737  0.4465188685545248
  0.1191602263593119  0.5144573348629352  0.3738401007129862
  0.0994488565496893  0.5031285935902533  0.3354184973480949
  0.0797325540935906  0.5372944828499295  0.3354428233677641
  0.0797278840297277  0.5144612815532834  0.3738328930869006
  0.0994468044747020  0.5259233628030090  0.3032296653653622
  0.0746635844546964  0.5915018996044737  0.3738401007129862
  0.0994574093868021  0.6000828646762616  0.3011839312441265
  0.0994585957458825  0.5772895406201536  0.3333731620879373
  0.0994454350975712  0.5486226555577999  0.3738626990856652
  0.0549402403558426  0.5287129492133302  0.4080972651896333
  0.0994466214566516  0.5258293315016921  0.4060519299294758
  0.0746578610841182  0.5628752145669512  0.4081275168546021
  0.0746516101654657  0.5400416904860122  0.4465188685545248
  0.0549368189037254  0.5742070111808770  0.4465414669272034
  0.0994563773316252  0.6285522831676242  0.3759084332069006
  0.0994584294066118  0.6057575139548689  0.4080972651896333
  0.0797421269505142  0.6399234032145448  0.4081215912093025
  0.0797374568866511  0.6170902019178987  0.4465116609284391
  0.0994444030423941  0.5770920740491630  0.4485872010484390
  0.1191664772779645  0.5372908589438744  0.3354487490130638
  0.1439552376504976  0.5002449758786152  0.3333731620879373
  0.1439540512914177  0.5230382999347231  0.3011839312441265
  0.1191722006485426  0.5659175439813969  0.3011613328714478
  0.1687473850489753  0.5372944828499295  0.3354428233677641
  0.1687427149851125  0.5144612815532834  0.3738328930869006
  0.1884602660529560  0.5486226555577999  0.3738626990856652
  0.2081870316039272  0.5659175439813969  0.3011613328714478
  0.2081750573146962  0.5144573348629352  0.3738401007129862
  0.2081813082333488  0.5372908589438744  0.3354487490130638
  0.1884616354300861  0.5259233628030090  0.3032296653653622
  0.1884636875050732  0.5031285935902533  0.3354184973480949
  0.1439649935254712  0.6029679275445473  0.3032296653653622
  0.1439636241483407  0.6256672202993385  0.3738626990856652
  0.1242460730804973  0.5915058462948217  0.3738328930869006
  0.1242507431443604  0.6143390475914680  0.3354428233677641
  0.1439670456004585  0.5801731583317919  0.3354184973480949
  0.1636784154100811  0.5915018996044737  0.3738401007129862
  0.1636846663287337  0.6143354236854129  0.3354487490130638
  0.1884722403421869  0.6000828646762616  0.3011839312441265
  0.2132609040358817  0.5915058462948217  0.3738328930869006
  0.2132655740997448  0.6143390475914680  0.3354428233677641
  0.1884734267012668  0.5772895406201536  0.3333731620879373
  0.1687546892743434  0.5659214906717449  0.3011541252453622
  0.1439516498591099  0.5742070111808770  0.4465414669272034
  0.1242340987912664  0.5400456371763603  0.4465116609284391
  0.1242387688551293  0.5628788384730065  0.4081215912093025
  0.1439550713112274  0.5287129492133302  0.4080972651896333
  0.1439530192362401  0.5515077184260860  0.3759084332069006
  0.1636664411208502  0.5400416904860122  0.4465188685545248
  0.1636726920395028  0.5628752145669512  0.4081275168546021
  0.1884614524120362  0.5258293315016921  0.4060519299294758
  0.2132535998105139  0.5628788384730065  0.4081215912093025
  0.2132489297466510  0.5400456371763603  0.4465116609284391
  0.1687522878420354  0.6170902019178987  0.4465116609284391
  0.1439648105074208  0.6028738962432304  0.4060519299294758
  0.1191760501348877  0.6399197793084899  0.4081275168546021
  0.1191697992162353  0.6170862552275509  0.4465188685545248
  0.1687569579058985  0.6399234032145448  0.4081215912093025
  0.1884592339977784  0.5770920740491630  0.4485872010484390
  0.1884712082870098  0.6285522831676242  0.3759084332069006
  0.2081846301716196  0.6170862552275509  0.4465188685545248
  0.1884732603619966  0.6057575139548689  0.4080972651896333
  0.2081908810902722  0.6399197793084899  0.4081275168546021
  0.0549164581166517  0.3973245576416921  0.4787306977710143
  0.0549162917773812  0.4257925309764074  0.5534548008727104
  0.0549282660666117  0.4772527400948690  0.4807760330311719
  0.0549142397023939  0.4485873001891629  0.5212659688899776
  0.0549260309735744  0.4999534780063075  0.5514094656125527
  0.0549128703252638  0.4712865929439539  0.5918990026102804
  0.0549357868485474  0.6026764296722397  0.5212659688899776
  0.0549248446144943  0.5227468020624157  0.5192202347687421
  0.0549380052628053  0.5514136871247692  0.4787306977710143
  0.0549238125593173  0.5512162205537782  0.5939447367315160
  0.0549378389235349  0.5798816604594840  0.5534548008727104
  0.1439181284237251  0.3686576725793383  0.5192202347687421
  0.0994249079712273  0.4002081753533305  0.4807760330311719
  0.0797039354512663  0.4115408633163601  0.5191904287699776
  0.0797086055151294  0.4343740646130063  0.4808003590508410
  0.1191362777808501  0.4115369166260122  0.5191976363960632
  0.1191425286995031  0.4343704407069514  0.4808062846961406
  0.0994108816070095  0.3715427354476245  0.5212659688899776
  0.0994226728781902  0.4229089132647690  0.5514094656125527
  0.0796966312258982  0.3829138554945446  0.5534791268923795
  0.0796919611620356  0.3600806541978988  0.5918691966115160
  0.1191243034916196  0.3600767075075508  0.5918764042376016
  0.0994095122298791  0.3942420282024153  0.5918990026102804
  0.1439170963685480  0.3971270910707011  0.5939447367315160
  0.1191305544102722  0.3829102315884899  0.5534850525376792
  0.2081511087362349  0.4115369166260122  0.5191976363960632
  0.1884397389266120  0.4002081753533305  0.4807760330311719
  0.1687187664066508  0.4115408633163601  0.5191904287699776
  0.2081573596548874  0.4343704407069514  0.4808062846961406
  0.1884257125623938  0.3715427354476245  0.5212659688899776
  0.1884375038335743  0.4229089132647690  0.5514094656125527
  0.1439311227327658  0.4257925309764074  0.5534548008727104
  0.1687114621812826  0.3829138554945446  0.5534791268923795
  0.2081453853656565  0.3829102315884899  0.5534850525376792
  0.1884243431852637  0.3942420282024153  0.5918990026102804
  0.2081391344470039  0.3600767075075508  0.5918764042376016
  0.1687067921174203  0.3600806541978988  0.5918691966115160
  0.0994346471674209  0.4743691223832306  0.4787306977710143
  0.0746396358762350  0.4885814813675506  0.5191976363960632
  0.1242221245020355  0.4885854280578986  0.5191904287699776
  0.0994214865191098  0.4457022373208769  0.5192202347687421
  0.1439290706577785  0.4485873001891629  0.5212659688899776
  0.0994344808281504  0.5028370957179459  0.5534548008727104
  0.1242148202766677  0.4599584202360833  0.5534791268923795
  0.0746276615870040  0.4371212722490890  0.5918764042376016
  0.1439277012806483  0.4712865929439539  0.5918990026102804
  0.0994204544639324  0.4741716558122398  0.5939447367315160
  0.1242101502128048  0.4371252189394371  0.5918691966115160
  0.0746339125056566  0.4599547963300283  0.5534850525376792
  0.1439430970219965  0.4772527400948690  0.4807760330311719
  0.1884494781228052  0.4743691223832306  0.4787306977710143
  0.1636544668316195  0.4885814813675506  0.5191976363960632
  0.1687234364705142  0.4343740646130063  0.4808003590508410
  0.2132369554574200  0.4885854280578986  0.5191904287699776
  0.1884363174744946  0.4457022373208769  0.5192202347687421
  0.1884493117835348  0.5028370957179459  0.5534548008727104
  0.1439408619289594  0.4999534780063075  0.5514094656125527
  0.2132249811681893  0.4371252189394371  0.5918691966115160
  0.1884352854193172  0.4741716558122398  0.5939447367315160
  0.2132296512320520  0.4599584202360833  0.5534791268923795
  0.1636487434610414  0.4599547963300283  0.5534850525376792
  0.1636424925423888  0.4371212722490890  0.5918764042376016
  0.0994464551173809  0.5542973048364074  0.4807760330311719
  0.0994324287531631  0.5256318649307012  0.5212659688899776
  0.1242267945658986  0.5114186293545447  0.4808003590508410
  0.0746458867948875  0.5114150054484899  0.4808062846961406
  0.1439396755698790  0.5227468020624157  0.5192202347687421
  0.1191578249270042  0.5656260461090892  0.5191976363960632
  0.0797254825974199  0.5656299927994372  0.5191904287699776
  0.0797301526612835  0.5884631940960834  0.4808003590508410
  0.1191640758456567  0.5884595701900281  0.4808062846961406
  0.0994430336652637  0.5997913668039540  0.5192202347687421
  0.0994561943135746  0.6284582518663073  0.4787306977710143
  0.1191458506377732  0.5141658369906277  0.5918764042376016
  0.1439386435147016  0.5512162205537782  0.5939447367315160
  0.0994310593760330  0.5483311576854927  0.5918990026102804
  0.1191521015564258  0.5369993610715669  0.5534850525376792
  0.0797181783720521  0.5370029849776219  0.5534791268923795
  0.0797135083081897  0.5141697836809754  0.5918691966115160
  0.0994442200243436  0.5769980427478461  0.5514094656125527
  0.0994420016100863  0.6282607852953165  0.5939447367315160
  0.0746492087331581  0.5912104017321661  0.5918764042376016
  0.0746554596518107  0.6140439258131053  0.5534850525376792
  0.1242316973589589  0.5912143484225141  0.5918691966115160
  0.1242363674228213  0.6140475497191602  0.5534791268923795
  0.1439492484268024  0.6253757224270308  0.5918990026102804
  0.1439528362181899  0.5514136871247692  0.4787306977710143
  0.2132416255212834  0.5114186293545447  0.4808003590508410
  0.1636607177502723  0.5114150054484899  0.4808062846961406
  0.1884472597085477  0.5256318649307012  0.5212659688899776
  0.2081726558823887  0.5656260461090892  0.5191976363960632
  0.1884612860727657  0.5542973048364074  0.4807760330311719
  0.1687403135528047  0.5656299927994372  0.5191904287699776
  0.2081789068010415  0.5884595701900281  0.4808062846961406
  0.1687449836166678  0.5884631940960834  0.4808003590508410
  0.1439506178039323  0.6026764296722397  0.5212659688899776
  0.1439646441681501  0.6313418695779457  0.4807760330311719
  0.1884578646206483  0.5997913668039540  0.5192202347687421
  0.1884710252689593  0.6284582518663073  0.4787306977710143
  0.2081606815931580  0.5141658369906277  0.5918764042376016
  0.1884590509797284  0.5769980427478461  0.5514094656125527
  0.2081669325118106  0.5369993610715669  0.5534850525376792
  0.1687283392635740  0.5141697836809754  0.5918691966115160
  0.1884458903314175  0.5483311576854927  0.5918990026102804
  0.1687330093274369  0.5370029849776219  0.5534791268923795
  0.1439526698789197  0.5798816604594840  0.5534548008727104
  0.1636640396885425  0.5912104017321661  0.5918764042376016
  0.2132511983782061  0.6140475497191602  0.5534791268923795
  0.1636702906071950  0.6140439258131053  0.5534850525376792
  0.1884568325654709  0.6282607852953165  0.5939447367315160
  0.2132465283143432  0.5912143484225141  0.5918691966115160
  0.0746219382164261  0.4084945872115668  0.6261638203792175
  0.0994084801747015  0.4227114466937780  0.6666235045730544
  0.0994106985889593  0.3714487041463074  0.6240882334540911
  0.0994225065389197  0.4513768865994844  0.6261335687142487
  0.1191338763485426  0.4627056278721658  0.6645551720791399
  0.0797015340189587  0.4627095745625142  0.6645479644530544
  0.0746372344439270  0.5397501926137046  0.6645551720791399
  0.0994190850868023  0.4968709485670307  0.6645777704518190
  0.0797062040828216  0.4855427758591602  0.6261578947339179
  0.0994322457351132  0.5255378336293843  0.6240882334540911
  0.1191401272671953  0.4855391519531052  0.6261638203792175
  0.0746434853625800  0.5625837166946438  0.6261638203792175
  0.0994300273208556  0.5768005761768551  0.6666235045730544
  0.0994440536850734  0.6054660160825609  0.6261335687142487
  0.0797277512289755  0.6396319053422371  0.6261578947339179
  0.1241981759235741  0.3856650098209756  0.6645479644530544
  0.1242028459874370  0.4084982111176218  0.6261578947339179
  0.1439157269914178  0.4198263838254924  0.6645777704518190
  0.1439191484435348  0.3743323218579458  0.6261335687142487
  0.1636305182531577  0.3856610631306276  0.6645551720791399
  0.1636367691718107  0.4084945872115668  0.6261638203792175
  0.2132130068789589  0.3856650098209756  0.6645479644530544
  0.1884255295443438  0.3714487041463074  0.6240882334540911
  0.2132176769428215  0.4084982111176218  0.6261578947339179
  0.1439266692254707  0.4997560114353167  0.6666235045730544
  0.1439288876397287  0.4484932688878460  0.6240882334540911
  0.1687210350382062  0.4855427758591602  0.6261578947339179
  0.1687163649743435  0.4627095745625142  0.6645479644530544
  0.1884233111300863  0.4227114466937780  0.6666235045730544
  0.1884373374943041  0.4513768865994844  0.6261335687142487
  0.2081487073039269  0.4627056278721658  0.6645551720791399
  0.1884339160421871  0.4968709485670307  0.6645777704518190
  0.2081549582225799  0.4855391519531052  0.6261638203792175
  0.1439372741375717  0.5739155133085693  0.6645777704518190
  0.1242243931335911  0.5625873406006987  0.6261578947339179
  0.1242197230697280  0.5397541393040526  0.6645479644530544
  0.1636520653993120  0.5397501926137046  0.6645551720791399
  0.1439406955896890  0.5284214513410228  0.6261335687142487
  0.1636583163179646  0.5625837166946438  0.6261638203792175
  0.2132392240889754  0.5625873406006987  0.6261578947339179
  0.2132345540251125  0.5397541393040526  0.6645479644530544
  0.1884470766904979  0.5255378336293843  0.6240882334540911
  0.1439504347858824  0.6025823983709230  0.6240882334540911
  0.1191554234946964  0.6167947573552429  0.6645551720791399
  0.1191616744133492  0.6396282814361821  0.6261638203792175
  0.1687379121204972  0.6167987040455910  0.6645479644530544
  0.1687425821843603  0.6396319053422371  0.6261578947339179
  0.1884448582762399  0.5768005761768551  0.6666235045730544
  0.2081702544500810  0.6167947573552429  0.6645551720791399
  0.1884588846404582  0.6054660160825609  0.6261335687142487
  0.2081765053687338  0.6396282814361821  0.6261638203792175
  0.1242077487804970  0.4882939301855913  0.7372267322945930
  0.0994105322496890  0.3999166774810228  0.6988123365557872
  0.1439169133504976  0.3970330597693843  0.6967670012956295
  0.1439146949362400  0.4482958023168550  0.7393022724145929
  0.0994202714458820  0.4740776245109229  0.6967670012956295
  0.1191281529779644  0.4340789428346437  0.6988425882207560
  0.1439264862074208  0.4996619801339998  0.7694457691371682
  0.1242124188443604  0.5111271314822371  0.6988366625754564
  0.1439252998483406  0.5224553041901077  0.7372565382933575
  0.1191497001241185  0.5881680723177208  0.6988425882207560
  0.0994320793958427  0.5540058069640996  0.6988123365557872
  0.1191434492054662  0.5653345482367818  0.7372339399206786
  0.1687043906851124  0.4112493654440526  0.7372267322945930
  0.2329185836575710  0.3683661747070308  0.7372565382933575
  0.1884113368408556  0.3712512375753166  0.7393022724145929
  0.2081367330146964  0.4112454187537045  0.7372339399206786
  0.1884253632050734  0.3999166774810228  0.6988123365557872
  0.1884231281120363  0.4226174153924613  0.7694457691371682
  0.2081429839333492  0.4340789428346437  0.6988425882207560
  0.1687090607489759  0.4340825667406988  0.6988366625754564
  0.1884219417529562  0.4454107394485691  0.7372565382933575
  0.1884351024012670  0.4740776245109229  0.6967670012956295
  0.2132272497997447  0.5111271314822371  0.6988366625754564
  0.1439287213004583  0.4769612422225613  0.6988123365557872
  0.1636400911100815  0.4882899834952431  0.7372339399206786
  0.2132225797358820  0.4882939301855913  0.7372267322945930
  0.1636463420287337  0.5111235075761823  0.6988425882207560
  0.1439384604966512  0.5511221892524613  0.6967670012956295
  0.1884328839870092  0.5253403670583936  0.7393022724145929
  0.2081582801608507  0.5653345482367818  0.7372339399206786
  0.1884469103512270  0.5540058069640996  0.6988123365557872
  0.1884446752581904  0.5767065448755382  0.7694457691371682
  0.1687259378312665  0.5653384949271295  0.7372267322945930
  0.2081645310795029  0.5881680723177208  0.6988425882207560
  0.1687306078951298  0.5881716962237756  0.6988366625754564
  0.1884434888991100  0.5994998689316462  0.7372565382933575
  0.1439362420823944  0.6023849317999321  0.7393022724145929
  0.1439502684466119  0.6310503717056385  0.6988123365557872
  0.1884566495474205  0.6281667539939999  0.6967670012956295
  0.2132152755105138  0.4596669223637756  0.7715154304169949
  0.1439167470112273  0.4255010331040996  0.7714911043973258
  0.1884349360619966  0.5025455978456379  0.7714911043973258
  0.1686970864597446  0.3826223576222372  0.7715154304169949
  0.2132106054466511  0.4368337210671295  0.8099055001361315
  0.1636343677395034  0.4596632984577208  0.7715213560622943
  0.2081310096441183  0.3826187337161821  0.7715213560622943
  0.1884209096977788  0.4738801579399323  0.8119810402561313
  0.2329175516023943  0.3968355931983935  0.8119810402561313
  0.2329196036773808  0.3740408239856381  0.8441698722388640
  0.2081405825010413  0.4852476540807979  0.8442001239038329
  0.2132033012212831  0.4082067132453141  0.8441941982585333
  0.1687139635420355  0.5138782858086680  0.8099055001361315
  0.2081525567902726  0.5367078631992592  0.7715213560622943
  0.1687186336058983  0.5367114871053139  0.7715154304169949
  0.1884315146098791  0.5480396598131845  0.8099353061348957
  0.2081463058716198  0.5138743391183200  0.8099127077622170
  0.2132248483674374  0.5622958427283911  0.8441941982585333
  0.1884424568439327  0.6279692874230093  0.8119810402561313
  0.1636559148856568  0.6137524279407975  0.7715213560622943
  0.2132368226566675  0.6137560518468526  0.7715154304169949
  0.1439382941573814  0.5795901625871765  0.7714911043973258
  0.2132321525928052  0.5909228505502063  0.8099055001361315
  0.1242580473697278  0.6429660554132832  0.3011541252453622
  0.1884842146314178  0.6515430737947233  0.2285051634025882
  0.2132848526143433  0.6944262645317449  0.2284753574038237
  0.1439755984375716  0.6771274294178000  0.3011839312441265
  0.1636903896993120  0.6429621087229352  0.3011613328714478
  0.1636966406179646  0.6657956328038744  0.2627699811715252
  0.2132775483889755  0.6657992567099295  0.2627640555262256
  0.2132728783251126  0.6429660554132832  0.3011541252453622
  0.1884972089404580  0.7086779321917920  0.2627397295065563
  0.2082085787500811  0.7200066734644739  0.3011613328714478
  0.1687762364204970  0.7200106201548219  0.3011541252453622
  0.2082148296687336  0.7428401975454130  0.2627699811715252
  0.1884937874883406  0.7541719941593383  0.3011839312441265
  0.2132944254712665  0.7970551848963602  0.3011541252453622
  0.0994704036958430  0.6572177230733305  0.3354184973480949
  0.1191880244241186  0.6913799884269515  0.3354487490130638
  0.1191817735054658  0.6685464643460122  0.3738401007129862
  0.0994550079544946  0.6512515759224153  0.4465414669272034
  0.0994681686028055  0.6799184609847690  0.4060519299294758
  0.1242603160012834  0.7169679679560832  0.4081215912093025
  0.1884831825762402  0.6800124922860857  0.3032296653653622
  0.1687642621312666  0.6685504110363604  0.3738328930869006
  0.1439767847966517  0.6543341053616921  0.3333731620879373
  0.1884852346512278  0.6572177230733305  0.3354184973480949
  0.2082028553795031  0.6913799884269515  0.3354487490130638
  0.1687689321951295  0.6913836123330063  0.3354428233677641
  0.1439885927466120  0.7342622878148687  0.3354184973480949
  0.2132824511820358  0.7455949757778985  0.3738328930869006
  0.1884949738474209  0.7313786701032305  0.3333731620879373
  0.1636879882670043  0.6941308199690890  0.4465188685545248
  0.2081966044608501  0.6685464643460122  0.3738401007129862
  0.1884829995581903  0.6799184609847690  0.4060519299294758
  0.1884698389098792  0.6512515759224153  0.4465414669272034
  0.1439766184573813  0.6828020786964074  0.4080972651896333
  0.2132704768928048  0.6941347666594372  0.4465116609284391
  0.1884818131991101  0.7027117850408768  0.3738626990856652
  0.1439745663823944  0.7055968479091628  0.3759084332069006
  0.2132751469566677  0.7169679679560832  0.4081215912093025
  0.1636942391856571  0.7169643440500284  0.4081275168546021
  0.1636999625562350  0.7455910290875507  0.3738401007129862
  0.2082181516070042  0.8226355938290894  0.3738401007129862
  0.2132871212458987  0.7684281770745449  0.3354428233677641
  0.1637062134748878  0.7684245531684899  0.3354487490130638
  0.1687785050520529  0.7940125326976217  0.4081215912093025
  0.1884927554331634  0.7826414126507012  0.3759084332069006
  0.2082061773177735  0.7711753847106279  0.4465188685545248
  0.1687738349881895  0.7711793314009754  0.4465116609284391
  0.1884948075081505  0.7598466434379457  0.4080972651896333
  0.2082124282364261  0.7940089087915668  0.4081275168546021
  0.1884913860560331  0.8053407054054923  0.4465414669272034
  0.2132920240389587  0.8482238961425139  0.4465116609284391
  0.0746611830223886  0.6426706108506278  0.5191976363960632
  0.1242436716481894  0.6426745575409758  0.5191904287699776
  0.0746674339410416  0.6655041349315669  0.4808062846961406
  0.1191793720731583  0.7197151755921661  0.5191976363960632
  0.1191673977839274  0.6682549664737046  0.5918764042376016
  0.0994560279743041  0.6569262252010226  0.5534548008727104
  0.0994539758993172  0.6797209944137782  0.5212659688899776
  0.1191736487025799  0.6910884905546438  0.5534850525376792
  0.2132631726674371  0.6655077588376217  0.4808003590508410
  0.1242483417120527  0.6655077588376217  0.4808003590508410
  0.1687665307628219  0.7425523235791601  0.4808003590508410
  0.1439625920931633  0.6541366387907014  0.4485872010484390
  0.1884807811439327  0.7311812035322397  0.4485872010484390
  0.1884828332189194  0.7083864343194843  0.4807760330311719
  0.2132585026035739  0.6426745575409758  0.5191904287699776
  0.2082004539471952  0.7425486996731053  0.4808062846961406
  0.1636822648964260  0.6655041349315669  0.4808062846961406
  0.1687618606989588  0.7197191222825141  0.5191904287699776
  0.1884708589296889  0.6569262252010226  0.5534548008727104
  0.1636760139777734  0.6426706108506278  0.5191976363960632
  0.1439624090751129  0.6540426074893845  0.5514094656125527
  0.1439612227160329  0.6768359315454923  0.5192202347687421
  0.1687498864097281  0.6682589131640526  0.5918691966115160
  0.2081822287393117  0.6682549664737046  0.5918764042376016
  0.1884688068547016  0.6797209944137782  0.5212659688899776
  0.2081884796579647  0.6910884905546438  0.5534850525376792
  0.1884805981258827  0.7310871722309228  0.5514094656125527
  0.1439742170250735  0.7339707899425612  0.5534548008727104
  0.1687545564735910  0.6910921144606986  0.5534791268923795
  0.2081942030285428  0.7197151755921661  0.5191976363960632
  0.1242532445051130  0.7453034779055910  0.5918691966115160
  0.1439861913143043  0.7854309990610226  0.4807760330311719
  0.1884794117668024  0.7538804962870308  0.5192202347687421
  0.1884925724151130  0.7825473813493845  0.4787306977710143
  0.1439721649500865  0.7567655591553166  0.5212659688899776
  0.1636975611239275  0.7967597403337047  0.5191976363960632
  0.2132800497497276  0.7967636870240525  0.5191904287699776
  0.2132847198135912  0.8195968883206984  0.4808003590508410
  0.1884903540008557  0.8338101238968547  0.5212659688899776
  0.1636918377533491  0.7681330552961819  0.5534850525376792
  0.1636855868346966  0.7452995312152428  0.5918764042376016
  0.2132727455243602  0.7681366792022369  0.5534791268923795
  0.1884924060758430  0.8110153546840996  0.5534548008727104
  0.2082037758854658  0.8223440959567814  0.5918764042376016
  0.2082100268041184  0.8451776200377206  0.5534850525376792
  0.0994526065221869  0.7024202871685692  0.5918990026102804
  0.0994537928812668  0.6796269631124611  0.6240882334540911
  0.0994406322329557  0.6509600780501077  0.6645777704518190
  0.1439588212837252  0.7280046427916460  0.6645777704518190
  0.1242412702158819  0.6938432687871295  0.6645479644530544
  0.1242459402797448  0.7166764700837754  0.6261578947339179
  0.1439601906608555  0.7053053500368551  0.5939447367315160
  0.1636736125454659  0.6938393220967816  0.6645551720791399
  0.1439622427358426  0.6825105808240994  0.6261335687142487
  0.1636798634641182  0.7166728461777208  0.6261638203792175
  0.1884674374775714  0.7024202871685692  0.5918990026102804
  0.1884686238366516  0.6796269631124611  0.6240882334540911
  0.1884554631883407  0.6509600780501077  0.6645777704518190
  0.2132561011712664  0.6938432687871295  0.6645479644530544
  0.1439482163716248  0.6538451409183936  0.6666235045730544
  0.2132441268820357  0.6423830596686678  0.7372267322945930
  0.1884684574973811  0.7080949364471766  0.6988123365557872
  0.1242339659905140  0.6652162609653141  0.6988366625754564
  0.1636678891748878  0.6652126370592593  0.6988425882207560
  0.2132487969458988  0.6652162609653141  0.6988366625754564
  0.1439600076428053  0.7052113187355380  0.6967670012956295
  0.2081860782256570  0.7422572018007976  0.6988425882207560
  0.1687521550412833  0.7422608257068524  0.6988366625754564
  0.1884664054223936  0.7308897056599321  0.6666235045730544
  0.2081980525148877  0.7937174109192588  0.6261638203792175
  0.1687641293305137  0.7937210348253141  0.6261578947339179
  0.1884783797116248  0.7823499147783934  0.5939447367315160
  0.1439719819320361  0.7566715278539997  0.6240882334540911
  0.1884804317866118  0.7595551455656381  0.6261335687142487
  0.2081918015962347  0.7708838868383197  0.6645551720791399
  0.1884544311331633  0.6794294965414706  0.7393022724145929
  0.2081678530177735  0.6679634686013968  0.8099127077622170
  0.1884564832081509  0.6566347273287149  0.7714911043973258
  0.1636616382562352  0.6423791129783198  0.7372339399206786
  0.2081741039364260  0.6907969926823359  0.7715213560622943
  0.2081798273070042  0.7194236777198585  0.7372339399206786
  0.4109828198958426  0.2722863972379458  0.1173821938234796
  0.4554892009966514  0.2694027795263076  0.1153368585633220
  0.3861583029948874  0.1264836796131054  0.2627699811715252
  0.3022397121951293  0.2549920773791604  0.1900852876846872
  0.3219560146512270  0.2208261881194844  0.1900609616650180
  0.3416736353795028  0.2549884534731053  0.1900912133299868
  0.2526468301348875  0.2035282443546438  0.2627699811715252
  0.3022277379058984  0.2035318682606988  0.2627640555262256
  0.3219440403619965  0.1693659790010227  0.2627397295065563
  0.3416616610902719  0.2035282443546438  0.2627699811715252
  0.3219419882870096  0.1921607482137782  0.2305508975238236
  0.2526525535054654  0.2321549293921661  0.2284825650299094
  0.2329377622437252  0.2663202500870308  0.2285051634025882
  0.2577310960012828  0.2805764330022372  0.2627640555262256
  0.2329389486028049  0.2435269260309228  0.2606943942463988
  0.2774453463823936  0.2692053129553167  0.2305508975238236
  0.2774473984573809  0.2464105437425612  0.2627397295065563
  0.2971650191856567  0.2805728090961822  0.2627699811715252
  0.3022350421312660  0.2321588760825141  0.2284753574038237
  0.3219537795581897  0.2435269260309228  0.2606943942463988
  0.3219525931991095  0.2663202500870308  0.2285051634025882
  0.3416673844608502  0.2321549293921661  0.2284825650299094
  0.3861702772841183  0.1779438887315667  0.1900912133299868
  0.3664623957520357  0.2179425704078459  0.1880156264048604
  0.3912545431505136  0.2549920773791604  0.1900852876846872
  0.3664612093929555  0.2407358944639537  0.1558263955610497
  0.3861640263654653  0.1551103646506276  0.2284825650299094
  0.4109588713173812  0.1693659790010227  0.2627397295065563
  0.3664504214628052  0.1664823612893844  0.2606943942463988
  0.4109568192423944  0.1921607482137782  0.2305508975238236
  0.3664492351037251  0.1892756853454924  0.2285051634025882
  0.3912425688612827  0.2035318682606988  0.2627640555262256
  0.3912498730866507  0.2321588760825141  0.2284753574038237
  0.3664622294127657  0.2464105437425612  0.2627397295065563
  0.4109674241544943  0.2663202500870308  0.2285051634025882
  0.3467459269566676  0.2805764330022372  0.2627640555262256
  0.3861798501410411  0.2805728090961822  0.2627699811715252
  0.3664601773377784  0.2692053129553167  0.2305508975238236
  0.4357511850551292  0.1779475126376219  0.1900852876846872
  0.4109708456066122  0.2208261881194844  0.1900609616650180
  0.4357584892804972  0.2065745204594371  0.1557965895622852
  0.4554772267074205  0.2179425704078459  0.1880156264048604
  0.4306822154162345  0.2321549293921661  0.2284825650299094
  0.4554760403483403  0.2407358944639537  0.1558263955610497
  0.4306884663348876  0.2549884534731053  0.1900912133299868
  0.4802693741058980  0.2549920773791604  0.1900852876846872
  0.4109687935316244  0.2436209573322397  0.1578721296822854
  0.4802647040420359  0.2321588760825141  0.2284753574038237
  0.4554640660591094  0.1892756853454924  0.2285051634025882
  0.4357607579120528  0.2805764330022372  0.2627640555262256
  0.4306764920456566  0.2035282443546438  0.2627699811715252
  0.4109686105135744  0.2435269260309228  0.2606943942463988
  0.4554750082931632  0.2692053129553167  0.2305508975238236
  0.4554770603681500  0.2464105437425612  0.2627397295065563
  0.4751946810964258  0.2805728090961822  0.2627699811715252
  0.4999822551098786  0.2663202500870308  0.2285051634025882
  0.4802573998166675  0.2035318682606988  0.2627640555262256
  0.5247755888674367  0.2805764330022372  0.2627640555262256
  0.4999834414689588  0.2435269260309228  0.2606943942463988
  0.4752306039641181  0.4349534364515667  0.0447336776469100
  0.5248115117351294  0.4349570603576218  0.0447277520016103
  0.2774573206716245  0.3206655220737782  0.1578721296822854
  0.2577503745158818  0.3606636499425140  0.1557965895622852
  0.2329606787670094  0.3977100868153166  0.1578721296822854
  0.2971827168454655  0.3606597032521663  0.1558037971883711
  0.2774679255837253  0.3948250239470307  0.1558263955610497
  0.3219777281366515  0.3464473442678460  0.1153368585633220
  0.3664861779912271  0.3493309619794842  0.1173821938234796
  0.3416856096687337  0.3064486625915667  0.1174124454884484
  0.3416793587500811  0.2836151385106275  0.1558037971883711
  0.3219645674883400  0.3177804592054922  0.1558263955610497
  0.3664721516270093  0.3206655220737782  0.1578721296822854
  0.3022470164204973  0.2836190852009756  0.1557965895622852
  0.3467771797604970  0.4121238590609757  0.0831178217207469
  0.3664841259162402  0.3721257311922397  0.0851933618407469
  0.3664959171874207  0.4234919090093845  0.1153368585633220
  0.3219895360866120  0.4263755267210225  0.1173821938234796
  0.3861975478008507  0.3606597032521663  0.1558037971883711
  0.3467652054712661  0.3606636499425140  0.1557965895622852
  0.3664827565391096  0.3948250239470307  0.1558263955610497
  0.3467698755351290  0.3834968512391603  0.1174065198431488
  0.3219755097223937  0.3977100868153166  0.1578721296822854
  0.2577430702905137  0.3320366421206986  0.1900852876846872
  0.2774593727466123  0.2978707528610228  0.1900609616650180
  0.2329509228920358  0.2949871351493845  0.1880156264048604
  0.2971769934748872  0.3320330182146438  0.1900912133299868
  0.2577384002266508  0.3092034408240524  0.2284753574038237
  0.2971707425562347  0.3091994941337043  0.2284825650299094
  0.2774559512944944  0.3433648148285692  0.2285051634025882
  0.2329487044777780  0.3462498776968553  0.2305508975238236
  0.2329507565527658  0.3234551084840998  0.2627397295065563
  0.2774571376535741  0.3205714907724613  0.2606943942463988
  0.2526741006516195  0.3862440588752432  0.2284825650299094
  0.2526803515702721  0.4090775829561824  0.1900912133299868
  0.2774691119428050  0.3720316998909228  0.1880156264048604
  0.2329627308419963  0.3749153176025612  0.1900609616650180
  0.2329593093898788  0.4204093795701078  0.2285051634025882
  0.2774668935285473  0.4232944424383935  0.2305508975238236
  0.2577526431474369  0.4346655624853141  0.2627640555262256
  0.2774689456035346  0.4004996732256381  0.2627397295065563
  0.2971865663318104  0.4346619385792592  0.2627699811715252
  0.2329604957489590  0.3976160555139997  0.2606943942463988
  0.2526683772810412  0.3576173738377206  0.2627699811715252
  0.3467579012458985  0.3320366421206986  0.1900852876846872
  0.3664742037019966  0.2978707528610228  0.1900609616650180
  0.3219657538474206  0.2949871351493845  0.1880156264048604
  0.3861918244302720  0.3320330182146438  0.1900912133299868
  0.3467532311820356  0.3092034408240524  0.2284753574038237
  0.3861855735116190  0.3091994941337043  0.2284825650299094
  0.3664707822498787  0.3433648148285692  0.2285051634025882
  0.3219635354331628  0.3462498776968553  0.2305508975238236
  0.3664719686089589  0.3205714907724613  0.2606943942463988
  0.3219655875081501  0.3234551084840998  0.2627397295065563
  0.3416832082364260  0.3576173738377206  0.2627699811715252
  0.3219741403452636  0.4204093795701078  0.2285051634025882
  0.3219775617973811  0.3749153176025612  0.1900609616650180
  0.3664839428981898  0.3720316998909228  0.1880156264048604
  0.3416889316070039  0.3862440588752432  0.2284825650299094
  0.3022565892774201  0.3862480055655910  0.2284753574038237
  0.3022612593412830  0.4090812068622372  0.1900852876846872
  0.3416951825256564  0.4090775829561824  0.1900912133299868
  0.3664817244839321  0.4232944424383935  0.2305508975238236
  0.3219753267043433  0.3976160555139997  0.2606943942463988
  0.3664837765589193  0.4004996732256381  0.2627397295065563
  0.3862013972871947  0.4346619385792592  0.2627699811715252
  0.3467674741028213  0.4346655624853141  0.2627640555262256
  0.3022492850520521  0.3576209977437755  0.2627640555262256
  0.4306941897054655  0.2836151385106275  0.1558037971883711
  0.3912618473758817  0.2836190852009756  0.1557965895622852
  0.3912665174397450  0.3064522864976217  0.1174065198431488
  0.4307004406241181  0.3064486625915667  0.1174124454884484
  0.3912738216651117  0.3350792943194372  0.0831178217207469
  0.4554869825823936  0.3206655220737782  0.1578721296822854
  0.4109793984437248  0.3177804592054922  0.1558263955610497
  0.4307061639946964  0.3350753476290892  0.0831250293468325
  0.4109925590920359  0.3464473442678460  0.1153368585633220
  0.3862095220900808  0.4121199123706275  0.0831250293468325
  0.4357920107158818  0.4121238590609757  0.0831178217207469
  0.4554989568716246  0.3721257311922397  0.0851933618407469
  0.4109913727329557  0.3692406683239539  0.0831476277195113
  0.4555010089466114  0.3493309619794842  0.1173821938234796
  0.4110043670419963  0.4263755267210225  0.1173821938234796
  0.4357847064905138  0.3834968512391603  0.1174065198431488
  0.3862037987195029  0.3834932273331054  0.1174124454884484
  0.4357800364266509  0.3606636499425140  0.1557965895622852
  0.4109903406777785  0.3977100868153166  0.1578721296822854
  0.4554975874944944  0.3948250239470307  0.1558263955610497
  0.4357680621374199  0.3092034408240524  0.2284753574038237
  0.4109805848028049  0.2949871351493845  0.1880156264048604
  0.4357727322012828  0.3320366421206986  0.1900852876846872
  0.4554890346573814  0.2978707528610228  0.1900609616650180
  0.4554856132052635  0.3433648148285692  0.2285051634025882
  0.4109783663885476  0.3462498776968553  0.2305508975238236
  0.4554867995643437  0.3205714907724613  0.2606943942463988
  0.4109804184635349  0.3234551084840998  0.2627397295065563
  0.3912641160074368  0.3576209977437755  0.2627640555262256
  0.4306980391918103  0.3576173738377206  0.2627699811715252
  0.3912760902966677  0.4090812068622372  0.1900852876846872
  0.4554987738535741  0.3720316998909228  0.1880156264048604
  0.4109923927527654  0.3749153176025612  0.1900609616650180
  0.3912714202328044  0.3862480055655910  0.2284753574038237
  0.4307100134810412  0.4090775829561824  0.1900912133299868
  0.4307037625623891  0.3862440588752432  0.2284825650299094
  0.4109889713006488  0.4204093795701078  0.2285051634025882
  0.4554965554393168  0.4232944424383935  0.2305508975238236
  0.4109901576597281  0.3976160555139997  0.2606943942463988
  0.4554986075143033  0.4004996732256381  0.2627397295065563
  0.4357823050582060  0.4346655624853141  0.2627640555262256
  0.4752123787562347  0.3606597032521663  0.1558037971883711
  0.4999954157581897  0.2949871351493845  0.1880156264048604
  0.4802813483951298  0.3064522864976217  0.1174065198431488
  0.5000073900474206  0.3464473442678460  0.1153368585633220
  0.4802766783312660  0.2836190852009756  0.1557965895622852
  0.4999942293991100  0.3177804592054922  0.1558263955610497
  0.4802886526204969  0.3350792943194372  0.0831178217207469
  0.5445136048089589  0.3720316998909228  0.1880156264048604
  0.5000062036883405  0.3692406683239539  0.0831476277195113
  0.5247948673820352  0.3606636499425140  0.1557965895622852
  0.4752243530454656  0.4121199123706275  0.0831250293468325
  0.5248068416712661  0.4121238590609757  0.0831178217207469
  0.4555107481428051  0.4234919090093845  0.1153368585633220
  0.5445255790981902  0.4234919090093845  0.1153368585633220
  0.5000191979973810  0.4263755267210225  0.1173821938234796
  0.5247995374458990  0.3834968512391603  0.1174065198431488
  0.4752186296748877  0.3834932273331054  0.1174124454884484
  0.5000051716331637  0.3977100868153166  0.1578721296822854
  0.5693057522074368  0.4090812068622372  0.1900852876846872
  0.5445124184498792  0.3948250239470307  0.1558263955610497
  0.4802909212520521  0.4090812068622372  0.1900852876846872
  0.5000072237081506  0.3749153176025612  0.1900609616650180
  0.4752066553856568  0.3320330182146438  0.1900912133299868
  0.4999952494189193  0.3234551084840998  0.2627397295065563
  0.4752004044670037  0.3091994941337043  0.2284825650299094
  0.4802789469628211  0.3576209977437755  0.2627640555262256
  0.4999931973439324  0.3462498776968553  0.2305508975238236
  0.5197128701471950  0.3576173738377206  0.2627699811715252
  0.5197185935177729  0.3862440588752432  0.2284825650299094
  0.4802862511881892  0.3862480055655910  0.2284753574038237
  0.5000049886151129  0.3976160555139997  0.2606943942463988
  0.4752162282425791  0.4346619385792592  0.2627699811715252
  0.5000038022560327  0.4204093795701078  0.2285051634025882
  0.5197248444364260  0.4090775829561824  0.1900912133299868
  0.5890198195704972  0.3976160555139997  0.2606943942463988
  0.5445016305197276  0.3205714907724613  0.2606943942463988
  0.5693010821435739  0.3862480055655910  0.2284753574038237
  0.5692937779182059  0.3576209977437755  0.2627640555262256
  0.5445134384696885  0.4004996732256381  0.2627397295065563
  0.5890186332114175  0.4204093795701078  0.2285051634025882
  0.5642310591979638  0.4346619385792592  0.2627699811715252
  0.6138119669689751  0.4346655624853141  0.2627640555262256
  0.5247971360135903  0.4346655624853141  0.2627640555262256
  0.5445113863947015  0.4232944424383935  0.2305508975238236
  0.4554413038397281  0.0635619430524614  0.4060519299294758
  0.4109195269975714  0.0604794136131847  0.5192202347687421
  0.3664122801808556  0.0633644764814705  0.5212659688899776
  0.4306405691779643  0.0491476169992591  0.4808062846961406
  0.4999343579529562  0.0604794136131847  0.5192202347687421
  0.4802214769489756  0.0491512409053139  0.4808003590508410
  0.4554271111362399  0.0633644764814705  0.5212659688899776
  0.3022110935528055  0.1292384578455910  0.3738328930869006
  0.3664384471735752  0.1150221521709230  0.3333731620879373
  0.3664372608144941  0.1378154762270307  0.3011839312441265
  0.3219300139977783  0.1407005390953165  0.3032296653653622
  0.3219320660727655  0.1179057698825611  0.3354184973480949
  0.3664252865252636  0.0863552671085693  0.3738626990856652
  0.3416434358823888  0.1292345111552430  0.3738401007129862
  0.3219298309797283  0.1406065077939997  0.4060519299294758
  0.2774331890751127  0.2176510725355383  0.4060519299294758
  0.2774234498789195  0.1434901255056380  0.4080972651896333
  0.2577144516481895  0.2062830225871294  0.3738328930869006
  0.2774213978039322  0.1662848947183936  0.3759084332069006
  0.2526348558456566  0.1520680352361822  0.3354487490130638
  0.2526405792162345  0.1806947202737046  0.3011613328714478
  0.2329257879544943  0.2148600409685692  0.3011839312441265
  0.2329269743135744  0.1920667169124616  0.3333731620879373
  0.2971467939777732  0.2062790758967815  0.3738401007129862
  0.3416554101716197  0.1806947202737046  0.3011613328714478
  0.3022157636166679  0.1520716591422371  0.3354428233677641
  0.3664502551235347  0.1949503346240997  0.3354184973480949
  0.3416496868010409  0.1520680352361822  0.3354487490130638
  0.3467292826035738  0.2062830225871294  0.3738328930869006
  0.3664362287593170  0.1662848947183936  0.3759084332069006
  0.3664480200304975  0.2176510725355383  0.4060519299294758
  0.3219286446206481  0.1633998318501078  0.3738626990856652
  0.3664382808343047  0.1434901255056380  0.4080972651896333
  0.3022037893274370  0.1006114500237757  0.4081215912093025
  0.2774094235147022  0.1148246855999320  0.4485872010484390
  0.2576951731335909  0.1261958056468526  0.4808003590508410
  0.2971290963179644  0.1261921817407975  0.4808062846961406
  0.2971228453993118  0.1033586576598585  0.5191976363960632
  0.2774080541375711  0.1375239783547230  0.5192202347687421
  0.2971410706071949  0.1776523908592591  0.4081275168546021
  0.2577071474228214  0.1776560147653140  0.4081215912093025
  0.2774200284268021  0.1889841874731847  0.4465414669272034
  0.2971348196885428  0.1548188667783199  0.4465188685545248
  0.2577024773589585  0.1548228134686679  0.4465116609284391
  0.2774212147858818  0.1661908634170767  0.4787306977710143
  0.2526324544133489  0.2032367464823361  0.4808062846961406
  0.3022086921204968  0.1804071690917449  0.5191904287699776
  0.2774189963716245  0.2174536059645473  0.5212659688899776
  0.3416314615931579  0.0777743020367816  0.4465188685545248
  0.3416377125118105  0.1006078261177205  0.4081275168546021
  0.3219178566904973  0.0891462986755383  0.4787306977710143
  0.3219166703314181  0.1119396227316462  0.4465414669272034
  0.3664242544700860  0.1148246855999320  0.4485872010484390
  0.3664263065450734  0.0920299163871766  0.4807760330311719
  0.3467100040889753  0.1261958056468526  0.4808003590508410
  0.3861439272733492  0.1261921817407975  0.4808062846961406
  0.3664228850929559  0.1375239783547230  0.5192202347687421
  0.3467053340251124  0.1033626043502063  0.5191904287699776
  0.3861376763546966  0.1033586576598585  0.5191976363960632
  0.3219156382762396  0.1404090412230089  0.5212659688899776
  0.3467173083143433  0.1548228134686679  0.4465116609284391
  0.3467219783782062  0.1776560147653140  0.4081215912093025
  0.3664348593821873  0.1889841874731847  0.4465414669272034
  0.3219276125654705  0.1918692503414704  0.4485872010484390
  0.3664360457412665  0.1661908634170767  0.4787306977710143
  0.3219296646404578  0.1690744811287150  0.4807760330311719
  0.3022133621843597  0.2032403703883909  0.4808003590508410
  0.3416410344500810  0.1804032224013969  0.5191976363960632
  0.3416472853687336  0.2032367464823361  0.4808062846961406
  0.3664338273270092  0.2174536059645473  0.5212659688899776
  0.3219262431883403  0.2145685430962615  0.5192202347687421
  0.4306582668377736  0.1292345111552430  0.3738401007129862
  0.4357272364766678  0.0750270944006988  0.3354428233677641
  0.3912259245081898  0.1292384578455910  0.3738328930869006
  0.3861520520762348  0.1036501555321662  0.3011613328714478
  0.4109468970281503  0.1179057698825611  0.3354184973480949
  0.4109328706639321  0.0892403299768551  0.3759084332069006
  0.4109446619351130  0.1406065077939997  0.4060519299294758
  0.3912186202828217  0.1006114500237757  0.4081215912093025
  0.4109349227389194  0.0664455607640997  0.4080972651896333
  0.3912139502189584  0.0777782487271296  0.4465116609284391
  0.4306525434671952  0.1006078261177205  0.4081275168546021
  0.4109448449531630  0.1407005390953165  0.3032296653653622
  0.3912378987974198  0.1806986669640527  0.3011541252453622
  0.4306702411270040  0.1806947202737046  0.3011613328714478
  0.4109554498652633  0.2148600409685692  0.3011839312441265
  0.4109566362243435  0.1920667169124616  0.3333731620879373
  0.3912305945720527  0.1520716591422371  0.3354428233677641
  0.4306645177564257  0.1520680352361822  0.3354487490130638
  0.4109434755760329  0.1633998318501078  0.3738626990856652
  0.3861616249331580  0.2062790758967815  0.3738401007129862
  0.3861559015625797  0.1776523908592591  0.4081275168546021
  0.4357321392697276  0.1548228134686679  0.4465116609284391
  0.4999702808206481  0.2148600409685692  0.3011839312441265
  0.4357345407020358  0.1036541022225141  0.3011541252453622
  0.4802527297528046  0.1806986669640527  0.3011541252453622
  0.4554520917698789  0.1378154762270307  0.3011839312441265
  0.4802454255274370  0.1520716591422371  0.3354428233677641
  0.4554532781289591  0.1150221521709230  0.3333731620879373
  0.4999714671797283  0.1920667169124616  0.3333731620879373
  0.4554650860789196  0.1949503346240997  0.3354184973480949
  0.4802407554635745  0.1292384578455910  0.3738328930869006
  0.4751764558885423  0.2062790758967815  0.3738401007129862
  0.4357441135589585  0.2062830225871294  0.3738328930869006
  0.5247469702251124  0.1548228134686679  0.4465116609284391
  0.4554401174806484  0.0863552671085693  0.3738626990856652
  0.4802287811743432  0.0777782487271296  0.4465116609284391
  0.4554531117896886  0.1434901255056380  0.4080972651896333
  0.4802334512382060  0.1006114500237757  0.4081215912093025
  0.4999594928904973  0.1406065077939997  0.4060519299294758
  0.4999583065314172  0.1633998318501078  0.3738626990856652
  0.4751707325179644  0.1776523908592591  0.4081275168546021
  0.4554510597147013  0.1662848947183936  0.3759084332069006
  0.4357368093335905  0.1776560147653140  0.4081215912093025
  0.4554628509858818  0.2176510725355383  0.4060519299294758
  0.3861496506439271  0.1548188667783199  0.4465188685545248
  0.4109315012868019  0.1119396227316462  0.4465414669272034
  0.4306462925485422  0.0777743020367816  0.4465188685545248
  0.4554390854254708  0.1148246855999320  0.4485872010484390
  0.4109326876458821  0.0891462986755383  0.4787306977710143
  0.4554411375004581  0.0920299163871766  0.4807760330311719
  0.4357248350443605  0.1261958056468526  0.4808003590508410
  0.4357201649804971  0.1033626043502063  0.5191904287699776
  0.4109304692316248  0.1404090412230089  0.5212659688899776
  0.4554377160483403  0.1375239783547230  0.5192202347687421
  0.4109424435208553  0.1918692503414704  0.4485872010484390
  0.4554496903375712  0.1889841874731847  0.4465414669272034
  0.4109444955958426  0.1690744811287150  0.4807760330311719
  0.4554508766966514  0.1661908634170767  0.4787306977710143
  0.3912281931397445  0.2032403703883909  0.4808003590508410
  0.4306621163241180  0.2032367464823361  0.4808062846961406
  0.3912235230758816  0.1804071690917449  0.5191904287699776
  0.4109410741437247  0.2145685430962615  0.5192202347687421
  0.4306558654054659  0.1804032224013969  0.5191976363960632
  0.4554486582823936  0.2174536059645473  0.5212659688899776
  0.4751587582287335  0.1261921817407975  0.4808062846961406
  0.4999475186012669  0.0891462986755383  0.4787306977710143
  0.4751525073100810  0.1033586576598585  0.5191976363960632
  0.4999463322421863  0.1119396227316462  0.4465414669272034
  0.5247349959358815  0.1033626043502063  0.5191904287699776
  0.5247396659997448  0.1261958056468526  0.4808003590508410
  0.5444525470037250  0.1375239783547230  0.5192202347687421
  0.5444657076520361  0.1661908634170767  0.4787306977710143
  0.4999453001870091  0.1404090412230089  0.5212659688899776
  0.4751644815993114  0.1548188667783199  0.4465188685545248
  0.4999593265512274  0.1690744811287150  0.4807760330311719
  0.4999559050991095  0.2145685430962615  0.5192202347687421
  0.4802383540312664  0.1804071690917449  0.5191904287699776
  0.4999572744762401  0.1918692503414704  0.4485872010484390
  0.4802430240951288  0.2032403703883909  0.4808003590508410
  0.5196769472795028  0.2032367464823361  0.4808062846961406
  0.5196706963608502  0.1804032224013969  0.5191976363960632
  0.5444645212929560  0.1889841874731847  0.4465414669272034
  0.5692531849866511  0.1804071690917449  0.5191904287699776
  0.5444634892377783  0.2174536059645473  0.5212659688899776
  0.5889707360544942  0.2145685430962615  0.5192202347687421
  0.5692578550505136  0.2032403703883909  0.4808003590508410
  0.2577264259374199  0.2577432317055911  0.3011541252453622
  0.2329387822635349  0.2719948993656380  0.3354184973480949
  0.2577191217120519  0.2291162238837757  0.3354428233677641
  0.2526564029918107  0.3061571647192591  0.3354487490130638
  0.2329367301885476  0.2947896685783937  0.3032296653653622
  0.2774333720931631  0.2177451038368551  0.3032296653653622
  0.2774439770052635  0.2919046057101076  0.3011839312441265
  0.2774451633643437  0.2691112816539998  0.3333731620879373
  0.3022326406989587  0.2833275873286680  0.3738328930869006
  0.2971530448964258  0.2291125999777206  0.3354487490130638
  0.3022373107628216  0.3061607886253140  0.3354428233677641
  0.2971587682670037  0.2577392850152431  0.3011613328714478
  0.2774320027160325  0.2404443965916462  0.3738626990856652
  0.3219416389296887  0.2205346902471765  0.4080972651896333
  0.3022253364735906  0.2547005795068525  0.4081215912093025
  0.3219395868547014  0.2433294594599320  0.3759084332069006
  0.2329247558993171  0.2433294594599320  0.3759084332069006
  0.2526501520731577  0.2833236406383200  0.3738401007129862
  0.2329353608114170  0.3174889613331846  0.3738626990856652
  0.3219501917668013  0.3174889613331846  0.3738626990856652
  0.2329365471704976  0.2946956372770766  0.4060519299294758
  0.2774449970250732  0.2975792549887150  0.4080972651896333
  0.3664599943197284  0.2691112816539998  0.3333731620879373
  0.3219515611439324  0.2947896685783937  0.3032296653653622
  0.3664588079606482  0.2919046057101076  0.3011839312441265
  0.3467412568928047  0.2577432317055911  0.3011541252453622
  0.3664482030485475  0.2177451038368551  0.3032296653653622
  0.3219536132189196  0.2719948993656380  0.3354184973480949
  0.3467339526674367  0.2291162238837757  0.3354428233677641
  0.3416712339471951  0.3061571647192591  0.3354487490130638
  0.3664468336714173  0.2404443965916462  0.3738626990856652
  0.3416649830285425  0.2833236406383200  0.3738401007129862
  0.3219513781258819  0.2946956372770766  0.4060519299294758
  0.3664598279804580  0.2975792549887150  0.4080972651896333
  0.4109684441743040  0.2719948993656380  0.3354184973480949
  0.3861735992223889  0.2577392850152431  0.3011613328714478
  0.4109663920993171  0.2947896685783937  0.3032296653653622
  0.3861678758518102  0.2291125999777206  0.3354487490130638
  0.3912521417182059  0.3061607886253140  0.3354428233677641
  0.3912474716543434  0.2833275873286680  0.3738328930869006
  0.4306798139839272  0.2833236406383200  0.3738401007129862
  0.4109650227221861  0.3174889613331846  0.3738626990856652
  0.4109544178100862  0.2433294594599320  0.3759084332069006
  0.3912401674289754  0.2547005795068525  0.4081215912093025
  0.4109564698850731  0.2205346902471765  0.4080972651896333
  0.4109662090812667  0.2946956372770766  0.4060519299294758
  0.3022446149881887  0.3347877964471295  0.3011541252453622
  0.2329473351006479  0.3689491704516462  0.3011839312441265
  0.3219621660560327  0.3689491704516462  0.3011839312441265
  0.2526621263623891  0.3347838497567817  0.3011613328714478
  0.2329485214597281  0.3461558463955384  0.3333731620879373
  0.2774569713143041  0.3490394641071766  0.3354184973480949
  0.2577359987943431  0.3603721520702063  0.3738328930869006
  0.2971683411239269  0.3603682053798585  0.3738401007129862
  0.2577286945689746  0.3317451442483907  0.4081215912093025
  0.2774547362212664  0.3717402020186154  0.4060519299294758
  0.2774429449500859  0.3203740242014707  0.3759084332069006
  0.2329603294096886  0.4260840288487150  0.3354184973480949
  0.2774549192393164  0.3718342333199320  0.3032296653653622
  0.2774667105104978  0.4232004111370767  0.3333731620879373
  0.2577479730835740  0.4118323611886681  0.3011541252453622
  0.2971803154131583  0.4118284144983201  0.3011613328714478
  0.2577406688582065  0.3832053533668524  0.3354428233677641
  0.2971745920425799  0.3832017294607976  0.3354487490130638
  0.2774535498621862  0.3945335260747231  0.3738626990856652
  0.3219611340008551  0.3974185889430089  0.3759084332069006
  0.2329463030454708  0.3974185889430089  0.3759084332069006
  0.3022468836197443  0.4087897089899293  0.4081215912093025
  0.2329483551204585  0.3746238197302535  0.4080972651896333
  0.4109781833704976  0.3461558463955384  0.3333731620879373
  0.3664718022696889  0.3490394641071766  0.3354184973480949
  0.3416769573177734  0.3347838497567817  0.3011613328714478
  0.3912594459435739  0.3347877964471295  0.3011541252453622
  0.3219633524151129  0.3461558463955384  0.3333731620879373
  0.4109769970114179  0.3689491704516462  0.3011839312441265
  0.3664697501947011  0.3718342333199320  0.3032296653653622
  0.3467554998135908  0.3832053533668524  0.3354428233677641
  0.3467628040389584  0.4118323611886681  0.3011541252453622
  0.3219751603650733  0.4260840288487150  0.3354184973480949
  0.3664695671766507  0.3717402020186154  0.4060519299294758
  0.3467435255243594  0.3317451442483907  0.4081215912093025
  0.3467508297497279  0.3603721520702063  0.3738328930869006
  0.3861831720793117  0.3603682053798585  0.3738401007129862
  0.3664577759054706  0.3203740242014707  0.3759084332069006
  0.4109780170312276  0.3746238197302535  0.4080972651896333
  0.3219631860758428  0.3746238197302535  0.4080972651896333
  0.3912617145751291  0.4087897089899293  0.4081215912093025
  0.4109759649562398  0.3974185889430089  0.3759084332069006
  0.3664683808175705  0.3945335260747231  0.3738626990856652
  0.3861894229979643  0.3832017294607976  0.3354487490130638
  0.2971563668346964  0.3089079962613969  0.4465188685545248
  0.2971626177533490  0.3317415203423361  0.4081275168546021
  0.2577240245051122  0.3089119429517448  0.4465116609284391
  0.2526381777839272  0.2318634315198584  0.4465188685545248
  0.3219382174775713  0.2660287522147230  0.4465414669272034
  0.2329233865221865  0.2660287522147230  0.4465414669272034
  0.2774309706608554  0.2689138150830089  0.4485872010484390
  0.3022206664097277  0.2318673782102063  0.4465116609284391
  0.2774296012837257  0.2916131078378000  0.5192202347687421
  0.2329223544670089  0.2944981707060859  0.5212659688899776
  0.2329245728812667  0.2432354281586151  0.4787306977710143
  0.2329363808312271  0.3231636106117919  0.4807760330311719
  0.2577167202797446  0.2802849351299296  0.4808003590508410
  0.2577120502158817  0.2574517338332832  0.5191904287699776
  0.2774330227358422  0.2461190458702535  0.4807760330311719
  0.2774427619320359  0.3202799929001536  0.4787306977710143
  0.2971443925454655  0.2574477871429353  0.5191976363960632
  0.2971506434641181  0.2802813112238743  0.4808062846961406
  0.3219394038366510  0.2432354281586151  0.4787306977710143
  0.3219371854223937  0.2944981707060859  0.5212659688899776
  0.3416530087393115  0.2318634315198584  0.4465188685545248
  0.3416592596579641  0.2546969556007975  0.4081275168546021
  0.3912354973651121  0.2318673782102063  0.4465116609284391
  0.4306740906133489  0.2546969556007975  0.4081275168546021
  0.4306678396946959  0.2318634315198584  0.4465188685545248
  0.4109530484329565  0.2660287522147230  0.4465414669272034
  0.3664458016162397  0.2689138150830089  0.4485872010484390
  0.3861711977900807  0.3089079962613969  0.4465188685545248
  0.3861774487087333  0.3317415203423361  0.4081275168546021
  0.3467388554604969  0.3089119429517448  0.4465116609284391
  0.3467268811712660  0.2574517338332832  0.5191904287699776
  0.3467315512351289  0.2802849351299296  0.4808003590508410
  0.3664444322391096  0.2916131078378000  0.5192202347687421
  0.3664478536912270  0.2461190458702535  0.4807760330311719
  0.4109542347920358  0.2432354281586151  0.4787306977710143
  0.4109660427419963  0.3231636106117919  0.4807760330311719
  0.4109520163777785  0.2944981707060859  0.5212659688899776
  0.3861592235008503  0.2574477871429353  0.5191976363960632
  0.3861654744195028  0.2802813112238743  0.4808062846961406
  0.3664575928874207  0.3202799929001536  0.4787306977710143
  0.2526597249300809  0.3859525610029353  0.4465188685545248
  0.3219491597116246  0.3459583798245476  0.4485872010484390
  0.2329343287562398  0.3459583798245476  0.4485872010484390
  0.2774415755729557  0.3430733169562617  0.4465414669272034
  0.3022422135558818  0.3859565076932832  0.4465116609284391
  0.2329461200274208  0.3973245576416921  0.4787306977710143
  0.2774545698819963  0.4002081753533305  0.4807760330311719
  0.2526659758487335  0.4087860850838745  0.4081275168546021
  0.2329449336683406  0.4201178816978000  0.4465414669272034
  0.2577382674258983  0.4343740646130063  0.4808003590508410
  0.2774525178070091  0.4230029445660858  0.4485872010484390
  0.3219477903344944  0.3686576725793383  0.5192202347687421
  0.2526540015595025  0.3573258759654132  0.4808062846961406
  0.2526477506408504  0.3344923518844738  0.5191976363960632
  0.2329329593791097  0.3686576725793383  0.5192202347687421
  0.2774405435177781  0.3715427354476245  0.5212659688899776
  0.2971659396916196  0.4115369166260122  0.5191976363960632
  0.2577335973620349  0.4115408633163601  0.5191904287699776
  0.2971721906102717  0.4343704407069514  0.4808062846961406
  0.3416745558854656  0.3859525610029353  0.4465188685545248
  0.3219597646237249  0.4201178816978000  0.4465414669272034
  0.3219609509828051  0.3973245576416921  0.4787306977710143
  0.3664564065283405  0.3430733169562617  0.4465414669272034
  0.3416808068041178  0.4087860850838745  0.4081275168546021
  0.3664673487623938  0.4230029445660858  0.4485872010484390
  0.3664694008373811  0.4002081753533305  0.4807760330311719
  0.4109745955791097  0.4201178816978000  0.4465414669272034
  0.4109639906670089  0.3459583798245476  0.4485872010484390
  0.4109757819381899  0.3973245576416921  0.4787306977710143
  0.3912570445112662  0.3859565076932832  0.4465116609284391
  0.3912497402858982  0.3573294998714677  0.4808003590508410
  0.3416625815962347  0.3344923518844738  0.5191976363960632
  0.4306774125516195  0.3344923518844738  0.5191976363960632
  0.3912450702220353  0.3344962985748218  0.5191904287699776
  0.4109626212898788  0.3686576725793383  0.5192202347687421
  0.3664553744731629  0.3715427354476245  0.5212659688899776
  0.3861807706470040  0.4115369166260122  0.5191976363960632
  0.3467484283174193  0.4115408633163601  0.5191904287699776
  0.3467530983812830  0.4343740646130063  0.4808003590508410
  0.3861870215656565  0.4343704407069514  0.4808062846961406
  0.4802669726735906  0.3061607886253140  0.3354428233677641
  0.4999812230547014  0.2947896685783937  0.3032296653653622
  0.4999832751296888  0.2719948993656380  0.3354184973480949
  0.4357487836228214  0.2291162238837757  0.3354428233677641
  0.4554736389160325  0.2919046057101076  0.3011839312441265
  0.4554630340039322  0.2177451038368551  0.3032296653653622
  0.4554748252751136  0.2691112816539998  0.3333731620879373
  0.4357560878481890  0.2577432317055911  0.3011541252453622
  0.4751884301777733  0.2577392850152431  0.3011613328714478
  0.5197008958579642  0.3061571647192591  0.3354487490130638
  0.4751827068071949  0.2291125999777206  0.3354487490130638
  0.4306860649025798  0.3061571647192591  0.3354487490130638
  0.4999713008404578  0.2205346902471765  0.4080972651896333
  0.4999692487654706  0.2433294594599320  0.3759084332069006
  0.4554616646268021  0.2404443965916462  0.3738626990856652
  0.4802549983843598  0.2547005795068525  0.4081215912093025
  0.5196946449393116  0.2833236406383200  0.3738401007129862
  0.4802623026097277  0.2833275873286680  0.3738328930869006
  0.4554746589358423  0.2975792549887150  0.4080972651896333
  0.4999810400366511  0.2946956372770766  0.4060519299294758
  0.4999798536775709  0.3174889613331846  0.3738626990856652
  0.4554845811500854  0.3718342333199320  0.3032296653653622
  0.5197066192285429  0.3347838497567817  0.3011613328714478
  0.4306917882731581  0.3347838497567817  0.3011613328714478
  0.4802742768989582  0.3347877964471295  0.3011541252453622
  0.4999918279668018  0.3689491704516462  0.3011839312441265
  0.4357776349943431  0.4118323611886681  0.3011541252453622
  0.4752099773239274  0.4118284144983201  0.3011613328714478
  0.4554963724212668  0.4232004111370767  0.3333731620879373
  0.4999930143258828  0.3461558463955384  0.3333731620879373
  0.4554866332250732  0.3490394641071766  0.3354184973480949
  0.5000048222758424  0.4260840288487150  0.3354184973480949
  0.4357656607051122  0.3603721520702063  0.3738328930869006
  0.4554726068608554  0.3203740242014707  0.3759084332069006
  0.4751980030346964  0.3603682053798585  0.3738401007129862
  0.4357583564797442  0.3317451442483907  0.4081215912093025
  0.4999928479866124  0.3746238197302535  0.4080972651896333
  0.4554843981320359  0.3717402020186154  0.4060519299294758
  0.4752042539533490  0.3832017294607976  0.3354487490130638
  0.4999907959116247  0.3974185889430089  0.3759084332069006
  0.4554832117729553  0.3945335260747231  0.3738626990856652
  0.4802765455305139  0.4087897089899293  0.4081215912093025
  0.4357703307689755  0.3832053533668524  0.3354428233677641
  0.4802503283204969  0.2318673782102063  0.4465116609284391
  0.5196826706500807  0.2318634315198584  0.4465188685545248
  0.5196889215687337  0.2546969556007975  0.4081275168546021
  0.4999678793883404  0.2660287522147230  0.4465414669272034
  0.4554606325716245  0.2689138150830089  0.4485872010484390
  0.4357536864158813  0.3089119429517448  0.4465116609284391
  0.4751922796641181  0.3317415203423361  0.4081275168546021
  0.4751860287454655  0.3089079962613969  0.4465188685545248
  0.4357417121266508  0.2574517338332832  0.5191904287699776
  0.4554724238428050  0.3202799929001536  0.4787306977710143
  0.4554626846466114  0.2461190458702535  0.4807760330311719
  0.4357463821905137  0.2802849351299296  0.4808003590508410
  0.4554592631944944  0.2916131078378000  0.5192202347687421
  0.4751740544562351  0.2574477871429353  0.5191976363960632
  0.4751803053748872  0.2802813112238743  0.4808062846961406
  0.4999690657474206  0.2432354281586151  0.4787306977710143
  0.4999668473331628  0.2944981707060859  0.5212659688899776
  0.4999808736973806  0.3231636106117919  0.4807760330311719
  0.5247565430820351  0.2574517338332832  0.5191904287699776
  0.5196922435070043  0.3344923518844738  0.5191976363960632
  0.4554712374837257  0.3430733169562617  0.4465414669272034
  0.5197104687148874  0.4087860850838745  0.4081275168546021
  0.4999894265344949  0.4201178816978000  0.4465414669272034
  0.4306956377595025  0.4087860850838745  0.4081275168546021
  0.4802718754666505  0.3859565076932832  0.4465116609284391
  0.4306893868408500  0.3859525610029353  0.4465188685545248
  0.5197042177962348  0.3859525610029353  0.4465188685545248
  0.4999788216223937  0.3459583798245476  0.4485872010484390
  0.4554821797177782  0.4230029445660858  0.4485872010484390
  0.4999906128935742  0.3973245576416921  0.4787306977710143
  0.4554842317927659  0.4002081753533305  0.4807760330311719
  0.4802599011774196  0.3344962985748218  0.5191904287699776
  0.5196984944256569  0.3573258759654132  0.4808062846961406
  0.4802645712412829  0.3573294998714677  0.4808003590508410
  0.4306836634702721  0.3573258759654132  0.4808062846961406
  0.4999774522452640  0.3686576725793383  0.5192202347687421
  0.4554702054285477  0.3715427354476245  0.5212659688899776
  0.4751956016023887  0.4115369166260122  0.5191976363960632
  0.4357632592728040  0.4115408633163601  0.5191904287699776
  0.4752018525210413  0.4343704407069514  0.4808062846961406
  0.4357679293366674  0.4343740646130063  0.4808003590508410
  0.5247636145782062  0.2291162238837757  0.3354428233677641
  0.5890078452812667  0.3461558463955384  0.3333731620879373
  0.5445014641804575  0.3490394641071766  0.3354184973480949
  0.5444884698714173  0.2919046057101076  0.3011839312441265
  0.5444896562304975  0.2691112816539998  0.3333731620879373
  0.5692818036289754  0.3061607886253140  0.3354428233677641
  0.5692891078543431  0.3347877964471295  0.3011541252453622
  0.5247709188035738  0.2577432317055911  0.3011541252453622
  0.5642128339900808  0.3603682053798585  0.3738401007129862
  0.5692771335651126  0.2833275873286680  0.3738328930869006
  0.5444874378162398  0.3203740242014707  0.3759084332069006
  0.5889946846329552  0.3174889613331846  0.3738626990856652
  0.5444764955821865  0.2404443965916462  0.3738626990856652
  0.5889958709920358  0.2946956372770766  0.4060519299294758
  0.5692651592758816  0.2318673782102063  0.4465116609284391
  0.5692698293397445  0.2547005795068525  0.4081215912093025
  0.5889827103437252  0.2660287522147230  0.4465414669272034
  0.5642008597008499  0.3089079962613969  0.4465188685545248
  0.5444894898912275  0.2975792549887150  0.4080972651896333
  0.6137833483266508  0.3089119429517448  0.4465116609284391
  0.5247685173712661  0.3089119429517448  0.4465116609284391
  0.5247731874351294  0.3317451442483907  0.4081215912093025
  0.5642071106195029  0.3317415203423361  0.4081275168546021
  0.6137880183905133  0.3317451442483907  0.4081215912093025
  0.5444860684391096  0.3430733169562617  0.4465414669272034
  0.6335008993944944  0.3430733169562617  0.4465414669272034
  0.5642190849087334  0.3832017294607976  0.3354487490130638
  0.5642248082793121  0.4118284144983201  0.3011613328714478
  0.5247924659497275  0.4118323611886681  0.3011541252453622
  0.5247851617243603  0.3832053533668524  0.3354428233677641
  0.5445112033766520  0.4232004111370767  0.3333731620879373
  0.5444994121054703  0.3718342333199320  0.3032296653653622
  0.5247804916604970  0.3603721520702063  0.3738328930869006
  0.5444992290874202  0.3717402020186154  0.4060519299294758
  0.5444980427283401  0.3945335260747231  0.3738626990856652
  0.5890056268670090  0.3974185889430089  0.3759084332069006
  0.5890042574898788  0.4201178816978000  0.4465414669272034
  0.5692867064220353  0.3859565076932832  0.4465116609284391
  0.5692913764858986  0.4087897089899293  0.4081215912093025
  0.5890066589221865  0.3689491704516462  0.3011839312441265
  0.5890196532312272  0.4260840288487150  0.3354184973480949
  0.6335128736837249  0.3945335260747231  0.3738626990856652
  0.6137953226158813  0.3603721520702063  0.3738328930869006
  0.6335140600428050  0.3717402020186154  0.4060519299294758
  0.5890076789419967  0.3746238197302535  0.4080972651896333
  0.6583015373774196  0.3859565076932832  0.4465116609284391
  0.6087252996702721  0.4087860850838745  0.4081275168546021
  0.6583062074412830  0.4087897089899293  0.4081215912093025
  0.6087190487516191  0.3859525610029353  0.4465188685545248
  0.6780190884452636  0.4201178816978000  0.4465414669272034
  0.5641888854116194  0.2574477871429353  0.5191976363960632
  0.5889838967028054  0.2432354281586151  0.4787306977710143
  0.5444775156019965  0.2461190458702535  0.4807760330311719
  0.5444754635270093  0.2689138150830089  0.4485872010484390
  0.5641951363302720  0.2802813112238743  0.4808062846961406
  0.5247612131458981  0.2802849351299296  0.4808003590508410
  0.5444740941498787  0.2916131078378000  0.5192202347687421
  0.5889816782885475  0.2944981707060859  0.5212659688899776
  0.5889957046527657  0.3231636106117919  0.4807760330311719
  0.5444872547981898  0.3202799929001536  0.4787306977710143
  0.5692794021966677  0.3573294998714677  0.4808003590508410
  0.5692747321328043  0.3344962985748218  0.5191904287699776
  0.5889936525777785  0.3459583798245476  0.4485872010484390
  0.5444850363839324  0.3715427354476245  0.5212659688899776
  0.5889922832006479  0.3686576725793383  0.5192202347687421
  0.5444990627481502  0.4002081753533305  0.4807760330311719
  0.5247827602920522  0.4343740646130063  0.4808003590508410
  0.5642104325577735  0.4115369166260122  0.5191976363960632
  0.5247780902281892  0.4115408633163601  0.5191904287699776
  0.5444970106731629  0.4230029445660858  0.4485872010484390
  0.5642166834764261  0.4343704407069514  0.4808062846961406
  0.6087070744623886  0.3344923518844738  0.5191976363960632
  0.6335020857535746  0.3202799929001536  0.4787306977710143
  0.6334889251052634  0.2916131078378000  0.5192202347687421
  0.6137760441012828  0.2802849351299296  0.4808003590508410
  0.6137713740374199  0.2574517338332832  0.5191904287699776
  0.6582895630881891  0.3344962985748218  0.5191904287699776
  0.6582942331520520  0.3573294998714677  0.4808003590508410
  0.6087133253810412  0.3573258759654132  0.4808062846961406
  0.6780071141560327  0.3686576725793383  0.5192202347687421
  0.6334998673393167  0.3715427354476245  0.5212659688899776
  0.6137975912474374  0.4343740646130063  0.4808003590508410
  0.6137929211835735  0.4115408633163601  0.5191904287699776
  0.5890054438489590  0.3973245576416921  0.4787306977710143
  0.6335118416285477  0.4230029445660858  0.4485872010484390
  0.6335138937035346  0.4002081753533305  0.4807760330311719
  0.6532252635131578  0.4115369166260122  0.5191976363960632
  0.7028124222028213  0.4343740646130063  0.4808003590508410
  0.6532315144318104  0.4343704407069514  0.4808062846961406
  0.7028077521389583  0.4115408633163601  0.5191904287699776
  0.6780202748043438  0.3973245576416921  0.4787306977710143
  0.3219874840116242  0.4491702959337783  0.0851933618407469
  0.3022805378558810  0.4891684238025140  0.0831178217207469
  0.3417128801854657  0.4891644771121660  0.0831250293468325
  0.4110023149670095  0.4491702959337783  0.0851933618407469
  0.3664947308283406  0.4462852330654923  0.0831476277195113
  0.3912953688112663  0.4891684238025140  0.0831178217207469
  0.3219980889237254  0.5233297978070307  0.0831476277195113
  0.3665056730623939  0.5262148606753169  0.0851933618407469
  0.2526860749408504  0.4377042679937045  0.1558037971883711
  0.2526923258595030  0.4605377920746437  0.1174124454884484
  0.3022685635666510  0.4377082146840525  0.1557965895622852
  0.3022732336305139  0.4605414159806987  0.1174065198431488
  0.2329712836791097  0.4718695886885693  0.1558263955610497
  0.3219861146344945  0.4718695886885693  0.1558263955610497
  0.3219873009935743  0.4490762646324612  0.1880156264048604
  0.2774788678177786  0.4747546515568552  0.1578721296822854
  0.2329724700381899  0.4490762646324612  0.1880156264048604
  0.2774809198927660  0.4519598823440996  0.1900609616650180
  0.2971985406210413  0.4861221476977206  0.1900912133299868
  0.2774894727298789  0.5489141534301076  0.1558263955610497
  0.2329822259131631  0.5517992162983936  0.1578721296822854
  0.2577646174366674  0.4861257716037756  0.1900852876846872
  0.2774906590889591  0.5261208293739995  0.1880156264048604
  0.3022828064874371  0.5631703363453140  0.1900852876846872
  0.2527018987164262  0.5631667124392592  0.1900912133299868
  0.2329842779881504  0.5290044470856382  0.1900609616650180
  0.3219992752828052  0.5005364737509227  0.1153368585633220
  0.3912880645858982  0.4605414159806987  0.1174065198431488
  0.3417071568148873  0.4605377920746437  0.1174124454884484
  0.3417009058962348  0.4377042679937045  0.1558037971883711
  0.3912833945220358  0.4377082146840525  0.1557965895622852
  0.4110009455898789  0.4718695886885693  0.1558263955610497
  0.3664936987731638  0.4747546515568552  0.1578721296822854
  0.3467794483920522  0.4861257716037756  0.1900852876846872
  0.3862133715764257  0.4861221476977206  0.1900912133299868
  0.4110021319489590  0.4490762646324612  0.1880156264048604
  0.3664957508481507  0.4519598823440996  0.1900609616650180
  0.3862253458656570  0.5375823568161823  0.1174124454884484
  0.3665077251373812  0.5034200914625613  0.1173821938234796
  0.3467914226812835  0.5375859807222371  0.1174065198431488
  0.3467867526174202  0.5147527794255908  0.1557965895622852
  0.3862190949470040  0.5147488327352429  0.1558037971883711
  0.3665043036852638  0.5489141534301076  0.1558263955610497
  0.4110118878239331  0.5517992162983936  0.1578721296822854
  0.3219970568685478  0.5517992162983936  0.1578721296822854
  0.3665054900443435  0.5261208293739995  0.1880156264048604
  0.3417167296718105  0.5631667124392592  0.1900912133299868
  0.3912976374428218  0.5631703363453140  0.1900852876846872
  0.3219991089435347  0.5290044470856382  0.1900609616650180
  0.4110139398989195  0.5290044470856382  0.1900609616650180
  0.3862310692362349  0.5662090418537044  0.0831250293468325
  0.3665162779744947  0.6003743625485694  0.0831476277195113
  0.3467987269066511  0.5662129885440526  0.0831178217207469
  0.3913169159574204  0.6432575532855910  0.0831178217207469
  0.2775026333781901  0.5775810384924615  0.1153368585633220
  0.3022901107128046  0.5917973441671295  0.1557965895622852
  0.2329928308252639  0.6259587181716462  0.1558263955610497
  0.2527076220870041  0.5917933974767815  0.1558037971883711
  0.2775004149639323  0.6288437810399319  0.1578721296822854
  0.2329940171843440  0.6031653941155382  0.1880156264048604
  0.2775024670389196  0.6060490118271765  0.1900609616650180
  0.2577934688081895  0.6688419089086678  0.1557965895622852
  0.2972258111377734  0.6688379622183198  0.1558037971883711
  0.2775122062351132  0.6802099588570767  0.1880156264048604
  0.2577861645828219  0.6402149010868525  0.1900852876846872
  0.2972200877671954  0.6402112771807975  0.1900912133299868
  0.2330058251343049  0.6830935765687148  0.1900609616650180
  0.3022947807766680  0.6146305454637756  0.1174065198431488
  0.3913096117320523  0.6146305454637756  0.1174065198431488
  0.3220110832327661  0.5804646562040996  0.1173821938234796
  0.3665174643335744  0.5775810384924615  0.1153368585633220
  0.3417287039610415  0.6146269215577205  0.1174124454884484
  0.3913049416681894  0.5917973441671295  0.1557965895622852
  0.3417224530423889  0.5917933974767815  0.1558037971883711
  0.3220076617806486  0.6259587181716462  0.1558263955610497
  0.3665172979943044  0.6060490118271765  0.1900609616650180
  0.3220088481397288  0.6031653941155382  0.1880156264048604
  0.3468129698274372  0.6916751102053140  0.1174065198431488
  0.3665292722835349  0.6575092209456380  0.1173821938234796
  0.3220208224289593  0.6546256032339997  0.1153368585633220
  0.3862468930118107  0.6916714862992588  0.1174124454884484
  0.3862406420931581  0.6688379622183198  0.1558037971883711
  0.3665152459193171  0.6288437810399319  0.1578721296822854
  0.3862349187225806  0.6402112771807975  0.1900912133299868
  0.3468009955382063  0.6402149010868525  0.1900852876846872
  0.5197487930148879  0.5119980011931051  0.0447336776469100
  0.5197425420962348  0.4891644771121660  0.0831250293468325
  0.4803101997666510  0.4891684238025140  0.0831178217207469
  0.5000171459223933  0.4491702959337783  0.0851933618407469
  0.4555095617837249  0.4462852330654923  0.0831476277195113
  0.5000311722866115  0.4778357358394844  0.0447034259819411
  0.4555227224320368  0.4749521181278460  0.0426580907217835
  0.4358135578620355  0.5662129885440526  0.0831178217207469
  0.4555205040177787  0.5262148606753169  0.0851933618407469
  0.4555345303819964  0.5548803005810226  0.0447034259819411
  0.4752459001916197  0.5662090418537044  0.0831250293468325
  0.4803148698305139  0.5120016250991601  0.0447277520016103
  0.5000277508344941  0.5233297978070307  0.0831476277195113
  0.5000409114828060  0.5519966828693844  0.0426580907217835
  0.4357942793474370  0.4861257716037756  0.1900852876846872
  0.4555085297285477  0.4747546515568552  0.1578721296822854
  0.4307157368516196  0.4377042679937045  0.1558037971883711
  0.4555105818035350  0.4519598823440996  0.1900609616650180
  0.4307219877702722  0.4605377920746437  0.1174124454884484
  0.4752282025318104  0.4861221476977206  0.1900912133299868
  0.4803028955412834  0.4605414159806987  0.1174065198431488
  0.4802982254774201  0.4377082146840525  0.1557965895622852
  0.5000157765452636  0.4718695886885693  0.1558263955610497
  0.5000169629043434  0.4490762646324612  0.1880156264048604
  0.5197305678070052  0.4377042679937045  0.1558037971883711
  0.5197368187256569  0.4605377920746437  0.1174124454884484
  0.4555203209997282  0.5261208293739995  0.1880156264048604
  0.4358015835728050  0.5147527794255908  0.1557965895622852
  0.4555191346406485  0.5489141534301076  0.1558263955610497
  0.4307315606271953  0.5631667124392592  0.1900912133299868
  0.4358062536366683  0.5375859807222371  0.1174065198431488
  0.4110141062381900  0.5005364737509227  0.1153368585633220
  0.4555225560927655  0.5034200914625613  0.1173821938234796
  0.4752339259023888  0.5147488327352429  0.1558037971883711
  0.4752401768210414  0.5375823568161823  0.1174124454884484
  0.5000267187793169  0.5517992162983936  0.1578721296822854
  0.4803124683982066  0.5631703363453140  0.1900852876846872
  0.5000287708543043  0.5290044470856382  0.1900609616650180
  0.5197463915825801  0.5631667124392592  0.1900912133299868
  0.5000289371935743  0.5005364737509227  0.1153368585633220
  0.4110356533843436  0.6546256032339997  0.1153368585633220
  0.4307492582870042  0.6432536065952430  0.0831250293468325
  0.4110238621131627  0.6032594254168551  0.0851933618407469
  0.4555322952889592  0.5775810384924615  0.1153368585633220
  0.4555311089298794  0.6003743625485694  0.0831476277195113
  0.4555420511639323  0.6803039901583936  0.0851933618407469
  0.5000386930685474  0.6032594254168551  0.0851933618407469
  0.5197640892423889  0.6432536065952430  0.0831250293468325
  0.4803317469128047  0.6432575532855910  0.0831178217207469
  0.5000504843397284  0.6546256032339997  0.1153368585633220
  0.5000492979806487  0.6774189272901077  0.0831476277195113
  0.4307372839977732  0.5917933974767815  0.1558037971883711
  0.4110259141881504  0.5804646562040996  0.1173821938234796
  0.4307435349164263  0.6146269215577205  0.1174124454884484
  0.4110236790951131  0.6031653941155382  0.1880156264048604
  0.4555321289496891  0.6060490118271765  0.1900609616650180
  0.4803197726235742  0.5917973441671295  0.1557965895622852
  0.4803244426874375  0.6146305454637756  0.1174065198431488
  0.5000385100504979  0.6031653941155382  0.1880156264048604
  0.5000407451435351  0.5804646562040996  0.1173821938234796
  0.5197583658718106  0.6146269215577205  0.1174124454884484
  0.5197521149531584  0.5917933974767815  0.1558037971883711
  0.4358231307189586  0.6688419089086678  0.1557965895622852
  0.4110224927360330  0.6259587181716462  0.1558263955610497
  0.4358158264935911  0.6402149010868525  0.1900852876846872
  0.4110354870450740  0.6830935765687148  0.1900609616650180
  0.4555300768747018  0.6288437810399319  0.1578721296822854
  0.4358278007828215  0.6916751102053140  0.1174065198431488
  0.4555418681458824  0.6802099588570767  0.1880156264048604
  0.5000503180004588  0.6830935765687148  0.1900609616650180
  0.4555441032389196  0.6575092209456380  0.1173821938234796
  0.5000373236914182  0.6259587181716462  0.1558263955610497
  0.4752617239671955  0.6916714862992588  0.1174124454884484
  0.4752497496779645  0.6402112771807975  0.1900912133299868
  0.4752554730485424  0.6688379622183198  0.1558037971883711
  0.5642550077764261  0.5375823568161823  0.1174124454884484
  0.5248210845920527  0.5375859807222371  0.1174065198431488
  0.5445373870481502  0.5034200914625613  0.1173821938234796
  0.5445353349731634  0.5262148606753169  0.0851933618407469
  0.5445375533874212  0.4749521181278460  0.0426580907217835
  0.5445243927391097  0.4462852330654923  0.0831476277195113
  0.5693177264966682  0.4605414159806987  0.1174065198431488
  0.5693250307220358  0.4891684238025140  0.0831178217207469
  0.5693297007858987  0.5120016250991601  0.0447277520016103
  0.5890425817898789  0.5233297978070307  0.0831476277195113
  0.5890437681489595  0.5005364737509227  0.1153368585633220
  0.6138359155474374  0.5375859807222371  0.1174065198431488
  0.5642430334871952  0.4861221476977206  0.1900912133299868
  0.5445254127589199  0.4519598823440996  0.1900609616650180
  0.5445351519551126  0.5261208293739995  0.1880156264048604
  0.5248091103028213  0.4861257716037756  0.1900852876846872
  0.5445233606839325  0.4747546515568552  0.1578721296822854
  0.5248164145281893  0.5147527794255908  0.1557965895622852
  0.5642487568577744  0.5147488327352429  0.1558037971883711
  0.5693130564328048  0.4377082146840525  0.1557965895622852
  0.5890306075006484  0.4718695886885693  0.1558263955610497
  0.5890317938597281  0.4490762646324612  0.1880156264048604
  0.5890436018096891  0.5290044470856382  0.1900609616650180
  0.6138239412582061  0.4861257716037756  0.1900852876846872
  0.6335499829104974  0.5261208293739995  0.1880156264048604
  0.6138312454835740  0.5147527794255908  0.1557965895622852
  0.5642607311470040  0.5662090418537044  0.0831250293468325
  0.5445493613373812  0.5548803005810226  0.0447034259819411
  0.5248283888174202  0.5662129885440526  0.0831178217207469
  0.5445459398852638  0.6003743625485694  0.0831476277195113
  0.5445471262443444  0.5775810384924615  0.1153368585633220
  0.5445339655960328  0.5489141534301076  0.1558263955610497
  0.5693272993535909  0.5631703363453140  0.1900852876846872
  0.5890415497347017  0.5517992162983936  0.1578721296822854
  0.5693346035789589  0.5917973441671295  0.1557965895622852
  0.5890533410058827  0.6031653941155382  0.1880156264048604
  0.5890535240239326  0.6032594254168551  0.0851933618407469
  0.6583421303089757  0.5631703363453140  0.1900852876846872
  0.6087669459085436  0.5917933974767815  0.1558037971883711
  0.6780681719612670  0.6031653941155382  0.1880156264048604
  0.6087612225379644  0.5631667124392592  0.1900912133299868
  0.6583494345343432  0.5917973441671295  0.1557965895622852
  0.6335487965514176  0.5489141534301076  0.1558263955610497
  0.6087789201977732  0.6432536065952430  0.0831250293468325
  0.5693465778681894  0.6432575532855910  0.0831178217207469
  0.5445589341943045  0.6575092209456380  0.1173821938234796
  0.5890653152951136  0.6546256032339997  0.1153368585633220
  0.5693392736428223  0.6146305454637756  0.1174065198431488
  0.5445469599050744  0.6060490118271765  0.1900609616650180
  0.5890521546468021  0.6259587181716462  0.1558263955610497
  0.5248306574489758  0.6402149010868525  0.1900852876846872
  0.5642645806333493  0.6402112771807975  0.1900912133299868
  0.5445449078300861  0.6288437810399319  0.1578721296822854
  0.5642703040039276  0.6688379622183198  0.1558037971883711
  0.5248379616743434  0.6688419089086678  0.1557965895622852
  0.5890651489558436  0.6830935765687148  0.1900609616650180
  0.5445566991012671  0.6802099588570767  0.1880156264048604
  0.5248426317382068  0.6916751102053140  0.1174065198431488
  0.6138574626935915  0.6916751102053140  0.1174065198431488
  0.6532913858779645  0.6916714862992588  0.1174124454884484
  0.6335737651496888  0.6575092209456380  0.1173821938234796
  0.6583541045982066  0.6146305454637756  0.1174065198431488
  0.6780801462504975  0.6546256032339997  0.1153368585633220
  0.6138454884043606  0.6402149010868525  0.1900852876846872
  0.6138527926297277  0.6688419089086678  0.1557965895622852
  0.6335597387854709  0.6288437810399319  0.1578721296822854
  0.6335617908604583  0.6060490118271765  0.1900609616650180
  0.6532794115887336  0.6402112771807975  0.1900912133299868
  0.6780799799112275  0.6830935765687148  0.1900609616650180
  0.7028603193597449  0.6402149010868525  0.1900852876846872
  0.6780669856021868  0.6259587181716462  0.1558263955610497
  0.3022661621343428  0.4888769259302067  0.3011541252453622
  0.2971922897023888  0.4632886236167814  0.2284825650299094
  0.3467747783281893  0.4632925703071298  0.2284753574038237
  0.2577599473728045  0.4632925703071298  0.2284753574038237
  0.3219871346543038  0.4775442379671763  0.2627397295065563
  0.2329723036989195  0.4775442379671763  0.2627397295065563
  0.2774786847997282  0.4746606202555383  0.2606943942463988
  0.2329702516239322  0.5003390071799321  0.2305508975238236
  0.2774774984406481  0.4974539443116461  0.2285051634025882
  0.2774904927496887  0.5545888027087150  0.2627397295065563
  0.2329820428951127  0.5517051849970764  0.2606943942463988
  0.2526899244271948  0.5117065033207977  0.2627699811715252
  0.2526956477977732  0.5403331883583200  0.2284825650299094
  0.3022708321982062  0.5117101272268525  0.2627640555262256
  0.3022781364235742  0.5403371350486680  0.2284753574038237
  0.3219850825793169  0.5003390071799321  0.2305508975238236
  0.3417047553825796  0.5117065033207977  0.2627699811715252
  0.3219968738504975  0.5517051849970764  0.2606943942463988
  0.3417104787531580  0.5403331883583200  0.2284825650299094
  0.2329582773347012  0.4488787980614704  0.3032296653653622
  0.2774655241514176  0.4459937351931846  0.3011839312441265
  0.3022541878451123  0.4374167168117448  0.3738328930869006
  0.3416865301746961  0.4374127701213968  0.3738401007129862
  0.2526716992193118  0.4374127701213968  0.3738401007129862
  0.2526779501379643  0.4602462942023360  0.3354487490130638
  0.3416927810933492  0.4602462942023360  0.3354487490130638
  0.3219731082900860  0.4488787980614704  0.3032296653653622
  0.3022588579089752  0.4602499181083910  0.3354428233677641
  0.3416985044639275  0.4888729792398585  0.3011613328714478
  0.2329688822468020  0.5230382999347231  0.3011839312441265
  0.2329700686058822  0.5002449758786152  0.3333731620879373
  0.2526836735085423  0.4888729792398585  0.3011613328714478
  0.2577575459404968  0.5144612815532834  0.3738328930869006
  0.2577622160043601  0.5372944828499295  0.3354428233677641
  0.2774764663854705  0.5259233628030090  0.3032296653653622
  0.2774785184604578  0.5031285935902533  0.3354184973480949
  0.2971961391887336  0.5372908589438744  0.3354487490130638
  0.2971898882700810  0.5144573348629352  0.3738401007129862
  0.3467723768958815  0.5144612815532834  0.3738328930869006
  0.3219837132021868  0.5230382999347231  0.3011839312441265
  0.3219848995612665  0.5002449758786152  0.3333731620879373
  0.4357896092835736  0.4632925703071298  0.2284753574038237
  0.3862071206577731  0.4632886236167814  0.2284825650299094
  0.3664935157551126  0.4746606202555383  0.2606943942463988
  0.4555083467104973  0.4746606202555383  0.2606943942463988
  0.4752219516131578  0.4632886236167814  0.2284825650299094
  0.4110019656096885  0.4775442379671763  0.2627397295065563
  0.3912809930897276  0.4888769259302067  0.3011541252453622
  0.4802958240451123  0.4888769259302067  0.3011541252453622
  0.3912929673789585  0.5403371350486680  0.2284753574038237
  0.3664923293960324  0.4974539443116461  0.2285051634025882
  0.3912856631535905  0.5117101272268525  0.2627640555262256
  0.3665053237050734  0.5545888027087150  0.2627397295065563
  0.4109999135347013  0.5003390071799321  0.2305508975238236
  0.4307195863379644  0.5117065033207977  0.2627699811715252
  0.4110117048058818  0.5517051849970764  0.2606943942463988
  0.4307253097085427  0.5403331883583200  0.2284825650299094
  0.4803004941089752  0.5117101272268525  0.2627640555262256
  0.4555071603514180  0.4974539443116461  0.2285051634025882
  0.4555201546604578  0.5545888027087150  0.2627397295065563
  0.3664803551068019  0.4459937351931846  0.3011839312441265
  0.3912690188004971  0.4374167168117448  0.3738328930869006
  0.4307013611300809  0.4374127701213968  0.3738401007129862
  0.4109997305166513  0.5002449758786152  0.3333731620879373
  0.3664933494158426  0.5031285935902533  0.3354184973480949
  0.3862047192254653  0.5144573348629352  0.3738401007129862
  0.3664912973408552  0.5259233628030090  0.3032296653653622
  0.4109985441575711  0.5230382999347231  0.3011839312441265
  0.3862109701441184  0.5372908589438744  0.3354487490130638
  0.3467770469597444  0.5372944828499295  0.3354428233677641
  0.4307133354193114  0.4888729792398585  0.3011613328714478
  0.4307076120487335  0.4602462942023360  0.3354487490130638
  0.4802838497558818  0.4374167168117448  0.3738328930869006
  0.4802885198197444  0.4602499181083910  0.3354428233677641
  0.4554951860621871  0.4459937351931846  0.3011839312441265
  0.4555081803712273  0.5031285935902533  0.3354184973480949
  0.4752195501808501  0.5144573348629352  0.3738401007129862
  0.4357872078512663  0.5144612815532834  0.3738328930869006
  0.4357918779151292  0.5372944828499295  0.3354428233677641
  0.4752258010995027  0.5372908589438744  0.3354487490130638
  0.4555061282962400  0.5259233628030090  0.3032296653653622
  0.3467843511851120  0.5659214906717449  0.3011541252453622
  0.2577695202297277  0.5659214906717449  0.3011541252453622
  0.2972018625593119  0.5659175439813969  0.3011613328714478
  0.2972138368485429  0.6173777530998583  0.2284825650299094
  0.3467890212489758  0.5887546919683908  0.2627640555262256
  0.2577741902935911  0.5887546919683908  0.2627640555262256
  0.2329808565360329  0.5744985090531849  0.2285051634025882
  0.2774884406747022  0.5773835719214707  0.2305508975238236
  0.2972081134779641  0.5887510680623360  0.2627699811715252
  0.3219956874914177  0.5744985090531849  0.2285051634025882
  0.2577814945189586  0.6173816997902064  0.2284753574038237
  0.2775002319458823  0.6287497497386153  0.2606943942463988
  0.2329938508450736  0.6316333674502534  0.2627397295065563
  0.2527114715733494  0.6657956328038744  0.2627699811715252
  0.2527052206546968  0.6429621087229352  0.3011613328714478
  0.2329917987700863  0.6544281366630088  0.2305508975238236
  0.2774990455868026  0.6515430737947233  0.2285051634025882
  0.3022877092804974  0.6429660554132832  0.3011541252453622
  0.3022923793443603  0.6657992567099295  0.2627640555262256
  0.3220066297254711  0.6544281366630088  0.2305508975238236
  0.3220086818004583  0.6316333674502534  0.2627397295065563
  0.3417263025287337  0.6657956328038744  0.2627699811715252
  0.3417200516100812  0.6429621087229352  0.3011613328714478
  0.2774882576566514  0.5772895406201536  0.3333731620879373
  0.2329798244808558  0.6029679275445473  0.3032296653653622
  0.2526994972841185  0.6143354236854129  0.3354487490130638
  0.2329818765558422  0.5801731583317919  0.3354184973480949
  0.2526932463654655  0.5915018996044737  0.3738401007129862
  0.2774870712975717  0.6000828646762616  0.3011839312441265
  0.3022757349912660  0.5915058462948217  0.3738328930869006
  0.3022804050551298  0.6143390475914680  0.3354428233677641
  0.3219967075112270  0.5801731583317919  0.3354184973480949
  0.3417080773208502  0.5915018996044737  0.3738401007129862
  0.3219946554362401  0.6029679275445473  0.3032296653653622
  0.3417143282395033  0.6143354236854129  0.3354487490130638
  0.2329904293929561  0.6771274294178000  0.3011839312441265
  0.2329916157520363  0.6543341053616921  0.3333731620879373
  0.2774980135316246  0.6800124922860857  0.3032296653653622
  0.2577790930866513  0.6685504110363604  0.3738328930869006
  0.2577837631505138  0.6913836123330063  0.3354428233677641
  0.2775000656066123  0.6572177230733305  0.3354184973480949
  0.2972114354162347  0.6685464643460122  0.3738401007129862
  0.2972176863348882  0.6913799884269515  0.3354487490130638
  0.3467939240420356  0.6685504110363604  0.3738328930869006
  0.3220064467074211  0.6543341053616921  0.3333731620879373
  0.3220052603483413  0.6771274294178000  0.3011839312441265
  0.3913025402358817  0.6429660554132832  0.3011541252453622
  0.3467963254743434  0.6173816997902064  0.2284753574038237
  0.3665138765421874  0.6515430737947233  0.2285051634025882
  0.3665032716300866  0.5773835719214707  0.2305508975238236
  0.3665150629012671  0.6287497497386153  0.2606943942463988
  0.3862229444333489  0.5887510680623360  0.2627699811715252
  0.3862286678039272  0.6173777530998583  0.2284825650299094
  0.3913072102997446  0.6657992567099295  0.2627640555262256
  0.4110105184468025  0.5744985090531849  0.2285051634025882
  0.4110214606808558  0.6544281366630088  0.2305508975238236
  0.4110235127558427  0.6316333674502534  0.2627397295065563
  0.4358038522043601  0.5887546919683908  0.2627640555262256
  0.4358111564297282  0.6173816997902064  0.2284753574038237
  0.4357991821404968  0.5659214906717449  0.3011541252453622
  0.4307411334841185  0.6657956328038744  0.2627699811715252
  0.4555181025854709  0.5773835719214707  0.2305508975238236
  0.4555287074975721  0.6515430737947233  0.2285051634025882
  0.4752377753887332  0.5887510680623360  0.2627699811715252
  0.4555298938566514  0.6287497497386153  0.2606943942463988
  0.4752434987593119  0.6173777530998583  0.2284825650299094
  0.3912905659466507  0.5915058462948217  0.3738328930869006
  0.4110212776628054  0.6543341053616921  0.3333731620879373
  0.3665148965619967  0.6572177230733305  0.3354184973480949
  0.3862262663716194  0.6685464643460122  0.3738401007129862
  0.3467985941058985  0.6913836123330063  0.3354428233677641
  0.4110200913037257  0.6771274294178000  0.3011839312441265
  0.3862325172902729  0.6913799884269515  0.3354487490130638
  0.3665128444870093  0.6800124922860857  0.3032296653653622
  0.4803053969020356  0.5915058462948217  0.3738328930869006
  0.4307229082762346  0.5915018996044737  0.3738401007129862
  0.4752315244700810  0.5659175439813969  0.3011613328714478
  0.4555179195674205  0.5772895406201536  0.3333731620879373
  0.4307348825654659  0.6429621087229352  0.3011613328714478
  0.4307291591948876  0.6143354236854129  0.3354487490130638
  0.4555167332083408  0.6000828646762616  0.3011839312441265
  0.4555297275173814  0.6572177230733305  0.3354184973480949
  0.4752410973270038  0.6685464643460122  0.3738401007129862
  0.4358087549974204  0.6685504110363604  0.3738328930869006
  0.4752473482456572  0.6913799884269515  0.3354487490130638
  0.4555276754423936  0.6800124922860857  0.3032296653653622
  0.4358134250612833  0.6913836123330063  0.3354428233677641
  0.2774631227191098  0.4971624464393384  0.4465414669272034
  0.2329580943166513  0.4487847667601535  0.4060519299294758
  0.2577502417151292  0.4858342737314679  0.4081215912093025
  0.2329569079575711  0.4715780908162616  0.3738626990856652
  0.2577455716512663  0.4630010724348217  0.4465116609284391
  0.2774644920962400  0.4744631536845473  0.3759084332069006
  0.2774665441712273  0.4516683844717919  0.4080972651896333
  0.2971841648995022  0.4858306498254131  0.4081275168546021
  0.2971779139808501  0.4629971257444737  0.4465188685545248
  0.3219717389129559  0.4715780908162616  0.3738626990856652
  0.3219729252720360  0.4487847667601535  0.4060519299294758
  0.3467650726705135  0.4858342737314679  0.4081215912093025
  0.3467604026066511  0.4630010724348217  0.4465116609284391
  0.2329699022666117  0.5287129492133302  0.4080972651896333
  0.2329678501916244  0.5515077184260860  0.3759084332069006
  0.2526875229948876  0.5628752145669512  0.4081275168546021
  0.2526812720762345  0.5400416904860122  0.4465188685545248
  0.2774750970083399  0.5486226555577999  0.3738626990856652
  0.2774762833674205  0.5258293315016921  0.4060519299294758
  0.3219847332219965  0.5287129492133302  0.4080972651896333
  0.3219826811470092  0.5515077184260860  0.3759084332069006
  0.3022637607020355  0.5400456371763603  0.4465116609284391
  0.3416961030316193  0.5400416904860122  0.4465188685545248
  0.3417023539502719  0.5628752145669512  0.4081275168546021
  0.3022684307658984  0.5628788384730065  0.4081215912093025
  0.2329439016131630  0.4485873001891629  0.5212659688899776
  0.2329579279773812  0.4772527400948690  0.4807760330311719
  0.2526692977870040  0.4885814813675506  0.5191976363960632
  0.2774511484298789  0.4457022373208769  0.5192202347687421
  0.2774643090781900  0.4743691223832306  0.4787306977710143
  0.3219587325685473  0.4485873001891629  0.5212659688899776
  0.3219727589327656  0.4772527400948690  0.4807760330311719
  0.3416841287423888  0.4885814813675506  0.5191976363960632
  0.3022517864128041  0.4885854280578986  0.5191904287699776
  0.2526755487056566  0.5114150054484899  0.4808062846961406
  0.2329558759023939  0.5000475093076246  0.4485872010484390
  0.2329545065252638  0.5227468020624157  0.5192202347687421
  0.2329676671735744  0.5514136871247692  0.4787306977710143
  0.2774620906639322  0.5256318649307012  0.5212659688899776
  0.2774761170281500  0.5542973048364074  0.4807760330311719
  0.3219693374806482  0.5227468020624157  0.5192202347687421
  0.3219824981289592  0.5514136871247692  0.4787306977710143
  0.3022564564766675  0.5114186293545447  0.4808003590508410
  0.3416903796610410  0.5114150054484899  0.4808062846961406
  0.3219707068577783  0.5000475093076246  0.4485872010484390
  0.2329784551037252  0.6256672202993385  0.3738626990856652
  0.2329664808144947  0.5742070111808770  0.4465414669272034
  0.2774740649531632  0.5770920740491630  0.4485872010484390
  0.2329796414628054  0.6028738962432304  0.4060519299294758
  0.2577671187974200  0.6170902019178987  0.4465116609284391
  0.2774880913173809  0.6057575139548689  0.4080972651896333
  0.2971994611270042  0.6170862552275509  0.4465188685545248
  0.3219813117698786  0.5742070111808770  0.4465414669272034
  0.3219944724181897  0.6028738962432304  0.4060519299294758
  0.2774860392423941  0.6285522831676242  0.3759084332069006
  0.2774846698652639  0.6512515759224153  0.4465414669272034
  0.2577717888612833  0.6399234032145448  0.4081215912093025
  0.2329914494127658  0.6828020786964074  0.4080972651896333
  0.2329774230485480  0.6541366387907014  0.4485872010484390
  0.2774978305135746  0.6799184609847690  0.4060519299294758
  0.2972057120456563  0.6399197793084899  0.4081275168546021
  0.3219932860591100  0.6256672202993385  0.3738626990856652
  0.3220062803681506  0.6828020786964074  0.4080972651896333
  0.3219922540039324  0.6541366387907014  0.4485872010484390
  0.2774726955760330  0.5997913668039540  0.5192202347687421
  0.2577598145720524  0.5884631940960834  0.4808003590508410
  0.2577551445081895  0.5656299927994372  0.5191904287699776
  0.2329654487593167  0.6026764296722397  0.5212659688899776
  0.2774858562243437  0.6284582518663073  0.4787306977710143
  0.2971874868377733  0.5656260461090892  0.5191976363960632
  0.2971937377564259  0.5884595701900281  0.4808062846961406
  0.3219802797147014  0.6026764296722397  0.5212659688899776
  0.3467699754635738  0.5656299927994372  0.5191904287699776
  0.2329794751235349  0.6313418695779457  0.4807760330311719
  0.2329760536714175  0.6768359315454923  0.5192202347687421
  0.2774836378100868  0.6797209944137782  0.5212659688899776
  0.2526908449331582  0.6426706108506278  0.5191976363960632
  0.2526970958518107  0.6655041349315669  0.4808062846961406
  0.3022733335589587  0.6426745575409758  0.5191904287699776
  0.3417119268071955  0.6655041349315669  0.4808062846961406
  0.3219908846268023  0.6768359315454923  0.5192202347687421
  0.3022780036228216  0.6655077588376217  0.4808003590508410
  0.3417056758885425  0.6426706108506278  0.5191976363960632
  0.3219943060789193  0.6313418695779457  0.4807760330311719
  0.3861989958548874  0.4858306498254131  0.4081275168546021
  0.3861927449362348  0.4629971257444737  0.4465188685545248
  0.3664793230516243  0.4744631536845473  0.3759084332069006
  0.3664813751266116  0.4516683844717919  0.4080972651896333
  0.4109877562274204  0.4487847667601535  0.4060519299294758
  0.4109865698683402  0.4715780908162616  0.3738626990856652
  0.4357752335620354  0.4630010724348217  0.4465116609284391
  0.4357799036258983  0.4858342737314679  0.4081215912093025
  0.4554941540070091  0.4744631536845473  0.3759084332069006
  0.4554962060819964  0.4516683844717919  0.4080972651896333
  0.4752075758916192  0.4629971257444737  0.4465188685545248
  0.4752138268102714  0.4858306498254131  0.4081275168546021
  0.3664899279637246  0.5486226555577999  0.3738626990856652
  0.3664911143228052  0.5258293315016921  0.4060519299294758
  0.3912785916574203  0.5400456371763603  0.4465116609284391
  0.3912832617212827  0.5628788384730065  0.4081215912093025
  0.4109995641773813  0.5287129492133302  0.4080972651896333
  0.4109975121023940  0.5515077184260860  0.3759084332069006
  0.4307109339870041  0.5400416904860122  0.4465188685545248
  0.4307171849056566  0.5628752145669512  0.4081275168546021
  0.4802980926766675  0.5628788384730065  0.4081215912093025
  0.4802934226128046  0.5400456371763603  0.4465116609284391
  0.4555059452781896  0.5258293315016921  0.4060519299294758
  0.4555047589191090  0.5486226555577999  0.3738626990856652
  0.3912666173681889  0.4885854280578986  0.5191904287699776
  0.3664659793852641  0.4457022373208769  0.5192202347687421
  0.3664779536744942  0.4971624464393384  0.4465414669272034
  0.3664791400335743  0.4743691223832306  0.4787306977710143
  0.4109735635239321  0.4485873001891629  0.5212659688899776
  0.4109875898881504  0.4772527400948690  0.4807760330311719
  0.4306989596977732  0.4885814813675506  0.5191976363960632
  0.4554808103406480  0.4457022373208769  0.5192202347687421
  0.4802814483235733  0.4885854280578986  0.5191904287699776
  0.4554927846298789  0.4971624464393384  0.4465414669272034
  0.4554939709889591  0.4743691223832306  0.4787306977710143
  0.4109855378131630  0.5000475093076246  0.4485872010484390
  0.3912712874320523  0.5114186293545447  0.4808003590508410
  0.3664909479835348  0.5542973048364074  0.4807760330311719
  0.4109841684360329  0.5227468020624157  0.5192202347687421
  0.3664769216193166  0.5256318649307012  0.5212659688899776
  0.4109973290843436  0.5514136871247692  0.4787306977710143
  0.4307052106164257  0.5114150054484899  0.4808062846961406
  0.4802861183874370  0.5114186293545447  0.4808003590508410
  0.4555057789389191  0.5542973048364074  0.4807760330311719
  0.4554917525747014  0.5256318649307012  0.5212659688899776
  0.4110081170144947  0.6256672202993385  0.3738626990856652
  0.4109961427252634  0.5742070111808770  0.4465414669272034
  0.3665029222727657  0.6057575139548689  0.4080972651896333
  0.3862142920823886  0.6170862552275509  0.4465188685545248
  0.3665008701977788  0.6285522831676242  0.3759084332069006
  0.3862205430010411  0.6399197793084899  0.4081275168546021
  0.3467866198166681  0.6399234032145448  0.4081215912093025
  0.3665126614689593  0.6799184609847690  0.4060519299294758
  0.4110070849593176  0.6541366387907014  0.4485872010484390
  0.3664995008206487  0.6512515759224153  0.4465414669272034
  0.4110093033735745  0.6028738962432304  0.4060519299294758
  0.4555177532281501  0.6057575139548689  0.4080972651896333
  0.4555037268639323  0.5770920740491630  0.4485872010484390
  0.4357967807081895  0.6170902019178987  0.4465116609284391
  0.4752291230377733  0.6170862552275509  0.4465188685545248
  0.4555157011531632  0.6285522831676242  0.3759084332069006
  0.4555143317760331  0.6512515759224153  0.4465414669272034
  0.4358014507720524  0.6399234032145448  0.4081215912093025
  0.4752353739564259  0.6399197793084899  0.4081275168546021
  0.4555274924243437  0.6799184609847690  0.4060519299294758
  0.4110211113235354  0.6828020786964074  0.4080972651896333
  0.3664875265314174  0.5997913668039540  0.5192202347687421
  0.3862023177931581  0.5656260461090892  0.5191976363960632
  0.4109951106700858  0.6026764296722397  0.5212659688899776
  0.4357848064189581  0.5656299927994372  0.5191904287699776
  0.4357894764828215  0.5884631940960834  0.4808003590508410
  0.4752171487485424  0.5656260461090892  0.5191976363960632
  0.4752233996671950  0.5884595701900281  0.4808062846961406
  0.4555023574868026  0.5997913668039540  0.5192202347687421
  0.3664984687654711  0.6797209944137782  0.5212659688899776
  0.3912881645143430  0.6426745575409758  0.5191904287699776
  0.3912928345782063  0.6655077588376217  0.4808003590508410
  0.4110091370343040  0.6313418695779457  0.4807760330311719
  0.4307267577625798  0.6655041349315669  0.4808062846961406
  0.4803029954697274  0.6426745575409758  0.5191904287699776
  0.4555155181351128  0.6284582518663073  0.4787306977710143
  0.5197401406639275  0.5403331883583200  0.2284825650299094
  0.5000265357612665  0.5517051849970764  0.2606943942463988
  0.5000167965650734  0.4775442379671763  0.2627397295065563
  0.4803077983343428  0.5403371350486680  0.2284753574038237
  0.5197344172933487  0.5117065033207977  0.2627699811715252
  0.5000147444900860  0.5003390071799321  0.2305508975238236
  0.5445231776658812  0.4746606202555383  0.2606943942463988
  0.5248044402389583  0.4632925703071298  0.2284753574038237
  0.5445219913068019  0.4974539443116461  0.2285051634025882
  0.5890316275204581  0.4775442379671763  0.2627397295065563
  0.5642367825685422  0.4632886236167814  0.2284825650299094
  0.5693106550004972  0.4888769259302067  0.3011541252453622
  0.6087492482487331  0.5117065033207977  0.2627699811715252
  0.5890295754454709  0.5003390071799321  0.2305508975238236
  0.5693153250643596  0.5117101272268525  0.2627640555262256
  0.5693226292897277  0.5403371350486680  0.2284753574038237
  0.6087549716193127  0.5403331883583200  0.2284825650299094
  0.5890413667166509  0.5517051849970764  0.2606943942463988
  0.5445349856158426  0.5545888027087150  0.2627397295065563
  0.5197224430041183  0.4602462942023360  0.3354487490130638
  0.5000027702008552  0.4488787980614704  0.3032296653653622
  0.5197161920854657  0.4374127701213968  0.3738401007129862
  0.5445100170175710  0.4459937351931846  0.3011839312441265
  0.5692986807112662  0.4374167168117448  0.3738328930869006
  0.5693033507751291  0.4602499181083910  0.3354428233677641
  0.6087310230408500  0.4374127701213968  0.3738401007129862
  0.6087372739595026  0.4602462942023360  0.3354487490130638
  0.5890176011562399  0.4488787980614704  0.3032296653653622
  0.6087429973300810  0.4888729792398585  0.3011613328714478
  0.5197281663746961  0.4888729792398585  0.3011613328714478
  0.5000145614720360  0.5002449758786152  0.3333731620879373
  0.5000133751129563  0.5230382999347231  0.3011839312441265
  0.5248020388066511  0.5144612815532834  0.3738328930869006
  0.5248067088705135  0.5372944828499295  0.3354428233677641
  0.5445209592516244  0.5259233628030090  0.3032296653653622
  0.5445230113266116  0.5031285935902533  0.3354184973480949
  0.5642406320548875  0.5372908589438744  0.3354487490130638
  0.6138168697620354  0.5144612815532834  0.3738328930869006
  0.5642343811362349  0.5144573348629352  0.3738401007129862
  0.5890282060683403  0.5230382999347231  0.3011839312441265
  0.5890293924274213  0.5002449758786152  0.3333731620879373
  0.5248140130958816  0.5659214906717449  0.3011541252453622
  0.5197497135208503  0.6429621087229352  0.3011613328714478
  0.5000253494021872  0.5744985090531849  0.2285051634025882
  0.4803220412551293  0.6657992567099295  0.2627640555262256
  0.4803173711912664  0.6429660554132832  0.3011541252453622
  0.5000383437112275  0.6316333674502534  0.2627397295065563
  0.5000362916362405  0.6544281366630088  0.2305508975238236
  0.5197559644395032  0.6657956328038744  0.2627699811715252
  0.5445329335408561  0.5773835719214707  0.2305508975238236
  0.5248186831597449  0.5887546919683908  0.2627640555262256
  0.5248259873851129  0.6173816997902064  0.2284753574038237
  0.5642463554254659  0.5659175439813969  0.3011613328714478
  0.5890401803575716  0.5744985090531849  0.2285051634025882
  0.5642583297146967  0.6173777530998583  0.2284825650299094
  0.5642526063441180  0.5887510680623360  0.2627699811715252
  0.5445447248120358  0.6287497497386153  0.2606943942463988
  0.5890531746666122  0.6316333674502534  0.2627397295065563
  0.6087645444762351  0.6429621087229352  0.3011613328714478
  0.5445435384529564  0.6515430737947233  0.2285051634025882
  0.5693322021466513  0.6429660554132832  0.3011541252453622
  0.6087707953948872  0.6657956328038744  0.2627699811715252
  0.5693368722105141  0.6657992567099295  0.2627640555262256
  0.5890511225916254  0.6544281366630088  0.2305508975238236
  0.5197439901502724  0.6143354236854129  0.3354487490130638
  0.5445327505228053  0.5772895406201536  0.3333731620879373
  0.5197377392316194  0.5915018996044737  0.3738401007129862
  0.5000263694219965  0.5801731583317919  0.3354184973480949
  0.5000243173470097  0.6029679275445473  0.3032296653653622
  0.5445315641637255  0.6000828646762616  0.3011839312441265
  0.4803100669658993  0.6143390475914680  0.3354428233677641
  0.5000361086181901  0.6543341053616921  0.3333731620879373
  0.5248235859528048  0.6685504110363604  0.3738328930869006
  0.5248282560166680  0.6913836123330063  0.3354428233677641
  0.5000349222591104  0.6771274294178000  0.3011839312441265
  0.5445425063977789  0.6800124922860857  0.3032296653653622
  0.5890391483023940  0.6029679275445473  0.3032296653653622
  0.5693202278574203  0.5915058462948217  0.3738328930869006
  0.6087525701870041  0.5915018996044737  0.3738401007129862
  0.5890412003773808  0.5801731583317919  0.3354184973480949
  0.6087588211056567  0.6143354236854129  0.3354487490130638
  0.5693248979212836  0.6143390475914680  0.3354428233677641
  0.5890497532144948  0.6771274294178000  0.3011839312441265
  0.5890509395735749  0.6543341053616921  0.3333731620879373
  0.5642621792010420  0.6913799884269515  0.3354487490130638
  0.5642559282823886  0.6685464643460122  0.3738401007129862
  0.5445445584727657  0.6572177230733305  0.3354184973480949
  0.5445076155852642  0.4971624464393384  0.4465414669272034
  0.5000014008237250  0.4715780908162616  0.3738626990856652
  0.5247947345812830  0.4858342737314679  0.4081215912093025
  0.5247900645174202  0.4630010724348217  0.4465116609284391
  0.5000025871828051  0.4487847667601535  0.4060519299294758
  0.5445089849623939  0.4744631536845473  0.3759084332069006
  0.5445110370373816  0.4516683844717919  0.4080972651896333
  0.5642224068470040  0.4629971257444737  0.4465188685545248
  0.5642286577656561  0.4858306498254131  0.4081275168546021
  0.5890162317791098  0.4715780908162616  0.3738626990856652
  0.5890174181381899  0.4487847667601535  0.4060519299294758
  0.6138048954728045  0.4630010724348217  0.4465116609284391
  0.6138095655366679  0.4858342737314679  0.4081215912093025
  0.5445195898744938  0.5486226555577999  0.3738626990856652
  0.5197320158610410  0.5628752145669512  0.4081275168546021
  0.5000143951327656  0.5287129492133302  0.4080972651896333
  0.5000123430577783  0.5515077184260860  0.3759084332069006
  0.5197257649423884  0.5400416904860122  0.4465188685545248
  0.5445207762335743  0.5258293315016921  0.4060519299294758
  0.5693082535681889  0.5400456371763603  0.4465116609284391
  0.5693129236320523  0.5628788384730065  0.4081215912093025
  0.5890271740131631  0.5515077184260860  0.3759084332069006
  0.5890292260881508  0.5287129492133302  0.4080972651896333
  0.6087468468164258  0.5628752145669512  0.4081275168546021
  0.6087405958977732  0.5400416904860122  0.4465188685545248
  0.5444956412960323  0.4457022373208769  0.5192202347687421
  0.5197137906531579  0.4885814813675506  0.5191976363960632
  0.5000024208435351  0.4772527400948690  0.4807760330311719
  0.4999883944793169  0.4485873001891629  0.5212659688899776
  0.5445088019443435  0.4743691223832306  0.4787306977710143
  0.5692962792789584  0.4885854280578986  0.5191904287699776
  0.5890032254347016  0.4485873001891629  0.5212659688899776
  0.6087286216085427  0.4885814813675506  0.5191976363960632
  0.5890172517989195  0.4772527400948690  0.4807760330311719
  0.5000003687685474  0.5000475093076246  0.4485872010484390
  0.4999989993914172  0.5227468020624157  0.5192202347687421
  0.5000121600397284  0.5514136871247692  0.4787306977710143
  0.5197200415718105  0.5114150054484899  0.4808062846961406
  0.5445065835300861  0.5256318649307012  0.5212659688899776
  0.5445206098943044  0.5542973048364074  0.4807760330311719
  0.5890151997239321  0.5000475093076246  0.4485872010484390
  0.5890138303468020  0.5227468020624157  0.5192202347687421
  0.5693009493428214  0.5114186293545447  0.4808003590508410
  0.5890269909951127  0.5514136871247692  0.4787306977710143
  0.6087348725271953  0.5114150054484899  0.4808062846961406
  0.5445325841835348  0.6057575139548689  0.4080972651896333
  0.5000109736806482  0.5742070111808770  0.4465414669272034
  0.5248116116635738  0.6170902019178987  0.4465116609284391
  0.5000229479698791  0.6256672202993385  0.3738626990856652
  0.5000241343289588  0.6028738962432304  0.4060519299294758
  0.5445185578193170  0.5770920740491630  0.4485872010484390
  0.5642439539931581  0.6170862552275509  0.4465188685545248
  0.5890258046360334  0.5742070111808770  0.4465414669272034
  0.5890377789252639  0.6256672202993385  0.3738626990856652
  0.5890389652843436  0.6028738962432304  0.4060519299294758
  0.5000219159147019  0.6541366387907014  0.4485872010484390
  0.5000359422789197  0.6828020786964074  0.4080972651896333
  0.5248162817274372  0.6399234032145448  0.4081215912093025
  0.5445305321085484  0.6285522831676242  0.3759084332069006
  0.5445291627314178  0.6512515759224153  0.4465414669272034
  0.5445423233797284  0.6799184609847690  0.4060519299294758
  0.5642502049118102  0.6399197793084899  0.4081275168546021
  0.5890367468700862  0.6541366387907014  0.4485872010484390
  0.5000099416254705  0.6026764296722397  0.5212659688899776
  0.5247996373743429  0.5656299927994372  0.5191904287699776
  0.5445171884421864  0.5997913668039540  0.5192202347687421
  0.5248043074382063  0.5884631940960834  0.4808003590508410
  0.5000239679896888  0.6313418695779457  0.4807760330311719
  0.5197353377993120  0.6426706108506278  0.5191976363960632
  0.5445281306762402  0.6797209944137782  0.5212659688899776
  0.5000205465375718  0.6768359315454923  0.5192202347687421
  0.5197415887179646  0.6655041349315669  0.4808062846961406
  0.4803076655335911  0.6655077588376217  0.4808003590508410
  0.5890247725808549  0.6026764296722397  0.5212659688899776
  0.5642319797039271  0.5656260461090892  0.5191976363960632
  0.5642382306225797  0.5884595701900281  0.4808062846961406
  0.6138144683297276  0.5656299927994372  0.5191904287699776
  0.5445303490904971  0.6284582518663073  0.4787306977710143
  0.5890387989450732  0.6313418695779457  0.4807760330311719
  0.6087501687546963  0.6426706108506278  0.5191976363960632
  0.5693178264251121  0.6426745575409758  0.5191904287699776
  0.5693224964889755  0.6655077588376217  0.4808003590508410
  0.6087564196733494  0.6655041349315669  0.4808062846961406
  0.5890353774929561  0.6768359315454923  0.5192202347687421
  0.6780430370237250  0.5230382999347231  0.3011839312441265
  0.6335248479729558  0.4459937351931846  0.3011839312441265
  0.6138192711943432  0.4632925703071298  0.2284753574038237
  0.6583301560197443  0.5117101272268525  0.2627640555262256
  0.6335368222621867  0.4974539443116461  0.2285051634025882
  0.6335380086212664  0.4746606202555383  0.2606943942463988
  0.6583254859558819  0.4888769259302067  0.3011541252453622
  0.6335357902070091  0.5259233628030090  0.3032296653653622
  0.6583374602451124  0.5403371350486680  0.2284753574038237
  0.6780561976720356  0.5517051849970764  0.2606943942463988
  0.6335498165712273  0.5545888027087150  0.2627397295065563
  0.6780550113129563  0.5744985090531849  0.2285051634025882
  0.6138288440512664  0.5659214906717449  0.3011541252453622
  0.6532611863808502  0.5659175439813969  0.3011613328714478
  0.7028436750066511  0.5659214906717449  0.3011541252453622
  0.6138335141151297  0.5887546919683908  0.2627640555262256
  0.7028483450705140  0.5887546919683908  0.2627640555262256
  0.6335477644962401  0.5773835719214707  0.2305508975238236
  0.6532674372995028  0.5887510680623360  0.2627699811715252
  0.6780539792577788  0.6029679275445473  0.3032296653653622
  0.6335463951191099  0.6000828646762616  0.3011839312441265
  0.7225612260744947  0.6000828646762616  0.3011839312441265
  0.6780310627344945  0.4715780908162616  0.3738626990856652
  0.6583135116666510  0.4374167168117448  0.3738328930869006
  0.6780322490935743  0.4487847667601535  0.4060519299294758
  0.6583181817305138  0.4602499181083910  0.3354428233677641
  0.6335238159177782  0.4744631536845473  0.3759084332069006
  0.6780442233828051  0.5002449758786152  0.3333731620879373
  0.7225504381443435  0.5258293315016921  0.4060519299294758
  0.7028317007174202  0.5144612815532834  0.3738328930869006
  0.6335356071889595  0.5258293315016921  0.4060519299294758
  0.6532492120916192  0.5144573348629352  0.3738401007129862
  0.6335378422819964  0.5031285935902533  0.3354184973480949
  0.6532554630102718  0.5372908589438744  0.3354487490130638
  0.6335475814781905  0.5772895406201536  0.3333731620879373
  0.6138215398258983  0.5372944828499295  0.3354428233677641
  0.6335344208298790  0.5486226555577999  0.3738626990856652
  0.6583350588128046  0.5915058462948217  0.3738328930869006
  0.6780420049685474  0.5515077184260860  0.3759084332069006
  0.6780537962397288  0.6028738962432304  0.4060519299294758
  0.6780560313327656  0.5801731583317919  0.3354184973480949
  0.6977674011423893  0.5915018996044737  0.3738401007129862
  0.7028363707812831  0.5372944828499295  0.3354428233677641
  0.7225624124335743  0.5772895406201536  0.3333731620879373
  0.7225492517852637  0.5486226555577999  0.3738626990856652
  0.7473498897681894  0.5915058462948217  0.3738328930869006
  0.7670686271951127  0.6028738962432304  0.4060519299294758
  0.6780680056219965  0.6316333674502534  0.2627397295065563
  0.6780659535470093  0.6544281366630088  0.2305508975238236
  0.6335583694083408  0.6515430737947233  0.2285051634025882
  0.6335595557674210  0.6287497497386153  0.2606943942463988
  0.6138408183404978  0.6173816997902064  0.2284753574038237
  0.6532731606700819  0.6173777530998583  0.2284825650299094
  0.6780645841698791  0.6771274294178000  0.3011839312441265
  0.6977793754316203  0.6429621087229352  0.3011613328714478
  0.6583517031658989  0.6657992567099295  0.2627640555262256
  0.6583470331020356  0.6429660554132832  0.3011541252453622
  0.6335573373531632  0.6800124922860857  0.3032296653653622
  0.6532770101564264  0.6913799884269515  0.3354487490130638
  0.6583397288766684  0.6143390475914680  0.3354428233677641
  0.6138430869720528  0.6913836123330063  0.3354428233677641
  0.6780657705289597  0.6543341053616921  0.3333731620879373
  0.6335593894281505  0.6572177230733305  0.3354184973480949
  0.6977736520610415  0.6143354236854129  0.3354487490130638
  0.6532707592377733  0.6685464643460122  0.3738401007129862
  0.6780526098806482  0.6256672202993385  0.3738626990856652
  0.6138384169081895  0.6685504110363604  0.3738328930869006
  0.6335453630639327  0.6285522831676242  0.3759084332069006
  0.6335571543351133  0.6799184609847690  0.4060519299294758
  0.6977856263502720  0.6657956328038744  0.2627699811715252
  0.7473665341212832  0.6657992567099295  0.2627640555262256
  0.7225743867228048  0.6287497497386153  0.2606943942463988
  0.7028556492958825  0.6173816997902064  0.2284753574038237
  0.7225732003637255  0.6515430737947233  0.2285051634025882
  0.7225742203835352  0.6572177230733305  0.3354184973480949
  0.7670794151252635  0.6771274294178000  0.3011839312441265
  0.7670806014843441  0.6543341053616921  0.3333731620879373
  0.7473618640574203  0.6429660554132832  0.3011541252453622
  0.7225721683085480  0.6800124922860857  0.3032296653653622
  0.7225601940193170  0.6285522831676242  0.3759084332069006
  0.7028579179274377  0.6913836123330063  0.3354428233677641
  0.7028532478635747  0.6685504110363604  0.3738328930869006
  0.7225719852904980  0.6799184609847690  0.4060519299294758
  0.7422855901931585  0.6685464643460122  0.3738401007129862
  0.7422918411118107  0.6913799884269515  0.3354487490130638
  0.7473545598320523  0.6143390475914680  0.3354428233677641
  0.7670674408360330  0.6256672202993385  0.3738626990856652
  0.7918680788189590  0.6685504110363604  0.3738328930869006
  0.7918727488828216  0.6913836123330063  0.3354428233677641
  0.8115868162458824  0.6799184609847690  0.4060519299294758
  0.6335224465406480  0.4971624464393384  0.4465414669272034
  0.6335258679927654  0.4516683844717919  0.4080972651896333
  0.6532434887210413  0.4858306498254131  0.4081275168546021
  0.6532372378023883  0.4629971257444737  0.4465188685545248
  0.6780300306793169  0.5000475093076246  0.4485872010484390
  0.6977554268531575  0.5400416904860122  0.4465188685545248
  0.6780440570435351  0.5287129492133302  0.4080972651896333
  0.6583277545874371  0.5628788384730065  0.4081215912093025
  0.6977616777718105  0.5628752145669512  0.4081275168546021
  0.6583111102343424  0.4885854280578986  0.5191904287699776
  0.6335104722514171  0.4457022373208769  0.5192202347687421
  0.6780320827543038  0.4772527400948690  0.4807760330311719
  0.6977434525639270  0.4885814813675506  0.5191976363960632
  0.6335236328997282  0.4743691223832306  0.4787306977710143
  0.6780180563900859  0.4485873001891629  0.5212659688899776
  0.6977497034825796  0.5114150054484899  0.4808062846961406
  0.6583157802982066  0.5114186293545447  0.4808003590508410
  0.6780286613021863  0.5227468020624157  0.5192202347687421
  0.6335214144854708  0.5256318649307012  0.5212659688899776
  0.6780418219504974  0.5514136871247692  0.4787306977710143
  0.6335451800458819  0.6284582518663073  0.4787306977710143
  0.6532587849485428  0.6170862552275509  0.4465188685545248
  0.6335474151389195  0.6057575139548689  0.4080972651896333
  0.6138264426189586  0.6170902019178987  0.4465116609284391
  0.6780536299004579  0.6313418695779457  0.4807760330311719
  0.6532650358671954  0.6399197793084899  0.4081275168546021
  0.6335439936868026  0.6512515759224153  0.4465414669272034
  0.6780656041896893  0.6828020786964074  0.4080972651896333
  0.6780515778254710  0.6541366387907014  0.4485872010484390
  0.6138311126828220  0.6399234032145448  0.4081215912093025
  0.6335320193975712  0.5997913668039540  0.5192202347687421
  0.6138191383935906  0.5884631940960834  0.4808003590508410
  0.6532468106593119  0.5656260461090892  0.5191976363960632
  0.6780396035362402  0.6026764296722397  0.5212659688899776
  0.6977649997100807  0.6426706108506278  0.5191976363960632
  0.6583326573804970  0.6426745575409758  0.5191904287699776
  0.6977712506287337  0.6655041349315669  0.4808062846961406
  0.6583373274443602  0.6655077588376217  0.4808003590508410
  0.6335429616316254  0.6797209944137782  0.5212659688899776
  0.6780502084483409  0.6768359315454923  0.5192202347687421
  0.7028197264281888  0.4630010724348217  0.4465116609284391
  0.7028243964920522  0.4858342737314679  0.4081215912093025
  0.7473379154789580  0.5400456371763603  0.4465116609284391
  0.7670566529058822  0.5514136871247692  0.4787306977710143
  0.7225372774960328  0.4971624464393384  0.4465414669272034
  0.7225384638551130  0.4743691223832306  0.4787306977710143
  0.7225502718050735  0.5542973048364074  0.4807760330311719
  0.7473306112535909  0.5114186293545447  0.4808003590508410
  0.7473259411897276  0.4885854280578986  0.5191904287699776
  0.7225253032068019  0.4457022373208769  0.5192202347687421
  0.7670434922575711  0.5227468020624157  0.5192202347687421
  0.7225362454408553  0.5256318649307012  0.5212659688899776
  0.7028339693489754  0.5884631940960834  0.4808003590508410
  0.7225482197300861  0.5770920740491630  0.4485872010484390
  0.7918488003043601  0.5884631940960834  0.4808003590508410
  0.7670554665468016  0.5742070111808770  0.4465414669272034
  0.7473425855428214  0.5628788384730065  0.4081215912093025
  0.7422678925333488  0.5884595701900281  0.4808062846961406
  0.7028292992851125  0.5656299927994372  0.5191904287699776
  0.7918441302404968  0.5656299927994372  0.5191904287699776
  0.7422616416146962  0.5656260461090892  0.5191976363960632
  0.7225468503529555  0.5997913668039540  0.5192202347687421
  0.8115616813083403  0.5997913668039540  0.5192202347687421
  0.7670544344916240  0.6026764296722397  0.5212659688899776
  0.7670664087808557  0.6541366387907014  0.4485872010484390
  0.7422798668225802  0.6399197793084899  0.4081275168546021
  0.7028412735743425  0.6170902019178987  0.4465116609284391
  0.7225588246421869  0.6512515759224153  0.4465414669272034
  0.7225622460943040  0.6057575139548689  0.4080972651896333
  0.7422736159039267  0.6170862552275509  0.4465188685545248
  0.7028459436382063  0.6399234032145448  0.4081215912093025
  0.7225600110012667  0.6284582518663073  0.4787306977710143
  0.7473521583997446  0.6655077588376217  0.4808003590508410
  0.7473474883358817  0.6426745575409758  0.5191904287699776
  0.7670650394037252  0.6768359315454923  0.5192202347687421
  0.7225577925870094  0.6797209944137782  0.5212659688899776
  0.8115736555975717  0.6512515759224153  0.4465414669272034
  0.7670804351450736  0.6828020786964074  0.4080972651896333
  0.7918607745935911  0.6399234032145448  0.4081215912093025
  0.7918561045297273  0.6170902019178987  0.4465116609284391
  0.8115748419566514  0.6284582518663073  0.4787306977710143
  0.7670684608558422  0.6313418695779457  0.4807760330311719
  0.8363669893551293  0.6655077588376217  0.4808003590508410
  0.7867860815841184  0.6655041349315669  0.4808062846961406
  0.7867798306654655  0.6426706108506278  0.5191976363960632
  0.8363623192912665  0.6426745575409758  0.5191904287699776
  0.8115726235423941  0.6797209944137782  0.5212659688899776
  0.8560798703591099  0.6768359315454923  0.5192202347687421
  0.3664109108037250  0.0860637692362616  0.5918990026102804
  0.3466980297997443  0.0747355965283910  0.5534791268923795
  0.3861319529841183  0.0747319726223359  0.5534850525376792
  0.4109205470173812  0.0661540628917919  0.6261335687142487
  0.4357128607551291  0.0747355965283910  0.5534791268923795
  0.4751405330208500  0.0518984485413969  0.5918764042376016
  0.4554269281181899  0.0632704451801537  0.6240882334540911
  0.4751467839395030  0.0747319726223359  0.5534850525376792
  0.4999353779727655  0.0661540628917919  0.6261335687142487
  0.4554257417591098  0.0860637692362616  0.5918990026102804
  0.4306319168270044  0.0774828041644738  0.6645551720791399
  0.4802144054528050  0.0774867508548220  0.6645479644530544
  0.3219176903512273  0.1176142720102533  0.5534548008727104
  0.3219036639870091  0.0889488321045473  0.5939447367315160
  0.2774092404966513  0.1147306542986152  0.5514094656125527
  0.3664240714520361  0.1147306542986152  0.5514094656125527
  0.3021967178312663  0.1289469599732832  0.5918691966115160
  0.3416290601608502  0.1289430132829353  0.5918764042376016
  0.2774090741573813  0.1431986276333302  0.6261335687142487
  0.3664239051127661  0.1431986276333302  0.6261335687142487
  0.3219154552581900  0.1403150099216921  0.6240882334540911
  0.3416353110795027  0.1517765373638744  0.5534850525376792
  0.3022013878951292  0.1517801612699296  0.5534791268923795
  0.2774210484466118  0.1946588367517919  0.5534548008727104
  0.2577000759266508  0.2059915247148218  0.5918691966115160
  0.2774188133535745  0.2173595746632305  0.6240882334540911
  0.2971324182562350  0.2059875780244738  0.5918764042376016
  0.3219142688991095  0.1631083339777999  0.5918990026102804
  0.3664358794019966  0.1946588367517919  0.5534548008727104
  0.3467149068820355  0.2059915247148218  0.5918691966115160
  0.3219274295474205  0.1917752190401537  0.5514094656125527
  0.3664336443089592  0.2173595746632305  0.6240882334540911
  0.3664218530377792  0.1659933968460859  0.5939447367315160
  0.3219272632081505  0.2202431923748688  0.6261335687142487
  0.2971204439670041  0.1545273689060123  0.6645551720791399
  0.2576881016374203  0.1545313155963603  0.6645479644530544
  0.2774068390643435  0.1658993655447692  0.6967670012956295
  0.2971266948856567  0.1773608929869513  0.6261638203792175
  0.2774056527052638  0.1886926896008771  0.6645777704518190
  0.3861352749223889  0.1545273689060123  0.6645551720791399
  0.3664098787485479  0.1145331877276243  0.6666235045730544
  0.3416233367902722  0.1003163282454130  0.6261638203792175
  0.3467029325928050  0.1545313155963603  0.6645479644530544
  0.3664216700197284  0.1658993655447692  0.6967670012956295
  0.3467076026566675  0.1773645168930065  0.6261578947339179
  0.3861415258410414  0.1773608929869513  0.6261638203792175
  0.3219152889189196  0.1687829832564074  0.6988123365557872
  0.3664204836606482  0.1886926896008771  0.6645777704518190
  0.3219132368439323  0.1915777524691628  0.6666235045730544
  0.4109302862135748  0.1403150099216921  0.6240882334540911
  0.4999451171689592  0.1403150099216921  0.6240882334540911
  0.4109184949423939  0.0889488321045473  0.5939447367315160
  0.4999333258977786  0.0889488321045473  0.5939447367315160
  0.4999473522619964  0.1176142720102533  0.5534548008727104
  0.4802263797420354  0.1289469599732832  0.5918691966115160
  0.4554389024074204  0.1147306542986152  0.5514094656125527
  0.4109325213066117  0.1176142720102533  0.5534548008727104
  0.3912115487866507  0.1289469599732832  0.5918691966115160
  0.4306438911162349  0.1289430132829353  0.5918764042376016
  0.4306501420348875  0.1517765373638744  0.5534850525376792
  0.3912162188505136  0.1517801612699296  0.5534791268923795
  0.3861472492116194  0.2059875780244738  0.5918764042376016
  0.4109290998544938  0.1631083339777999  0.5918990026102804
  0.4109422605028053  0.1917752190401537  0.5514094656125527
  0.4554366839931631  0.1659933968460859  0.5939447367315160
  0.4357297378374203  0.2059915247148218  0.5918691966115160
  0.4999570914581896  0.1917752190401537  0.5514094656125527
  0.4554507103573809  0.1946588367517919  0.5534548008727104
  0.4999439308098785  0.1631083339777999  0.5918990026102804
  0.4554484752643440  0.2173595746632305  0.6240882334540911
  0.4751620801670041  0.2059875780244738  0.5918764042376016
  0.4802310498058983  0.1517801612699296  0.5534791268923795
  0.3912042445612831  0.1003199521514679  0.6261578947339179
  0.4109171255652637  0.1116481248593384  0.6645777704518190
  0.4554247097039322  0.1145331877276243  0.6666235045730544
  0.4306381677456566  0.1003163282454130  0.6261638203792175
  0.4554267617789195  0.0917384185148690  0.6988123365557872
  0.4554387360681504  0.1431986276333302  0.6261335687142487
  0.4999331428797282  0.0888548008032306  0.6967670012956295
  0.4999319565206485  0.1116481248593384  0.6645777704518190
  0.4751501058777732  0.1545273689060123  0.6645551720791399
  0.4802190755166679  0.1003199521514679  0.6261578947339179
  0.4357224336120523  0.1773645168930065  0.6261578947339179
  0.4357177635481894  0.1545313155963603  0.6645479644530544
  0.4109301198743039  0.1687829832564074  0.6988123365557872
  0.4109280677993171  0.1915777524691628  0.6666235045730544
  0.4109420941635353  0.2202431923748688  0.6261335687142487
  0.4554353146160334  0.1886926896008771  0.6645777704518190
  0.4554365009751131  0.1658993655447692  0.6967670012956295
  0.4999428987547014  0.1915777524691628  0.6666235045730544
  0.4751563567964258  0.1773608929869513  0.6261638203792175
  0.4999569251189196  0.2202431923748688  0.6261335687142487
  0.3021989864628215  0.2029488725160834  0.6988366625754564
  0.2774046206500867  0.2171621080922398  0.7393022724145929
  0.3219130538258823  0.1914837211678460  0.7694457691371682
  0.2526180786918106  0.2029452486100284  0.6988425882207560
  0.3861295515518105  0.1259006838684900  0.6988425882207560
  0.3466956283674371  0.1259043077745449  0.6988366625754564
  0.3664085093714177  0.1372324804824155  0.7372565382933575
  0.3912018431289753  0.1514886633976217  0.7715154304169949
  0.3664194516054710  0.2171621080922398  0.7393022724145929
  0.3664215036804579  0.1943673388794842  0.7714911043973258
  0.4751443825071953  0.1259006838684900  0.6988425882207560
  0.4357104593228218  0.1259043077745449  0.6988366625754564
  0.4999309244654709  0.1401175433507013  0.7393022724145929
  0.4554233403268020  0.1372324804824155  0.7372565382933575
  0.4109160935100861  0.1401175433507013  0.7393022724145929
  0.4802166740843601  0.1514886633976217  0.7715154304169949
  0.4306357663133493  0.1514850394915670  0.7715213560622943
  0.3912091473543434  0.1801156712194372  0.7372267322945930
  0.3912138174182063  0.2029488725160834  0.6988366625754564
  0.4109266984221869  0.2142770452239539  0.7372565382933575
  0.4306477406025798  0.2029452486100284  0.6988425882207560
  0.4306414896839272  0.1801117245290892  0.7372339399206786
  0.4109278847812666  0.1914837211678460  0.7694457691371682
  0.4554342825608553  0.2171621080922398  0.7393022724145929
  0.4554363346358427  0.1943673388794842  0.7714911043973258
  0.4999427157366514  0.1914837211678460  0.7694457691371682
  0.3467005311604969  0.2057000268425141  0.8099055001361315
  0.3861328734900811  0.2056960801521661  0.8099127077622170
  0.4109277184419966  0.2199516945025613  0.8441698722388640
  0.4999295550883407  0.1628168361054924  0.8099353061348957
  0.4554223082716253  0.1657018989737782  0.8119810402561313
  0.4751477044454654  0.2056960801521661  0.8099127077622170
  0.4357153621158817  0.2057000268425141  0.8099055001361315
  0.4999425493973814  0.2199516945025613  0.8441698722388640
  0.4554340995428054  0.2170680767909229  0.8421245369787066
  0.2329244065419962  0.2717034014933303  0.5534548008727104
  0.2329209850898788  0.3171974634608769  0.5918990026102804
  0.2329221714489589  0.2944041394047691  0.6240882334540911
  0.2774306213035350  0.2972877571164072  0.6261335687142487
  0.2526420272702721  0.3058656668469513  0.5534850525376792
  0.2971386691748876  0.2288211021054130  0.5534850525376792
  0.2774176269944943  0.2401528987193385  0.5918990026102804
  0.2526357763516195  0.2830321427660122  0.5918764042376016
  0.2577047459905137  0.2288247260114679  0.5534791268923795
  0.2526300529810411  0.2544054577284899  0.6261638203792175
  0.2774307876428050  0.2688197837816923  0.5514094656125527
  0.3022182649774200  0.2830360894563604  0.5918691966115160
  0.3467195769458984  0.2288247260114679  0.5534791268923795
  0.3022229350412829  0.3058692907530065  0.5534791268923795
  0.3416568582256568  0.3058656668469513  0.5534850525376792
  0.3219392374973810  0.2717034014933303  0.5534548008727104
  0.3416506073070038  0.2830321427660122  0.5918764042376016
  0.3664324579498787  0.2401528987193385  0.5918990026102804
  0.3219358160452636  0.3171974634608769  0.5918990026102804
  0.3416448839364259  0.2544054577284899  0.6261638203792175
  0.3219252111331632  0.2430379615876243  0.5939447367315160
  0.3022109607520524  0.2544090816345447  0.6261578947339179
  0.3219370024043437  0.2944041394047691  0.6240882334540911
  0.2329341457381899  0.3458643485232304  0.5514094656125527
  0.2577143188474368  0.3314536463760833  0.6261578947339179
  0.2774285692285476  0.3200825263291627  0.5939447367315160
  0.2577216230728044  0.3600806541978988  0.5918691966115160
  0.2774425955927655  0.3487479662348687  0.5534548008727104
  0.2774403604997281  0.3714487041463074  0.6240882334540911
  0.2329339793989194  0.3743323218579458  0.6261335687142487
  0.2577262931366673  0.3829138554945446  0.5534791268923795
  0.2526516001271952  0.4084945872115668  0.6261638203792175
  0.2774391741406480  0.3942420282024153  0.5918990026102804
  0.2329319273239321  0.3971270910707011  0.5939447367315160
  0.2971539654023887  0.3600767075075508  0.5918764042376016
  0.2971482420318103  0.3314500224700282  0.6261638203792175
  0.3219489766935742  0.3458643485232304  0.5514094656125527
  0.3467291498028217  0.3314536463760833  0.6261578947339179
  0.3467411240920521  0.3829138554945446  0.5534791268923795
  0.3219488103543042  0.3743323218579458  0.6261335687142487
  0.3467364540281892  0.3600806541978988  0.5918691966115160
  0.2971602163210413  0.3829102315884899  0.5534850525376792
  0.3416664310825795  0.4084945872115668  0.6261638203792175
  0.3219467582793168  0.3971270910707011  0.5939447367315160
  0.3022325078982061  0.4084982111176218  0.6261578947339179
  0.2774523347889591  0.4229089132647690  0.5514094656125527
  0.3219607846435351  0.4257925309764074  0.5534548008727104
  0.2971300168239273  0.2571562892706277  0.7372339399206786
  0.2526238020623885  0.2315719336475507  0.6645551720791399
  0.2774186470143040  0.2458275479979459  0.6988123365557872
  0.2576976744943435  0.2571602359609758  0.7372267322945930
  0.2971362677425798  0.2799898133515670  0.6988425882207560
  0.2577023445582060  0.2799934372576218  0.6988366625754564
  0.2577096487835739  0.3086204450794373  0.6645479644530544
  0.2774152255621866  0.2913216099654924  0.7372565382933575
  0.2971419911131578  0.3086164983890893  0.6645551720791399
  0.2774283862104977  0.3199884950278460  0.6967670012956295
  0.2329220051096889  0.3228721127394842  0.6988123365557872
  0.3664334779696888  0.2458275479979459  0.6988123365557872
  0.3416386330177733  0.2315719336475507  0.6645551720791399
  0.3467125054497278  0.2571602359609758  0.7372267322945930
  0.3664314258947015  0.2686223172107012  0.6666235045730544
  0.3467171755135907  0.2799934372576218  0.6988366625754564
  0.3219228097008559  0.2942066728337780  0.7393022724145929
  0.3219368360650733  0.3228721127394842  0.6988123365557872
  0.3664300565175714  0.2913216099654924  0.7372565382933575
  0.3467244797389588  0.3086204450794373  0.6645479644530544
  0.2774271998514175  0.3427818190839539  0.6645777704518190
  0.2526333749193118  0.3342008540121660  0.7372339399206786
  0.2526396258379643  0.3570343780931053  0.6988425882207560
  0.2774261677962399  0.3712512375753166  0.7393022724145929
  0.2526453492085426  0.3856610631306276  0.6645551720791399
  0.2329317443058821  0.3970330597693843  0.6967670012956295
  0.2774401941604581  0.3999166774810228  0.6988123365557872
  0.2971515639700810  0.4112454187537045  0.7372339399206786
  0.2577192216404972  0.4112493654440526  0.7372267322945930
  0.2774381420854709  0.4227114466937780  0.6666235045730544
  0.2329305579468024  0.4198263838254924  0.6645777704518190
  0.3022205336089752  0.3570380019991604  0.6988366625754564
  0.3022158635451123  0.3342048007025142  0.7372267322945930
  0.3416482058746965  0.3342008540121660  0.7372339399206786
  0.3664420308068018  0.3427818190839539  0.6645777704518190
  0.3219347839900864  0.3456668819522397  0.6666235045730544
  0.3416544567933491  0.3570343780931053  0.6988425882207560
  0.3219334146129558  0.3683661747070308  0.7372565382933575
  0.3664409987516251  0.3712512375753166  0.7393022724145929
  0.3416601801639270  0.3856610631306276  0.6645551720791399
  0.3022278378343432  0.3856650098209756  0.6645479644530544
  0.3219465752612669  0.3970330597693843  0.6967670012956295
  0.3219453889021867  0.4198263838254924  0.6645777704518190
  0.3912330959328048  0.2830360894563604  0.5918691966115160
  0.3861535001302719  0.2288211021054130  0.5534850525376792
  0.3664456185981897  0.2688197837816923  0.5514094656125527
  0.3912257917074368  0.2544090816345447  0.6261578947339179
  0.3664454522589197  0.2972877571164072  0.6261335687142487
  0.4109400420885476  0.2430379615876243  0.5939447367315160
  0.3912377659966672  0.3058692907530065  0.5534791268923795
  0.4306654382623886  0.2830321427660122  0.5918764042376016
  0.4306597148918107  0.2544054577284899  0.6261638203792175
  0.4109518333597281  0.2944041394047691  0.6240882334540911
  0.4109540684527658  0.2717034014933303  0.5534548008727104
  0.4306716891810412  0.3058656668469513  0.5534850525376792
  0.4999548730439323  0.2430379615876243  0.5939447367315160
  0.4357344079012828  0.2288247260114679  0.5534791268923795
  0.4554472889052634  0.2401528987193385  0.5918990026102804
  0.4751683310856567  0.2288211021054130  0.5534850525376792
  0.4802406226628215  0.2544090816345447  0.6261578947339179
  0.4554604495535745  0.2688197837816923  0.5514094656125527
  0.4554602832143040  0.2972877571164072  0.6261335687142487
  0.4802525969520520  0.3058692907530065  0.5534791268923795
  0.4802479268881896  0.2830360894563604  0.5918691966115160
  0.4999666643151128  0.2944041394047691  0.6240882334540911
  0.4999688994081501  0.2717034014933303  0.5534548008727104
  0.3664551914551129  0.3714487041463074  0.6240882334540911
  0.4109506470006479  0.3171974634608769  0.5918990026102804
  0.3861630729871951  0.3314500224700282  0.6261638203792175
  0.4109638076489590  0.3458643485232304  0.5514094656125527
  0.3861687963577730  0.3600767075075508  0.5918764042376016
  0.3664434001839324  0.3200825263291627  0.5939447367315160
  0.3664574265481502  0.3487479662348687  0.5534548008727104
  0.3861750472764260  0.3829102315884899  0.5534850525376792
  0.4109615892347017  0.3971270910707011  0.5939447367315160
  0.3664540050960323  0.3942420282024153  0.5918990026102804
  0.3664671657443434  0.4229089132647690  0.5514094656125527
  0.3912473388535909  0.4084982111176218  0.6261578947339179
  0.4999654779560326  0.3171974634608769  0.5918990026102804
  0.4751779039425799  0.3314500224700282  0.6261638203792175
  0.4357439807582060  0.3314536463760833  0.6261578947339179
  0.4554582311393168  0.3200825263291627  0.5939447367315160
  0.4751836273131578  0.3600767075075508  0.5918764042376016
  0.4554722575035350  0.3487479662348687  0.5534548008727104
  0.4751898782318104  0.3829102315884899  0.5534850525376792
  0.4357559550474365  0.3829138554945446  0.5534791268923795
  0.4802621698089752  0.4084982111176218  0.6261578947339179
  0.4554819966997282  0.4229089132647690  0.5514094656125527
  0.3861568220685425  0.3086164983890893  0.6645551720791399
  0.4306534639731581  0.2315719336475507  0.6645551720791399
  0.3912211216435747  0.2315758803378987  0.6645479644530544
  0.4357393106943431  0.3086204450794373  0.6645479644530544
  0.4109386727114174  0.2657372543424154  0.6645777704518190
  0.4109398590704976  0.2429439302863076  0.6967670012956295
  0.4357320064689755  0.2799934372576218  0.6988366625754564
  0.3861448477793121  0.2571562892706277  0.7372339399206786
  0.4357273364051126  0.2571602359609758  0.7372267322945930
  0.3861510986979642  0.2799898133515670  0.6988425882207560
  0.4109376406562398  0.2942066728337780  0.7393022724145929
  0.4999546900258823  0.2429439302863076  0.6967670012956295
  0.4802359525989591  0.2315758803378987  0.6645479644530544
  0.4999535036668026  0.2657372543424154  0.6645777704518190
  0.4554483089250736  0.2458275479979459  0.6988123365557872
  0.4751596787346964  0.2571562892706277  0.7372339399206786
  0.4554462568500863  0.2686223172107012  0.6666235045730544
  0.4751659296533490  0.2799898133515670  0.6988425882207560
  0.4999524716116246  0.2942066728337780  0.7393022724145929
  0.4554448874729561  0.2913216099654924  0.7372565382933575
  0.4751716530239273  0.3086164983890893  0.6645551720791399
  0.4554580481212668  0.3199884950278460  0.6967670012956295
  0.4999664979758428  0.3228721127394842  0.6988123365557872
  0.3664529730408556  0.4227114466937780  0.6666235045730544
  0.4109602198575715  0.4198263838254924  0.6645777704518190
  0.3912426687897280  0.3856650098209756  0.6645479644530544
  0.4109614062166512  0.3970330597693843  0.6967670012956295
  0.4306692877487334  0.3570343780931053  0.6988425882207560
  0.4109482455683406  0.3683661747070308  0.7372565382933575
  0.3912306945004970  0.3342048007025142  0.7372267322945930
  0.4306630368300808  0.3342008540121660  0.7372339399206786
  0.4554568617621866  0.3427818190839539  0.6645777704518190
  0.4802455254558818  0.3342048007025142  0.7372267322945930
  0.4802501955197447  0.3570380019991604  0.6988366625754564
  0.4999644459008555  0.3456668819522397  0.6666235045730544
  0.4554558297070090  0.3712512375753166  0.7393022724145929
  0.4999630765237253  0.3683661747070308  0.7372565382933575
  0.4306750111193118  0.3856610631306276  0.6645551720791399
  0.4802574997451123  0.3856650098209756  0.6645479644530544
  0.4751812258808505  0.4112454187537045  0.7372339399206786
  0.4554678039962399  0.4227114466937780  0.6666235045730544
  0.4357488835512662  0.4112493654440526  0.7372267322945930
  0.4554698560712273  0.3999166774810228  0.6988123365557872
  0.3219108354116245  0.2427464637153167  0.8119810402561313
  0.2774164119212668  0.2685282859093846  0.7694457691371682
  0.2576903702689755  0.2285332281391604  0.7715154304169949
  0.2971242934533490  0.2285296042331052  0.7715213560622943
  0.3022038892558822  0.2827445915840527  0.8099055001361315
  0.2774162455819967  0.2969962592440995  0.8441698722388640
  0.2526276515487338  0.3055741689746437  0.7715213560622943
  0.3219214403237253  0.3169059655885693  0.8099353061348957
  0.3022085593197447  0.3055777928806986  0.7715154304169949
  0.2774141935070094  0.3197910284568551  0.8119810402561313
  0.2971338663102721  0.3311585245977208  0.8442001239038329
  0.2576999431258987  0.3311621485037755  0.8441941982585333
  0.3467052012243602  0.2285332281391604  0.7715154304169949
  0.3664180822283404  0.2398614008470308  0.8099353061348957
  0.3861391244087337  0.2285296042331052  0.7715213560622943
  0.3416305082148877  0.2541139598561822  0.8442001239038329
  0.3219248617758428  0.2714119036210226  0.7714911043973258
  0.3664312428766515  0.2685282859093846  0.7694457691371682
  0.3416362315854656  0.2827406448937046  0.8099127077622170
  0.3219226266828055  0.2941126415324615  0.8421245369787066
  0.3664310765373811  0.2969962592440995  0.8441698722388640
  0.3467147740812830  0.3311621485037755  0.8441941982585333
  0.3416424825041182  0.3055741689746437  0.7715213560622943
  0.2329315779666121  0.4255010331040996  0.7714911043973258
  0.2774282198712272  0.3484564683625612  0.7714911043973258
  0.2774379590674209  0.4226174153924613  0.7694457691371682
  0.2971458405995026  0.3826187337161821  0.7715213560622943
  0.2577119174151291  0.3826223576222372  0.7715154304169949
  0.2577072473512667  0.3597891563255909  0.8099055001361315
  0.2971395896808505  0.3597852096352431  0.8099127077622170
  0.2774247984191098  0.3939505303301078  0.8099353061348957
  0.2526372244056570  0.4082030893392590  0.8442001239038329
  0.2774259847781899  0.3711572062740001  0.8421245369787066
  0.3219346009720360  0.3455728506509232  0.7694457691371682
  0.3664527900228052  0.4226174153924613  0.7694457691371682
  0.3219464089219964  0.4255010331040996  0.7714911043973258
  0.3664430508266120  0.3484564683625612  0.7714911043973258
  0.3467267483705139  0.3826223576222372  0.7715154304169949
  0.3467220783066510  0.3597891563255909  0.8099055001361315
  0.3664396293744945  0.3939505303301078  0.8099353061348957
  0.3219323825577782  0.3968355931983935  0.8119810402561313
  0.3664408157335743  0.3711572062740001  0.8421245369787066
  0.3416520553610413  0.4082030893392590  0.8442001239038329
  0.3219344346327651  0.3740408239856381  0.8441698722388640
  0.3022181321766679  0.4082067132453141  0.8441941982585333
  0.4357200321797446  0.2285332281391604  0.7715154304169949
  0.4109396927312271  0.2714119036210226  0.7714911043973258
  0.3912233902751294  0.3055777928806986  0.7715154304169949
  0.4306573134595029  0.3055741689746437  0.7715213560622943
  0.4306510625408503  0.2827406448937046  0.8099127077622170
  0.4109362712791096  0.3169059655885693  0.8099353061348957
  0.4109256663670093  0.2427464637153167  0.8119810402561313
  0.3912114159858985  0.2541175837622373  0.8441941982585333
  0.4306453391702720  0.2541139598561822  0.8442001239038329
  0.4554329131837252  0.2398614008470308  0.8099353061348957
  0.4802262469412829  0.2541175837622373  0.8441941982585333
  0.4751539553641185  0.2285296042331052  0.7715213560622943
  0.4999404973223945  0.2427464637153167  0.8119810402561313
  0.4554460738320358  0.2685282859093846  0.7694457691371682
  0.4802335511666513  0.2827445915840527  0.8099055001361315
  0.4554459074927659  0.2969962592440995  0.8441698722388640
  0.4999522885935746  0.2941126415324615  0.8421245369787066
  0.4554438554177785  0.3197910284568551  0.8119810402561313
  0.4357369092620353  0.3597891563255909  0.8099055001361315
  0.4357296050366677  0.3311621485037755  0.8441941982585333
  0.4109494319274207  0.3455728506509232  0.7694457691371682
  0.3861544206362348  0.3597852096352431  0.8099127077622170
  0.4109492655881499  0.3740408239856381  0.8441698722388640
  0.3861606715548874  0.3826187337161821  0.7715213560622943
  0.4109472135131630  0.3968355931983935  0.8119810402561313
  0.3912329631320522  0.4082067132453141  0.8441941982585333
  0.4306668863164261  0.4082030893392590  0.8442001239038329
  0.4109612398773808  0.4255010331040996  0.7714911043973258
  0.4751635282210412  0.3311585245977208  0.8442001239038329
  0.4554556466889590  0.3711572062740001  0.8421245369787066
  0.4751692515916196  0.3597852096352431  0.8099127077622170
  0.4999642628828051  0.3455728506509232  0.7694457691371682
  0.4554578817819963  0.3484564683625612  0.7714911043973258
  0.4999640965435346  0.3740408239856381  0.8441698722388640
  0.4751755025102721  0.3826187337161821  0.7715213560622943
  0.4357415793258982  0.3826223576222372  0.7715154304169949
  0.4554544603298789  0.3939505303301078  0.8099353061348957
  0.4999620444685478  0.3968355931983935  0.8119810402561313
  0.4554676209781900  0.4226174153924613  0.7694457691371682
  0.4802477940874365  0.4082067132453141  0.8441941982585333
  0.4109352392239325  0.3453753840799321  0.8846598080976696
  0.4109242969898791  0.2654457564701078  0.8826140739764341
  0.3664276550852636  0.3424903212116462  0.8826140739764341
  0.3467101040174201  0.3083289472071296  0.8825842679776699
  0.3219204082685477  0.3453753840799321  0.8846598080976696
  0.3861424463470039  0.3083250005167815  0.8825914756037554
  0.3219310131806485  0.4195348859531847  0.8826140739764341
  0.3022134621128045  0.3853735119486678  0.8825842679776699
  0.2774237663639326  0.4224199488214705  0.8846598080976696
  0.3416458044423888  0.3853695652583199  0.8825914756037554
  0.3664385973193169  0.4224199488214705  0.8846598080976696
  0.3912282930681888  0.3853735119486678  0.8825842679776699
  0.4109458441360329  0.4195348859531847  0.8826140739764341
  0.4306606353977731  0.3853695652583199  0.8825914756037554
  0.4109470304951130  0.3967415618970769  0.9148033048202450
  0.3912209888428217  0.3567465041268524  0.9168729661000716
  0.4306549120271952  0.3567428802207976  0.9168788917453715
  0.4999391279452635  0.2654457564701078  0.8826140739764341
  0.4554318811285476  0.2683308193383936  0.8846598080976696
  0.4751572773023887  0.3083250005167815  0.8825914756037554
  0.4357249349728048  0.3083289472071296  0.8825842679776699
  0.4554436723997285  0.3196969971555384  0.9148033048202450
  0.4999521222543041  0.3225806148671765  0.9168486400804027
  0.4999500701793168  0.3453753840799321  0.8846598080976696
  0.4554424860406484  0.3424903212116462  0.8826140739764341
  0.4999606750914176  0.4195348859531847  0.8826140739764341
  0.4554534282747013  0.4224199488214705  0.8846598080976696
  0.4802431240235736  0.3853735119486678  0.8825842679776699
  0.4999618614504978  0.3967415618970769  0.9148033048202450
  0.4802358197982061  0.3567465041268524  0.9168729661000716
  0.4554554803496890  0.3996251796087150  0.9168486400804027
  0.5444405727144945  0.0860637692362616  0.5918990026102804
  0.5247276917105139  0.0747355965283910  0.5534791268923795
  0.5247230216466510  0.0519023952317450  0.5918691966115160
  0.5444417590735743  0.0632704451801537  0.6240882334540911
  0.5196467477823887  0.0774828041644738  0.6645551720791399
  0.5444415927343043  0.0917384185148690  0.6988123365557872
  0.5196529987010413  0.1003163282454130  0.6261638203792175
  0.5889599481243439  0.1403150099216921  0.6240882334540911
  0.5692412106974202  0.1289469599732832  0.5918691966115160
  0.5196587220716197  0.1289430132829353  0.5918764042376016
  0.5196649729902723  0.1517765373638744  0.5534850525376792
  0.5444535670235352  0.1431986276333302  0.6261335687142487
  0.5692458807612831  0.1517801612699296  0.5534791268923795
  0.5444537333628057  0.1147306542986152  0.5514094656125527
  0.5692339064720526  0.1003199521514679  0.6261578947339179
  0.5444395406593170  0.1145331877276243  0.6666235045730544
  0.5641649368331579  0.1545273689060123  0.6645551720791399
  0.5889467874760332  0.1116481248593384  0.6645777704518190
  0.5247252902782061  0.1259043077745449  0.6988366625754564
  0.6137401212335909  0.1259043077745449  0.6988366625754564
  0.5641592134625800  0.1259006838684900  0.6988425882207560
  0.5444381712821867  0.1372324804824155  0.7372565382933575
  0.6334530022375716  0.1372324804824155  0.7372565382933575
  0.5196505972687336  0.1514850394915670  0.7715213560622943
  0.5196745458471950  0.2544054577284899  0.6261638203792175
  0.5247372645674371  0.1773645168930065  0.6261578947339179
  0.5247492388566676  0.2288247260114679  0.5534791268923795
  0.5444515149485478  0.1659933968460859  0.5939447367315160
  0.5247445687928046  0.2059915247148218  0.5918691966115160
  0.5444621198606482  0.2401528987193385  0.5918990026102804
  0.5641831620410410  0.2288211021054130  0.5534850525376792
  0.5641769111223889  0.2059875780244738  0.5918764042376016
  0.5641711877518105  0.1773608929869513  0.6261638203792175
  0.5444633062197284  0.2173595746632305  0.6240882334540911
  0.5444655413127657  0.1946588367517919  0.5534548008727104
  0.5889697039993166  0.2430379615876243  0.5939447367315160
  0.5889587617652633  0.1631083339777999  0.5918990026102804
  0.5692554536182063  0.2544090816345447  0.6261578947339179
  0.6086893768025797  0.2544054577284899  0.6261638203792175
  0.5889719224135749  0.1917752190401537  0.5514094656125527
  0.5889717560743044  0.2202431923748688  0.6261335687142487
  0.6137520955228218  0.1773645168930065  0.6261578947339179
  0.6137593997481894  0.2059915247148218  0.5918691966115160
  0.6582702845735906  0.2544090816345447  0.6261578947339179
  0.6334769508160329  0.2401528987193385  0.5918990026102804
  0.6137640698120523  0.2288247260114679  0.5534791268923795
  0.6334781371751131  0.2173595746632305  0.6240882334540911
  0.5889597817850735  0.1687829832564074  0.6988123365557872
  0.5444501455714177  0.1886926896008771  0.6645777704518190
  0.5692507835543438  0.2315758803378987  0.6645479644530544
  0.5889577297100862  0.1915777524691628  0.6666235045730544
  0.5247325945035738  0.1545313155963603  0.6645479644530544
  0.5692434793289758  0.2029488725160834  0.6988366625754564
  0.5444631398804579  0.2458275479979459  0.6988123365557872
  0.5444513319304974  0.1658993655447692  0.6967670012956295
  0.5196682949285428  0.2315719336475507  0.6645551720791399
  0.6334649765268020  0.1886926896008771  0.6645777704518190
  0.6334661628858822  0.1658993655447692  0.6967670012956295
  0.6137474254589590  0.1545313155963603  0.6645479644530544
  0.6582583102843601  0.2029488725160834  0.6988366625754564
  0.6086774025133493  0.2029452486100284  0.6988425882207560
  0.6086831258839271  0.2315719336475507  0.6645551720791399
  0.6582656145097282  0.2315758803378987  0.6645479644530544
  0.6779843519366514  0.2429439302863076  0.6967670012956295
  0.5889695209812666  0.2429439302863076  0.6967670012956295
  0.6334779708358427  0.2458275479979459  0.6988123365557872
  0.6779831655775712  0.2657372543424154  0.6645777704518190
  0.5889683346221865  0.2657372543424154  0.6645777704518190
  0.5247348631351293  0.2285332281391604  0.7715154304169949
  0.5196563206393120  0.1801117245290892  0.7372339399206786
  0.5247301930712664  0.2057000268425141  0.8099055001361315
  0.5444511655912279  0.1943673388794842  0.7714911043973258
  0.5247421673604969  0.2571602359609758  0.7372267322945930
  0.5444491135162401  0.2171621080922398  0.7393022724145929
  0.5641687863195028  0.2285296042331052  0.7715213560622943
  0.5692388092651125  0.1801156712194372  0.7372267322945930
  0.5889563603329561  0.2142770452239539  0.7372565382933575
  0.5641745096900812  0.2571562892706277  0.7372339399206786
  0.5196601701256568  0.2541139598561822  0.8442001239038329
  0.5444489304981901  0.2170680767909229  0.8421245369787066
  0.5444371392270092  0.1657018989737782  0.8119810402561313
  0.5444477441391100  0.2398614008470308  0.8099353061348957
  0.5641625354008503  0.2056960801521661  0.8099127077622170
  0.5889553282777784  0.2427464637153167  0.8119810402561313
  0.5889573803527657  0.2199516945025613  0.8441698722388640
  0.6086750010810411  0.2541139598561822  0.8442001239038329
  0.5692410778966677  0.2541175837622373  0.8441941982585333
  0.6137496940905137  0.2285332281391604  0.7715154304169949
  0.6334639444716254  0.2171621080922398  0.7393022724145929
  0.6137569983158817  0.2571602359609758  0.7372267322945930
  0.6531893406454655  0.2571562892706277  0.7372339399206786
  0.6334659965466122  0.1943673388794842  0.7714911043973258
  0.6531836172748876  0.2285296042331052  0.7715213560622943
  0.6137450240266517  0.2057000268425141  0.8099055001361315
  0.6334625750944943  0.2398614008470308  0.8099353061348957
  0.6531773663562350  0.2056960801521661  0.8099127077622170
  0.6779711912883408  0.2142770452239539  0.7372565382933575
  0.6582536402204973  0.1801156712194372  0.7372267322945930
  0.7027718292712665  0.2571602359609758  0.7372267322945930
  0.7027645250458985  0.2285332281391604  0.7715154304169949
  0.6779723776474209  0.1914837211678460  0.7694457691371682
  0.6779701592331632  0.2427464637153167  0.8119810402561313
  0.6582559088520524  0.2541175837622373  0.8441941982585333
  0.5444467120839324  0.2683308193383936  0.8846598080976696
  0.5889539589006487  0.2654457564701078  0.8826140739764341
  0.5196802692177733  0.2830321427660122  0.5918764042376016
  0.4999786386043437  0.3458643485232304  0.5514094656125527
  0.5196865201364259  0.3058656668469513  0.5534850525376792
  0.5444752805089589  0.2688197837816923  0.5514094656125527
  0.5444730620947015  0.3200825263291627  0.5939447367315160
  0.5444751141696889  0.2972877571164072  0.6261335687142487
  0.5247588117135907  0.3314536463760833  0.6261578947339179
  0.5641927348979642  0.3314500224700282  0.6261638203792175
  0.5247541416497279  0.3086204450794373  0.6645479644530544
  0.5641864839793116  0.3086164983890893  0.6645551720791399
  0.5444610878054706  0.2686223172107012  0.6666235045730544
  0.5444716927175718  0.3427818190839539  0.6645777704518190
  0.5692627578435738  0.2830360894563604  0.5918691966115160
  0.6087013510918102  0.3058656668469513  0.5534850525376792
  0.5692674279074368  0.3058692907530065  0.5534791268923795
  0.5889934695597281  0.3458643485232304  0.5514094656125527
  0.5889837303635349  0.2717034014933303  0.5534548008727104
  0.5889803089114174  0.3171974634608769  0.5918990026102804
  0.6086951001731576  0.2830321427660122  0.5918764042376016
  0.5889814952704976  0.2944041394047691  0.6240882334540911
  0.6334759187608554  0.2686223172107012  0.6666235045730544
  0.6137736426689755  0.3314536463760833  0.6261578947339179
  0.6137689726051122  0.3086204450794373  0.6645479644530544
  0.5889792768562399  0.3456668819522397  0.6666235045730544
  0.4999764201900860  0.3971270910707011  0.5939447367315160
  0.5247707860028212  0.3829138554945446  0.5534791268923795
  0.5247661159389587  0.3600806541978988  0.5918691966115160
  0.5444870884589194  0.3487479662348687  0.5534548008727104
  0.5444836670068014  0.3942420282024153  0.5918990026102804
  0.5444968276551130  0.4229089132647690  0.5514094656125527
  0.5641984582685425  0.3600767075075508  0.5918764042376016
  0.5889912511454708  0.3971270910707011  0.5939447367315160
  0.5642047091871951  0.3829102315884899  0.5534850525376792
  0.6137856169582055  0.3829138554945446  0.5534791268923795
  0.6137809468943431  0.3600806541978988  0.5918691966115160
  0.5444848533658820  0.3714487041463074  0.6240882334540911
  0.4999750508129558  0.4198263838254924  0.6645777704518190
  0.5444826349516247  0.4227114466937780  0.6666235045730544
  0.4999784722650733  0.3743323218579458  0.6261335687142487
  0.5196898420746965  0.3856610631306276  0.6645551720791399
  0.5196960929933491  0.4084945872115668  0.6261638203792175
  0.5692723307004971  0.3856650098209756  0.6645479644530544
  0.5889898817683410  0.4198263838254924  0.6645777704518190
  0.5692770007643599  0.4084982111176218  0.6261578947339179
  0.6087046730300809  0.3856610631306276  0.6645551720791399
  0.5889933032204581  0.3743323218579458  0.6261335687142487
  0.6087109239487334  0.4084945872115668  0.6261638203792175
  0.5444728790766515  0.3199884950278460  0.6967670012956295
  0.5444597184283405  0.2913216099654924  0.7372565382933575
  0.5196778677854657  0.3342008540121660  0.7372339399206786
  0.5247468374243602  0.2799934372576218  0.6988366625754564
  0.5641807606087338  0.2799898133515670  0.6988425882207560
  0.5692603564112662  0.3342048007025142  0.7372267322945930
  0.5889673025670094  0.2942066728337780  0.7393022724145929
  0.6334745493837253  0.2913216099654924  0.7372565382933575
  0.6086926987408504  0.3342008540121660  0.7372339399206786
  0.6137616683797450  0.2799934372576218  0.6988366625754564
  0.5889813289312271  0.3228721127394842  0.6988123365557872
  0.5692530521858985  0.3055777928806986  0.7715154304169949
  0.5444586863731637  0.3197910284568551  0.8119810402561313
  0.5692483821220361  0.2827445915840527  0.8099055001361315
  0.5444609047874206  0.2685282859093846  0.7694457691371682
  0.5889659331898788  0.3169059655885693  0.8099353061348957
  0.5889693546419971  0.2714119036210226  0.7714911043973258
  0.5889790938381898  0.3455728506509232  0.7694457691371682
  0.6086807244516195  0.2827406448937046  0.8099127077622170
  0.6086869753702721  0.3055741689746437  0.7715213560622943
  0.6334735173285476  0.3197910284568551  0.8119810402561313
  0.6334757357428058  0.2685282859093846  0.7694457691371682
  0.5889910681274207  0.3970330597693843  0.6967670012956295
  0.5196841187041182  0.3570343780931053  0.6988425882207560
  0.6086989496595030  0.3570343780931053  0.6988425882207560
  0.4999762371720360  0.3970330597693843  0.6967670012956295
  0.5444846870266120  0.3999166774810228  0.6988123365557872
  0.5692650264751294  0.3570380019991604  0.6988366625754564
  0.5889779074791097  0.3683661747070308  0.7372565382933575
  0.5641960568362349  0.4112454187537045  0.7372339399206786
  0.6137785454620354  0.4112493654440526  0.7372267322945930
  0.5247637145066510  0.4112493654440526  0.7372267322945930
  0.5444706606623938  0.3712512375753166  0.7393022724145929
  0.4999760708327656  0.4255010331040996  0.7714911043973258
  0.5444692912852637  0.3939505303301078  0.8099353061348957
  0.5444727127373811  0.3484564683625612  0.7714911043973258
  0.5247517402174201  0.3597891563255909  0.8099055001361315
  0.5247564102812829  0.3826223576222372  0.7715154304169949
  0.5444824519335747  0.4226174153924613  0.7694457691371682
  0.5641840825470039  0.3597852096352431  0.8099127077622170
  0.5641903334656565  0.3826187337161821  0.7715213560622943
  0.5889768754239330  0.3968355931983935  0.8119810402561313
  0.6137712412366678  0.3826223576222372  0.7715154304169949
  0.5889909017881503  0.4255010331040996  0.7714911043973258
  0.6137665711728049  0.3597891563255909  0.8099055001361315
  0.6582775887989583  0.2830360894563604  0.5918691966115160
  0.6780083005151128  0.3458643485232304  0.5514094656125527
  0.6582822588628215  0.3058692907530065  0.5534791268923795
  0.6335019194143041  0.3487479662348687  0.5534548008727104
  0.7027957778497275  0.3600806541978988  0.5918691966115160
  0.6334901114643436  0.2688197837816923  0.5514094656125527
  0.7027884736243598  0.3314536463760833  0.6261578947339179
  0.6334878930500859  0.3200825263291627  0.5939447367315160
  0.6532132892239269  0.3600767075075508  0.5918764042376016
  0.6779951398668022  0.3171974634608769  0.5918990026102804
  0.6334899451250732  0.2972877571164072  0.6261335687142487
  0.6779963262258819  0.2944041394047691  0.6240882334540911
  0.6532075658533489  0.3314500224700282  0.6261638203792175
  0.6334865236729561  0.3427818190839539  0.6645777704518190
  0.6532013149346965  0.3086164983890893  0.6645551720791399
  0.6334877100320359  0.3199884950278460  0.6967670012956295
  0.6531955915641181  0.2799898133515670  0.6988425882207560
  0.6779941078116246  0.3456668819522397  0.6666235045730544
  0.6582798574305142  0.3570380019991604  0.6988366625754564
  0.6779961598866119  0.3228721127394842  0.6988123365557872
  0.6977137806148873  0.3570343780931053  0.6988425882207560
  0.7225025409874206  0.3199884950278460  0.6967670012956295
  0.7225013546283405  0.3427818190839539  0.6645777704518190
  0.7027764993351293  0.2799934372576218  0.6988366625754564
  0.7472946883858982  0.3570380019991604  0.6988366625754564
  0.7027838035604974  0.3086204450794373  0.6645479644530544
  0.6582918317197447  0.4084982111176218  0.6261578947339179
  0.6334996843212668  0.3714487041463074  0.6240882334540911
  0.6532195401425794  0.3829102315884899  0.5534850525376792
  0.6334984979621862  0.3942420282024153  0.5918990026102804
  0.6335116586104973  0.4229089132647690  0.5514094656125527
  0.6780060821008551  0.3971270910707011  0.5939447367315160
  0.6780081341758424  0.3743323218579458  0.6261335687142487
  0.7225133289175709  0.3942420282024153  0.5918990026102804
  0.7028004479135903  0.3829138554945446  0.5534791268923795
  0.7473066626751290  0.4084982111176218  0.6261578947339179
  0.7225264895658821  0.4229089132647690  0.5514094656125527
  0.7225145152766511  0.3714487041463074  0.6240882334540911
  0.6334995179819963  0.3999166774810228  0.6988123365557872
  0.6334974659070091  0.4227114466937780  0.6666235045730544
  0.6780047127237254  0.4198263838254924  0.6645777704518190
  0.6582871616558814  0.3856650098209756  0.6645479644530544
  0.6780058990828051  0.3970330597693843  0.6967670012956295
  0.6977195039854657  0.3856610631306276  0.6645551720791399
  0.6977257549041183  0.4084945872115668  0.6261638203792175
  0.7225122968623938  0.4227114466937780  0.6666235045730544
  0.7670195436791097  0.4198263838254924  0.6645777704518190
  0.7225143489373806  0.3999166774810228  0.6988123365557872
  0.7473019926112666  0.3856650098209756  0.6645479644530544
  0.7670207300381898  0.3970330597693843  0.6967670012956295
  0.6977075296962347  0.3342008540121660  0.7372339399206786
  0.6582751873666509  0.3342048007025142  0.7372267322945930
  0.6779821335223946  0.2942066728337780  0.7393022724145929
  0.6779939247935750  0.3455728506509232  0.7694457691371682
  0.6779841855973814  0.2714119036210226  0.7714911043973258
  0.6334875436927663  0.3484564683625612  0.7714911043973258
  0.6582678831412829  0.3055777928806986  0.7715154304169949
  0.6977018063256568  0.3055741689746437  0.7715213560622943
  0.6976955554070042  0.2827406448937046  0.8099127077622170
  0.6582632130774209  0.2827445915840527  0.8099055001361315
  0.6779807641452635  0.3169059655885693  0.8099353061348957
  0.6779927384344945  0.3683661747070308  0.7372565382933575
  0.6532108877916196  0.4112454187537045  0.7372339399206786
  0.6334854916177786  0.3712512375753166  0.7393022724145929
  0.6334972828889591  0.4226174153924613  0.7694457691371682
  0.6780057327435355  0.4255010331040996  0.7714911043973258
  0.7027860721920521  0.3826223576222372  0.7715154304169949
  0.6779917063793168  0.3968355931983935  0.8119810402561313
  0.7027814021281901  0.3597891563255909  0.8099055001361315
  0.6531989135023887  0.3597852096352431  0.8099127077622170
  0.6532051644210413  0.3826187337161821  0.7715213560622943
  0.6334841222406480  0.3939505303301078  0.8099353061348957
  0.7670087557489594  0.3455728506509232  0.7694457691371682
  0.7670075693898788  0.3683661747070308  0.7372565382933575
  0.7224893803391096  0.2913216099654924  0.7372565382933575
  0.7472900183220357  0.3342048007025142  0.7372267322945930
  0.7224905666981901  0.2685282859093846  0.7694457691371682
  0.7225023746481501  0.3484564683625612  0.7714911043973258
  0.7472827140966677  0.3055777928806986  0.7715154304169949
  0.7422137444577734  0.3597852096352431  0.8099127077622170
  0.7472780440328056  0.2827445915840527  0.8099055001361315
  0.7669955951006483  0.3169059655885693  0.8099353061348957
  0.7224883482839324  0.3197910284568551  0.8119810402561313
  0.7917962330835739  0.3597891563255909  0.8099055001361315
  0.7422257187470039  0.4112454187537045  0.7372339399206786
  0.7027933764174201  0.4112493654440526  0.7372267322945930
  0.7918082073728049  0.4112493654440526  0.7372267322945930
  0.7225121138443443  0.4226174153924613  0.7694457691371682
  0.7225003225731629  0.3712512375753166  0.7393022724145929
  0.8115269447997286  0.4226174153924613  0.7694457691371682
  0.7670205636989195  0.4255010331040996  0.7714911043973258
  0.8115137841514171  0.3939505303301078  0.8099353061348957
  0.7224989531960327  0.3939505303301078  0.8099353061348957
  0.7670065373347016  0.3968355931983935  0.8119810402561313
  0.7918009031474369  0.3826223576222372  0.7715154304169949
  0.7422199953764260  0.3826187337161821  0.7715213560622943
  0.5641783591764260  0.3311585245977208  0.8442001239038329
  0.5444607384481506  0.2969962592440995  0.8441698722388640
  0.5889671195489594  0.2941126415324615  0.8421245369787066
  0.5247444359920521  0.3311621485037755  0.8441941982585333
  0.5247397659281896  0.3083289472071296  0.8825842679776699
  0.5641721082577734  0.3083250005167815  0.8825914756037554
  0.5444573169960327  0.3424903212116462  0.8826140739764341
  0.5444585033551129  0.3196969971555384  0.9148033048202450
  0.5692626250428213  0.4082067132453141  0.8441941982585333
  0.5444704776443439  0.3711572062740001  0.8421245369787066
  0.5692579549789584  0.3853735119486678  0.8825842679776699
  0.5196817172718105  0.4082030893392590  0.8442001239038329
  0.5196754663531579  0.3853695652583199  0.8825914756037554
  0.5889755060468019  0.4195348859531847  0.8826140739764341
  0.5889649011347016  0.3453753840799321  0.8846598080976696
  0.5444682592300860  0.4224199488214705  0.8846598080976696
  0.5692506507535908  0.3567465041268524  0.9168729661000716
  0.5444703113050734  0.3996251796087150  0.9168486400804027
  0.5196697429825800  0.3567428802207976  0.9168788917453715
  0.6137592669474369  0.3311621485037755  0.8441941982585333
  0.6334755694035350  0.2969962592440995  0.8441698722388640
  0.6531931901318103  0.3311585245977208  0.8442001239038329
  0.6531869392131582  0.3083250005167815  0.8825914756037554
  0.6137545968835739  0.3083289472071296  0.8825842679776699
  0.6334721479514179  0.3424903212116462  0.8826140739764341
  0.6779797320900859  0.3453753840799321  0.8846598080976696
  0.5889789274989194  0.3740408239856381  0.8441698722388640
  0.6334853085997286  0.3711572062740001  0.8421245369787066
  0.6582774559982061  0.4082067132453141  0.8441941982585333
  0.6086965482271952  0.4082030893392590  0.8442001239038329
  0.6582727859343431  0.3853735119486678  0.8825842679776699
  0.6086902973085426  0.3853695652583199  0.8825914756037554
  0.6334830901854708  0.4224199488214705  0.8846598080976696
  0.6086845739379643  0.3567428802207976  0.9168788917453715
  0.6334851422604582  0.3996251796087150  0.9168486400804027
  0.5889766924058821  0.3967415618970769  0.9148033048202450
  0.6779819505043437  0.2941126415324615  0.8421245369787066
  0.7422080210871951  0.3311585245977208  0.8442001239038329
  0.7027740979028216  0.3311621485037755  0.8441941982585333
  0.7224904003589198  0.2969962592440995  0.8441698722388640
  0.7225001395551129  0.3711572062740001  0.8421245369787066
  0.6779937584543038  0.3740408239856381  0.8441698722388640
  0.6977113791825795  0.4082030893392590  0.8442001239038329
  0.7472922869535908  0.4082067132453141  0.8441941982585333
  0.6977051282639269  0.3853695652583199  0.8825914756037554
  0.6779903370021871  0.4195348859531847  0.8826140739764341
  0.7224979211408552  0.4224199488214705  0.8846598080976696
  0.7670085894096885  0.3740408239856381  0.8441698722388640
  0.7867262101379643  0.4082030893392590  0.8442001239038329
  0.3022444821874365  0.4599584202360833  0.5534791268923795
  0.3022398121235736  0.4371252189394371  0.5918691966115160
  0.2329437185951130  0.4484932688878460  0.6240882334540911
  0.2329459536881503  0.4257925309764074  0.5534548008727104
  0.2526573234977731  0.4371212722490890  0.5918764042376016
  0.2526635744164257  0.4599547963300283  0.5534850525376792
  0.2774521684496886  0.4513768865994844  0.6261335687142487
  0.2971697891779644  0.4855391519531052  0.6261638203792175
  0.2774501163747013  0.4741716558122398  0.5939447367315160
  0.2577311959297281  0.4627095745625142  0.6645479644530544
  0.2329425322360329  0.4712865929439539  0.5918990026102804
  0.2577358659935909  0.4855427758591602  0.6261578947339179
  0.2774641427389196  0.5028370957179459  0.5534548008727104
  0.2329556928843435  0.4999534780063075  0.5514094656125527
  0.2774619076458822  0.5255378336293843  0.6240882334540911
  0.2329555265450735  0.5284214513410228  0.6261335687142487
  0.2329534744700866  0.5512162205537782  0.5939447367315160
  0.2774607212868021  0.5483311576854927  0.5918990026102804
  0.2577431702189585  0.5141697836809754  0.5918691966115160
  0.2526731472733489  0.5625837166946438  0.6261638203792175
  0.2971755125485424  0.5141658369906277  0.5918764042376016
  0.2971817634671949  0.5369993610715669  0.5534850525376792
  0.2577478402828219  0.5370029849776219  0.5534791268923795
  0.3219573631914177  0.4712865929439539  0.5918990026102804
  0.3912593131428213  0.4599584202360833  0.5534791268923795
  0.3219585495504974  0.4484932688878460  0.6240882334540911
  0.3664669994050734  0.4513768865994844  0.6261335687142487
  0.3416784053718105  0.4599547963300283  0.5534850525376792
  0.3416721544531579  0.4371212722490890  0.5918764042376016
  0.3664649473300861  0.4741716558122398  0.5939447367315160
  0.3861846201333488  0.4855391519531052  0.6261638203792175
  0.3467506969489753  0.4855427758591602  0.6261578947339179
  0.3219683054254706  0.5512162205537782  0.5939447367315160
  0.3219705238397283  0.4999534780063075  0.5514094656125527
  0.3664789736943039  0.5028370957179459  0.5534548008727104
  0.3861965944225797  0.5369993610715669  0.5534850525376792
  0.3664767386012666  0.5255378336293843  0.6240882334540911
  0.3219703575004578  0.5284214513410228  0.6261335687142487
  0.3416879782287333  0.5625837166946438  0.6261638203792175
  0.3022493849804973  0.5397541393040526  0.6645479644530544
  0.3912642159358816  0.5397541393040526  0.6645479644530544
  0.2971635382593119  0.4627056278721658  0.6645551720791399
  0.2577238917043601  0.4340825667406988  0.6988366625754564
  0.2329435522558426  0.4769612422225613  0.6988123365557872
  0.2774499333566514  0.4740776245109229  0.6967670012956295
  0.2971578148887336  0.4340789428346437  0.6988425882207560
  0.2329295258916248  0.4482958023168550  0.7393022724145929
  0.2526549220654659  0.4882899834952431  0.7372339399206786
  0.2774367727083398  0.4454107394485691  0.7372565382933575
  0.2526491986948875  0.4596632984577208  0.7715213560622943
  0.2329532914520362  0.5511221892524613  0.6967670012956295
  0.2774487469975716  0.4968709485670307  0.6645777704518190
  0.2329415001808549  0.4997560114353167  0.6666235045730544
  0.2526611729841184  0.5111235075761823  0.6988425882207560
  0.2329401308037251  0.5224553041901077  0.7372565382933575
  0.2774477149423940  0.5253403670583936  0.7393022724145929
  0.2577334645612832  0.5367114871053139  0.7715154304169949
  0.2774497670173813  0.5025455978456379  0.7714911043973258
  0.2971673877456567  0.5367078631992592  0.7715213560622943
  0.2329413171628057  0.4996619801339998  0.7694457691371682
  0.3664647643120361  0.4740776245109229  0.6967670012956295
  0.3861783692146962  0.4627056278721658  0.6645551720791399
  0.3219583832112274  0.4769612422225613  0.6988123365557872
  0.3467387226597444  0.4340825667406988  0.6988366625754564
  0.3912522416466507  0.4882939301855913  0.7372267322945930
  0.3664516036637246  0.4454107394485691  0.7372565382933575
  0.3416697530208506  0.4882899834952431  0.7372339399206786
  0.3219443568470091  0.4482958023168550  0.7393022724145929
  0.3912449374212831  0.4596669223637756  0.7715154304169949
  0.3912569117105140  0.5111271314822371  0.6988366625754564
  0.3219681224074206  0.5511221892524613  0.6967670012956295
  0.3664765722619966  0.5540058069640996  0.6988123365557872
  0.3416817273100811  0.5397501926137046  0.6645551720791399
  0.3022420807551293  0.5111271314822371  0.6988366625754564
  0.3219549617591099  0.5224553041901077  0.7372565382933575
  0.3664625458977784  0.5253403670583936  0.7393022724145929
  0.3219561481181901  0.4996619801339998  0.7694457691371682
  0.3861822187010415  0.5367078631992592  0.7715213560622943
  0.3467482955166676  0.5367114871053139  0.7715154304169949
  0.3664645979727656  0.5025455978456379  0.7714911043973258
  0.3022613592697282  0.5912143484225141  0.5918691966115160
  0.3022540550443602  0.5625873406006987  0.6261578947339179
  0.2774738819351132  0.5769980427478461  0.5514094656125527
  0.2329675008343044  0.5798816604594840  0.5534548008727104
  0.2526788706439272  0.5912104017321661  0.5918764042376016
  0.2577527430758818  0.6167987040455910  0.6645479644530544
  0.2774737155958427  0.6054660160825609  0.6261335687142487
  0.2526851215625798  0.6140439258131053  0.5534850525376792
  0.2971850854054660  0.6167947573552429  0.6645551720791399
  0.2329652657412672  0.6025823983709230  0.6240882334540911
  0.2329640793821866  0.6253757224270308  0.5918990026102804
  0.2577647173651126  0.6682589131640526  0.5918691966115160
  0.2329772400304976  0.6540426074893845  0.5514094656125527
  0.2774856898850737  0.6569262252010226  0.5534548008727104
  0.2972033106133490  0.6910884905546438  0.5534850525376792
  0.2577693874289755  0.6910921144606986  0.5534791268923795
  0.2971970596946965  0.6682549664737046  0.5918764042376016
  0.2774716635208558  0.6282607852953165  0.5939447367315160
  0.2329770736912272  0.6825105808240994  0.6261335687142487
  0.2774834547920363  0.6796269631124611  0.6240882334540911
  0.2577574131397447  0.6396319053422371  0.6261578947339179
  0.2971913363241185  0.6396282814361821  0.6261638203792175
  0.2774702941437253  0.6509600780501077  0.6645777704518190
  0.3861999163608503  0.6167947573552429  0.6645551720791399
  0.3022660293335906  0.6140475497191602  0.5534791268923795
  0.3416999525179641  0.6140439258131053  0.5534850525376792
  0.3664887128904975  0.5769980427478461  0.5514094656125527
  0.3912688859997445  0.5625873406006987  0.6261578947339179
  0.3219669360483408  0.5739155133085693  0.6645777704518190
  0.3219823317896888  0.5798816604594840  0.5534548008727104
  0.3416937015993116  0.5912104017321661  0.5918764042376016
  0.3219800966966519  0.6025823983709230  0.6240882334540911
  0.3219789103375713  0.6253757224270308  0.5918990026102804
  0.3467675740312670  0.6167987040455910  0.6645479644530544
  0.3219920709858824  0.6540426074893845  0.5514094656125527
  0.3862181415687338  0.6910884905546438  0.5534850525376792
  0.3467842183843599  0.6910921144606986  0.5534791268923795
  0.3467795483204975  0.6682589131640526  0.5918691966115160
  0.3665005208404580  0.6569262252010226  0.5534548008727104
  0.3862118906500808  0.6682549664737046  0.5918764042376016
  0.3664982857474212  0.6796269631124611  0.6240882334540911
  0.3467722440951294  0.6396319053422371  0.6261578947339179
  0.3219919046466115  0.6825105808240994  0.6261335687142487
  0.3664851250991101  0.6509600780501077  0.6645777704518190
  0.2971731111162351  0.5653345482367818  0.7372339399206786
  0.2774714805028050  0.6281667539939999  0.6967670012956295
  0.2577407687866508  0.5653384949271295  0.7372267322945930
  0.2971793620348877  0.5881680723177208  0.6988425882207560
  0.2774583198544944  0.5994998689316462  0.7372565382933575
  0.2329510730377785  0.6023849317999321  0.7393022724145929
  0.2774595062135745  0.5767065448755382  0.7694457691371682
  0.2329531251127658  0.5795901625871765  0.7714911043973258
  0.2526707458410416  0.6137524279407975  0.7715213560622943
  0.3022516536120525  0.6137560518468526  0.7715154304169949
  0.3022636279012834  0.6652162609653141  0.6988366625754564
  0.2329650994019963  0.6310503717056385  0.6988123365557872
  0.2329630473270094  0.6538451409183936  0.6666235045730544
  0.2526827201302721  0.6652126370592593  0.6988425882207560
  0.3022589578374200  0.6423830596686678  0.7372267322945930
  0.2526764692116195  0.6423791129783198  0.7372339399206786
  0.2329616779498792  0.6765444336731850  0.7372565382933575
  0.2329628643089598  0.6537511096170767  0.7694457691371682
  0.2774692620885477  0.6794294965414706  0.7393022724145929
  0.2577550117074369  0.6908006165883911  0.7715154304169949
  0.2774713141635350  0.6566347273287149  0.7714911043973258
  0.2971889348918108  0.6907969926823359  0.7715213560622943
  0.3861941929902720  0.5881680723177208  0.6988425882207560
  0.3467602698058989  0.5881716962237756  0.6988366625754564
  0.3664745201870093  0.5768005761768551  0.6666235045730544
  0.3467555997420356  0.5653384949271295  0.7372267322945930
  0.3861879420716198  0.5653345482367818  0.7372339399206786
  0.3664731508098791  0.5994998689316462  0.7372565382933575
  0.3219659039931637  0.6023849317999321  0.7393022724145929
  0.3664743371689593  0.5767065448755382  0.7694457691371682
  0.3219679560681505  0.5795901625871765  0.7714911043973258
  0.3416855767964264  0.6137524279407975  0.7715213560622943
  0.3912664845674372  0.6137560518468526  0.7715154304169949
  0.3219799303573815  0.6310503717056385  0.6988123365557872
  0.3664863114581902  0.6281667539939999  0.6967670012956295
  0.3219778782823942  0.6538451409183936  0.6666235045730544
  0.3416975510856569  0.6652126370592593  0.6988425882207560
  0.3912784588566681  0.6652162609653141  0.6988366625754564
  0.3912737887928048  0.6423830596686678  0.7372267322945930
  0.3416913001670043  0.6423791129783198  0.7372339399206786
  0.3219765089052636  0.6765444336731850  0.7372565382933575
  0.3664840930439329  0.6794294965414706  0.7393022724145929
  0.3219776952643442  0.6537511096170767  0.7694457691371682
  0.3862037658471956  0.6907969926823359  0.7715213560622943
  0.3664861451189197  0.6566347273287149  0.7714911043973258
  0.3467698426628217  0.6908006165883911  0.7715154304169949
  0.4109733805058822  0.4484932688878460  0.6240882334540911
  0.4802694740343432  0.4371252189394371  0.5918691966115160
  0.4802741440982057  0.4599584202360833  0.5534791268923795
  0.4554818303604582  0.4513768865994844  0.6261335687142487
  0.4109756155989194  0.4257925309764074  0.5534548008727104
  0.4357608578404972  0.4627095745625142  0.6645479644530544
  0.4554797782854709  0.4741716558122398  0.5939447367315160
  0.4751994510887336  0.4855391519531052  0.6261638203792175
  0.4357655279043601  0.4855427758591602  0.6261578947339179
  0.4109853547951131  0.4999534780063075  0.5514094656125527
  0.4752051744593119  0.5141658369906277  0.5918764042376016
  0.4357728321297277  0.5141697836809754  0.5918691966115160
  0.4554915695566514  0.5255378336293843  0.6240882334540911
  0.4554938046496886  0.5028370957179459  0.5534548008727104
  0.4554903831975712  0.5483311576854927  0.5918990026102804
  0.4357775021935906  0.5370029849776219  0.5534791268923795
  0.4752114253779645  0.5369993610715669  0.5534850525376792
  0.4109831363808553  0.5512162205537782  0.5939447367315160
  0.4109851884558426  0.5284214513410228  0.6261335687142487
  0.4802790468912664  0.5397541393040526  0.6645479644530544
  0.4999882114612669  0.4484932688878460  0.6240882334540911
  0.5692843049897279  0.4371252189394371  0.5918691966115160
  0.5197018163639270  0.4371212722490890  0.5918764042376016
  0.4999904465543042  0.4257925309764074  0.5534548008727104
  0.4999870251021863  0.4712865929439539  0.5918990026102804
  0.5692889750535904  0.4599584202360833  0.5534791268923795
  0.5444966613158425  0.4513768865994844  0.6261335687142487
  0.5247756887958815  0.4627095745625142  0.6645479644530544
  0.5197080672825796  0.4599547963300283  0.5534850525376792
  0.5247803588597444  0.4855427758591602  0.6261578947339179
  0.5642142820441183  0.4855391519531052  0.6261638203792175
  0.5444946092408552  0.4741716558122398  0.5939447367315160
  0.5445052141529559  0.5483311576854927  0.5918990026102804
  0.5000001857504974  0.4999534780063075  0.5514094656125527
  0.5445086356050735  0.5028370957179459  0.5534548008727104
  0.5247876630851124  0.5141697836809754  0.5918691966115160
  0.5642200054146962  0.5141658369906277  0.5918764042376016
  0.5642262563333488  0.5369993610715669  0.5534850525376792
  0.5247923331489753  0.5370029849776219  0.5534791268923795
  0.4999979673362401  0.5512162205537782  0.5939447367315160
  0.5445064005120361  0.5255378336293843  0.6240882334540911
  0.5692938778466508  0.5397541393040526  0.6645479644530544
  0.5000000194112274  0.5284214513410228  0.6261335687142487
  0.4751932001700810  0.4627056278721658  0.6645551720791399
  0.4802670726020355  0.4882939301855913  0.7372267322945930
  0.4554795952674204  0.4740776245109229  0.6967670012956295
  0.4357535536151291  0.4340825667406988  0.6988366625754564
  0.4751874767995026  0.4340789428346437  0.6988425882207560
  0.4109732141666121  0.4769612422225613  0.6988123365557872
  0.4306845839762354  0.4882899834952431  0.7372339399206786
  0.4554664346191094  0.4454107394485691  0.7372565382933575
  0.4109591878023943  0.4482958023168550  0.7393022724145929
  0.4802597683766679  0.4596669223637756  0.7715154304169949
  0.4306788606056566  0.4596632984577208  0.7715213560622943
  0.4554914032173814  0.5540058069640996  0.6988123365557872
  0.4109829533628053  0.5511221892524613  0.6967670012956295
  0.4109711620916244  0.4997560114353167  0.6666235045730544
  0.4554784089083407  0.4968709485670307  0.6645777704518190
  0.4306965582654654  0.5397501926137046  0.6645551720791399
  0.4306908348948875  0.5111235075761823  0.6988425882207560
  0.4802717426658984  0.5111271314822371  0.6988366625754564
  0.4109697927144938  0.5224553041901077  0.7372565382933575
  0.4554773768531631  0.5253403670583936  0.7393022724145929
  0.4357631264720523  0.5367114871053139  0.7715154304169949
  0.4751970496564258  0.5367078631992592  0.7715213560622943
  0.4554794289281504  0.5025455978456379  0.7714911043973258
  0.4109709790735744  0.4996619801339998  0.7694457691371682
  0.4999880451219965  0.4769612422225613  0.6988123365557872
  0.5642080311254658  0.4627056278721658  0.6645551720791399
  0.5444944262228052  0.4740776245109229  0.6967670012956295
  0.5642023077548874  0.4340789428346437  0.6988425882207560
  0.5247683845705139  0.4340825667406988  0.6988366625754564
  0.5692819035574203  0.4882939301855913  0.7372267322945930
  0.5444812655744942  0.4454107394485691  0.7372565382933575
  0.5196994149316202  0.4882899834952431  0.7372339399206786
  0.4999740187577782  0.4482958023168550  0.7393022724145929
  0.5196936915610414  0.4596632984577208  0.7715213560622943
  0.5692745993320523  0.4596669223637756  0.7715154304169949
  0.5444932398637250  0.4968709485670307  0.6645777704518190
  0.5197113892208503  0.5397501926137046  0.6645551720791399
  0.4999859930470087  0.4997560114353167  0.6666235045730544
  0.5197056658502719  0.5111235075761823  0.6988425882207560
  0.5692865736212831  0.5111271314822371  0.6988366625754564
  0.4999977843181896  0.5511221892524613  0.6967670012956295
  0.5445062341727657  0.5540058069640996  0.6988123365557872
  0.4999846236698786  0.5224553041901077  0.7372565382933575
  0.5444922078085475  0.5253403670583936  0.7393022724145929
  0.4999858100289592  0.4996619801339998  0.7694457691371682
  0.5444942598835347  0.5025455978456379  0.7714911043973258
  0.5642118806118106  0.5367078631992592  0.7715213560622943
  0.5247779574274372  0.5367114871053139  0.7715154304169949
  0.4109937412929556  0.6253757224270308  0.5918990026102804
  0.4307085325546963  0.5912104017321661  0.5918764042376016
  0.4109971627450731  0.5798816604594840  0.5534548008727104
  0.3912808602889755  0.6140475497191602  0.5534791268923795
  0.4307147834733489  0.6140439258131053  0.5534850525376792
  0.4555035438458823  0.5769980427478461  0.5514094656125527
  0.4357824049866513  0.6167987040455910  0.6645479644530544
  0.4555033775066119  0.6054660160825609  0.6261335687142487
  0.4307028091841180  0.5625837166946438  0.6261638203792175
  0.4752147473162346  0.6167947573552429  0.6645551720791399
  0.4109817670037252  0.5739155133085693  0.6645777704518190
  0.4110069019412667  0.6540426074893845  0.5514094656125527
  0.4357943792758818  0.6682589131640526  0.5918691966115160
  0.4752329725241186  0.6910884905546438  0.5534850525376792
  0.4752267216054656  0.6682549664737046  0.5918764042376016
  0.4555013254316245  0.6282607852953165  0.5939447367315160
  0.4110067356019959  0.6825105808240994  0.6261335687142487
  0.4555131167028050  0.6796269631124611  0.6240882334540911
  0.4357870750505137  0.6396319053422371  0.6261578947339179
  0.4752209982348877  0.6396282814361821  0.6261638203792175
  0.4554999560544944  0.6509600780501077  0.6645777704518190
  0.5197296144287337  0.6140439258131053  0.5534850525376792
  0.5445183748012666  0.5769980427478461  0.5514094656125527
  0.5000119937004579  0.5798816604594840  0.5534548008727104
  0.4802956912443598  0.6140475497191602  0.5534791268923795
  0.4802910211804969  0.5912143484225141  0.5918691966115160
  0.5197233635100806  0.5912104017321661  0.5918764042376016
  0.4802837169551293  0.5625873406006987  0.6261578947339179
  0.5445182084619966  0.6054660160825609  0.6261335687142487
  0.5000097586074206  0.6025823983709230  0.6240882334540911
  0.5247972359420361  0.6167987040455910  0.6645479644530544
  0.5197176401395027  0.5625837166946438  0.6261638203792175
  0.5642295782716195  0.6167947573552429  0.6645551720791399
  0.4999965979591099  0.5739155133085693  0.6645777704518190
  0.5445161563870093  0.6282607852953165  0.5939447367315160
  0.5000085722483404  0.6253757224270308  0.5918990026102804
  0.5642415525608503  0.6682549664737046  0.5918764042376016
  0.5248092102312661  0.6682589131640526  0.5918691966115160
  0.5248138802951294  0.6910921144606986  0.5534791268923795
  0.5642478034795029  0.6910884905546438  0.5534850525376792
  0.5000217328966511  0.6540426074893845  0.5514094656125527
  0.5445301827512271  0.6569262252010226  0.5534548008727104
  0.5445279476581898  0.6796269631124611  0.6240882334540911
  0.5445147870098792  0.6509600780501077  0.6645777704518190
  0.5248019060058985  0.6396319053422371  0.6261578947339179
  0.5000215665573806  0.6825105808240994  0.6261335687142487
  0.5642358291902720  0.6396282814361821  0.6261638203792175
  0.4752090239456567  0.5881680723177208  0.6988425882207560
  0.4554893511423940  0.5768005761768551  0.6666235045730544
  0.4357751007612832  0.5881716962237756  0.6988366625754564
  0.4357704306974204  0.5653384949271295  0.7372267322945930
  0.4752027730270046  0.5653345482367818  0.7372339399206786
  0.4554879817652634  0.5994998689316462  0.7372565382933575
  0.4554891681243436  0.5767065448755382  0.7694457691371682
  0.4802813155228216  0.6137560518468526  0.7715154304169949
  0.4109807349485476  0.6023849317999321  0.7393022724145929
  0.4307004077518107  0.6137524279407975  0.7715213560622943
  0.4109827870235349  0.5795901625871765  0.7714911043973258
  0.4555011424135745  0.6281667539939999  0.6967670012956295
  0.4109947613127658  0.6310503717056385  0.6988123365557872
  0.4307123820410412  0.6652126370592593  0.6988425882207560
  0.4109927092377785  0.6538451409183936  0.6666235045730544
  0.4307061311223886  0.6423791129783198  0.7372339399206786
  0.4109913398606488  0.6765444336731850  0.7372565382933575
  0.4752185968025799  0.6907969926823359  0.7715213560622943
  0.4109925262197285  0.6537511096170767  0.7694457691371682
  0.4357846736182064  0.6908006165883911  0.7715154304169949
  0.5642238549010411  0.5881680723177208  0.6988425882207560
  0.5445041820977784  0.5768005761768551  0.6666235045730544
  0.5247899317166675  0.5881716962237756  0.6988366625754564
  0.5247852616528047  0.5653384949271295  0.7372267322945930
  0.5642176039823894  0.5653345482367818  0.7372339399206786
  0.5445028127206483  0.5994998689316462  0.7372565382933575
  0.4999955659039323  0.6023849317999321  0.7393022724145929
  0.5445039990797284  0.5767065448755382  0.7694457691371682
  0.5197152387071950  0.6137524279407975  0.7715213560622943
  0.4999976179789197  0.5795901625871765  0.7714911043973258
  0.4802932898120525  0.6652162609653141  0.6988366625754564
  0.5000095922681506  0.6310503717056385  0.6988123365557872
  0.5445159733689588  0.6281667539939999  0.6967670012956295
  0.5000075401931628  0.6538451409183936  0.6666235045730544
  0.5197272129964260  0.6652126370592593  0.6988425882207560
  0.5197209620777730  0.6423791129783198  0.7372339399206786
  0.5445137549547016  0.6794294965414706  0.7393022724145929
  0.5247995045735908  0.6908006165883911  0.7715154304169949
  0.5000073571751128  0.6537511096170767  0.7694457691371682
  0.3219429874698790  0.4709950950716462  0.8099353061348957
  0.2526429477762349  0.4368297743767814  0.8099127077622170
  0.3022254364020359  0.4368337210671295  0.8099055001361315
  0.2774357406531631  0.4738801579399323  0.8119810402561313
  0.2329281565144947  0.4709950950716462  0.8099353061348957
  0.2329293428735748  0.4482017710155381  0.8421245369787066
  0.2774377927281504  0.4510853887271767  0.8441698722388640
  0.2577214902720523  0.4852512779868525  0.8441941982585333
  0.2971491625377732  0.4624141299998583  0.8825914756037554
  0.2577168202081894  0.4624180766902067  0.8825842679776699
  0.2971554134564258  0.4852476540807979  0.8442001239038329
  0.2774475319243441  0.5252463357570769  0.8421245369787066
  0.2329390987485480  0.5509247226814705  0.8119810402561313
  0.2577287944974203  0.5138782858086680  0.8099055001361315
  0.2971611368270041  0.5138743391183200  0.8099127077622170
  0.2774463455652639  0.5480396598131845  0.8099353061348957
  0.2329411508235353  0.5281299534687151  0.8441698722388640
  0.3022396793228215  0.5622958427283911  0.8441941982585333
  0.2526587715518107  0.5622922188223360  0.8442001239038329
  0.2526525206331581  0.5394586947413968  0.8825914756037554
  0.3022350092589586  0.5394626414317449  0.8825842679776699
  0.3219419554147018  0.4994645135630092  0.8846598080976696
  0.2774343712760329  0.4965794506947233  0.8826140739764341
  0.4109578184252637  0.4709950950716462  0.8099353061348957
  0.3912402673574202  0.4368337210671295  0.8099055001361315
  0.3664505716085479  0.4738801579399323  0.8119810402561313
  0.3416577787316197  0.4368297743767814  0.8099127077622170
  0.3219441738289592  0.4482017710155381  0.8421245369787066
  0.4109590047843435  0.4482017710155381  0.8421245369787066
  0.3664526236835352  0.4510853887271767  0.8441698722388640
  0.3467363212274371  0.4852512779868525  0.8441941982585333
  0.3861702444118106  0.4852476540807979  0.8442001239038329
  0.3861639934931580  0.4624141299998583  0.8825914756037554
  0.3467316511635742  0.4624180766902067  0.8825842679776699
  0.3664492022314177  0.4965794506947233  0.8826140739764341
  0.3219539297039328  0.5509247226814705  0.8119810402561313
  0.3861759677823889  0.5138743391183200  0.8099127077622170
  0.3664611765206482  0.5480396598131845  0.8099353061348957
  0.3467436254528051  0.5138782858086680  0.8099055001361315
  0.3664623628797284  0.5252463357570769  0.8421245369787066
  0.3219559817789197  0.5281299534687151  0.8441698722388640
  0.3416673515885429  0.5394586947413968  0.8825914756037554
  0.3416736025071955  0.5622922188223360  0.8442001239038329
  0.3912498402143429  0.5394626414317449  0.8825842679776699
  0.4109567863700861  0.4994645135630092  0.8846598080976696
  0.3219440074896887  0.4766697443502536  0.9168486400804027
  0.3416616282179645  0.5108320097038748  0.9168788917453715
  0.3022277050335910  0.5108356336099291  0.9168729661000716
  0.3219537466858823  0.5508306913801538  0.9148033048202450
  0.3664503885904974  0.4737861266386150  0.9148033048202450
  0.4109588384450735  0.4766697443502536  0.9168486400804027
  0.3912425359889754  0.5108356336099291  0.9168729661000716
  0.3664621965404579  0.5537143090917922  0.9168486400804027
  0.2774572877993172  0.6279692874230093  0.8119810402561313
  0.2329497036606483  0.6250842245547231  0.8099353061348957
  0.2526644949223890  0.5909189038598586  0.8099127077622170
  0.2329508900197285  0.6022909004986150  0.8421245369787066
  0.2774593398743041  0.6051745182102535  0.8441698722388640
  0.2971707096839273  0.6165032594829355  0.8825914756037554
  0.2774453135100863  0.5765090783045473  0.8846598080976696
  0.2971826839731578  0.6679634686013968  0.8099127077622170
  0.2577503416435745  0.6679674152917450  0.8099055001361315
  0.2774690790704977  0.6793354652401536  0.8421245369787066
  0.2577430374182064  0.6393404074699294  0.8441941982585333
  0.2971769606025799  0.6393367835638745  0.8442001239038329
  0.3022469835481896  0.5909228505502063  0.8099055001361315
  0.3416793258777733  0.5909189038598586  0.8099127077622170
  0.3219657209751133  0.6022909004986150  0.8421245369787066
  0.3219645346160331  0.6250842245547231  0.8099353061348957
  0.3664721187547020  0.6279692874230093  0.8119810402561313
  0.3861975149285426  0.6679634686013968  0.8099127077622170
  0.3467651725989588  0.6679674152917450  0.8099055001361315
  0.3664839100258825  0.6793354652401536  0.8421245369787066
  0.3219525603268022  0.5736240154362614  0.8826140739764341
  0.3664601444654710  0.5765090783045473  0.8846598080976696
  0.3861855406393121  0.6165032594829355  0.8825914756037554
  0.3664741708296884  0.6051745182102535  0.8441698722388640
  0.3664719357366515  0.6278752561216919  0.9148033048202450
  0.3467531983097283  0.6165072061732835  0.8825842679776699
  0.3861917915579647  0.6393367835638745  0.8442001239038329
  0.3664707493775714  0.6506685801777999  0.8826140739764341
  0.3416888987346965  0.6935478242244738  0.8825914756037554
  0.3219635025608555  0.6535536430460862  0.8846598080976696
  0.3467578683735907  0.6393404074699294  0.8441941982585333
  0.3219775289250738  0.6822190829517918  0.8441698722388640
  0.3861798172687337  0.5878765744454130  0.9168788917453715
  0.3467458940843602  0.5878801983514678  0.9168729661000716
  0.3912640831351295  0.6649247630930063  0.9168729661000716
  0.4554674546389195  0.4510853887271767  0.8441698722388640
  0.4999726493806481  0.4709950950716462  0.8099353061348957
  0.4802550983128050  0.4368337210671295  0.8099055001361315
  0.4306726096870040  0.4368297743767814  0.8099127077622170
  0.4554654025639322  0.4738801579399323  0.8119810402561313
  0.4357511521828214  0.4852512779868525  0.8441941982585333
  0.4751850753671949  0.4852476540807979  0.8442001239038329
  0.4357464821189585  0.4624180766902067  0.8825842679776699
  0.4999716173254710  0.4994645135630092  0.8846598080976696
  0.4751788244485423  0.4624141299998583  0.8825914756037554
  0.4554640331868021  0.4965794506947233  0.8826140739764341
  0.4751907987377733  0.5138743391183200  0.8099127077622170
  0.4357584564081894  0.5138782858086680  0.8099055001361315
  0.4554760074760326  0.5480396598131845  0.8099353061348957
  0.4554771938351127  0.5252463357570769  0.8421245369787066
  0.4306821825439272  0.5394586947413968  0.8825914756037554
  0.4109708127343044  0.5281299534687151  0.8441698722388640
  0.4306884334625798  0.5622922188223360  0.8442001239038329
  0.4802693412335906  0.5622958427283911  0.8441941982585333
  0.4802646711697273  0.5394626414317449  0.8825842679776699
  0.4999738357397283  0.4482017710155381  0.8421245369787066
  0.5444802335193170  0.4738801579399323  0.8119810402561313
  0.5692699292681893  0.4368337210671295  0.8099055001361315
  0.5196874406423888  0.4368297743767814  0.8099127077622170
  0.5444822855943043  0.4510853887271767  0.8441698722388640
  0.5247659831382062  0.4852512779868525  0.8441941982585333
  0.5641999063225797  0.4852476540807979  0.8442001239038329
  0.5641936554039271  0.4624141299998583  0.8825914756037554
  0.5444788641421868  0.4965794506947233  0.8826140739764341
  0.5247613130743433  0.4624180766902067  0.8825842679776699
  0.4999835916147014  0.5509247226814705  0.8119810402561313
  0.5642056296931580  0.5138743391183200  0.8099127077622170
  0.5444908384314169  0.5480396598131845  0.8099353061348957
  0.5247732873635738  0.5138782858086680  0.8099055001361315
  0.5444920247904975  0.5252463357570769  0.8421245369787066
  0.4999856436896887  0.5281299534687151  0.8441698722388640
  0.5692795021251120  0.5394626414317449  0.8825842679776699
  0.5196970134993120  0.5394586947413968  0.8825914756037554
  0.5692841721889754  0.5622958427283911  0.8441941982585333
  0.5197032644179645  0.5622922188223360  0.8442001239038329
  0.4357391778935910  0.4337910688683911  0.9168729661000716
  0.4109685776412667  0.5508306913801538  0.9148033048202450
  0.4554652195458822  0.4737861266386150  0.9148033048202450
  0.4802573669443602  0.5108356336099291  0.9168729661000716
  0.4554770274958427  0.5537143090917922  0.9168486400804027
  0.4999596430362400  0.4480043044445475  0.9573385759392085
  0.4554520588975711  0.4451192415762615  0.9552928418179725
  0.4306764591733488  0.5108320097038748  0.9168788917453715
  0.4554630011316249  0.5250488691860861  0.9573385759392085
  0.4751731010779644  0.4337874449623360  0.9168788917453715
  0.4306702082546963  0.4879984856229352  0.9552702434452940
  0.4802526968804968  0.4880024323132834  0.9552630358192082
  0.5641879320333492  0.4337874449623360  0.9168788917453715
  0.5247540088489757  0.4337910688683911  0.9168729661000716
  0.5692675278358816  0.4880024323132834  0.9552630358192082
  0.4999736694004582  0.4766697443502536  0.9168486400804027
  0.5444668898529563  0.4451192415762615  0.9552928418179725
  0.5196850392100810  0.4879984856229352  0.9552702434452940
  0.5444800505012670  0.4737861266386150  0.9148033048202450
  0.5196912901287336  0.5108320097038748  0.9168788917453715
  0.5692721978997445  0.5108356336099291  0.9168729661000716
  0.5444918584512271  0.5537143090917922  0.9168486400804027
  0.4999834085966515  0.5508306913801538  0.9148033048202450
  0.5444778320870093  0.5250488691860861  0.9573385759392085
  0.4999702479483403  0.5221638063178001  0.9552928418179725
  0.4109793655714175  0.6250842245547231  0.8099353061348957
  0.4802766454589587  0.5909228505502063  0.8099055001361315
  0.4554890017850732  0.6051745182102535  0.8441698722388640
  0.4554869497100863  0.6279692874230093  0.8119810402561313
  0.4357726993289755  0.6393404074699294  0.8441941982585333
  0.4752123458839274  0.6679634686013968  0.8099127077622170
  0.4357800035543440  0.6679674152917450  0.8099055001361315
  0.4109923598804581  0.6822190829517918  0.8441698722388640
  0.4554749754208550  0.5765090783045473  0.8846598080976696
  0.4752003715946964  0.6165032594829355  0.8825914756037554
  0.4357607250397446  0.5878801983514678  0.9168729661000716
  0.4554867666920359  0.6278752561216919  0.9148033048202450
  0.4357680292651126  0.6165072061732835  0.8825842679776699
  0.4109673912821870  0.5736240154362614  0.8826140739764341
  0.4109803855912271  0.6307588738333305  0.9168486400804027
  0.4752066225133490  0.6393367835638745  0.8442001239038329
  0.4109783335162402  0.6535536430460862  0.8846598080976696
  0.4554855803329562  0.6506685801777999  0.8826140739764341
  0.4307037296900809  0.6935478242244738  0.8825914756037554
  0.4802789140905143  0.6649247630930063  0.9168729661000716
  0.5197089877885425  0.5909189038598586  0.8099127077622170
  0.5445038327404575  0.6051745182102535  0.8441698722388640
  0.5692914764143430  0.5909228505502063  0.8099055001361315
  0.4999953828858819  0.6022909004986150  0.8421245369787066
  0.4999941965268022  0.6250842245547231  0.8099353061348957
  0.5642271768393117  0.6679634686013968  0.8099127077622170
  0.5247948345097283  0.6679674152917450  0.8099055001361315
  0.5444898063762397  0.5765090783045473  0.8846598080976696
  0.5247755559951294  0.5878801983514678  0.9168729661000716
  0.4999822222375713  0.5736240154362614  0.8826140739764341
  0.4999952165466119  0.6307588738333305  0.9168486400804027
  0.5642152025500812  0.6165032594829355  0.8825914756037554
  0.5247828602204969  0.6165072061732835  0.8825842679776699
  0.5445015976474207  0.6278752561216919  0.9148033048202450
  0.4999931644716246  0.6535536430460862  0.8846598080976696
  0.5445004112883405  0.6506685801777999  0.8826140739764341
  0.5197185606454656  0.6935478242244738  0.8825914756037554
  0.5692937450458986  0.6649247630930063  0.9168729661000716
  0.4751883973054655  0.5650430503644736  0.9552702434452940
  0.4751946482241181  0.5878765744454130  0.9168788917453715
  0.4306980063195029  0.6649211391869515  0.9168788917453715
  0.5642094791795028  0.5878765744454130  0.9168788917453715
  0.5247708859312661  0.5650469970548215  0.9552630358192082
  0.5197128372748873  0.6649211391869515  0.9168788917453715
  0.5890018560575710  0.4712865929439539  0.5918990026102804
  0.6087166473193117  0.4371212722490890  0.5918764042376016
  0.6137905197512663  0.4627095745625142  0.6645479644530544
  0.6335094401962400  0.4741716558122398  0.5939447367315160
  0.5890052775096886  0.4257925309764074  0.5534548008727104
  0.6335114922712273  0.4513768865994844  0.6261335687142487
  0.5890030424166512  0.4484932688878460  0.6240882334540911
  0.6137951898151291  0.4855427758591602  0.6261578947339179
  0.6582991359451124  0.4371252189394371  0.5918691966115160
  0.6087228982379643  0.4599547963300283  0.5534850525376792
  0.6532291129995027  0.4855391519531052  0.6261638203792175
  0.5890150167058822  0.4999534780063075  0.5514094656125527
  0.6335234665604578  0.5028370957179459  0.5534548008727104
  0.6532348363700810  0.5141658369906277  0.5918764042376016
  0.6138024940404968  0.5141697836809754  0.5918691966115160
  0.5890148503666122  0.5284214513410228  0.6261335687142487
  0.6335212314674209  0.5255378336293843  0.6240882334540911
  0.6532410872887335  0.5369993610715669  0.5534850525376792
  0.6138071641043596  0.5370029849776219  0.5534791268923795
  0.6335200451083403  0.5483311576854927  0.5918990026102804
  0.5692985479105136  0.5625873406006987  0.6261578947339179
  0.5890127982916245  0.5512162205537782  0.5939447367315160
  0.6087324710948872  0.5625837166946438  0.6261638203792175
  0.6780178733720360  0.4484932688878460  0.6240882334540911
  0.6977314782746962  0.4371212722490890  0.5918764042376016
  0.6780201084650733  0.4257925309764074  0.5534548008727104
  0.7028053507066506  0.4627095745625142  0.6645479644530544
  0.6977377291933486  0.4599547963300283  0.5534850525376792
  0.7225263232266116  0.4513768865994844  0.6261335687142487
  0.6583038060089752  0.4599584202360833  0.5534791268923795
  0.6780166870129558  0.4712865929439539  0.5918990026102804
  0.7422439439548875  0.4855391519531052  0.6261638203792175
  0.7028100207705139  0.4855427758591602  0.6261578947339179
  0.7225242711516243  0.4741716558122398  0.5939447367315160
  0.7225382975158416  0.5028370957179459  0.5534548008727104
  0.6780298476612665  0.4999534780063075  0.5514094656125527
  0.7422496673254654  0.5141658369906277  0.5918764042376016
  0.7028173249958816  0.5141697836809754  0.5918691966115160
  0.7422559182441183  0.5369993610715669  0.5534850525376792
  0.7028219950597444  0.5370029849776219  0.5534791268923795
  0.7225348760637250  0.5483311576854927  0.5918990026102804
  0.6780276292470092  0.5512162205537782  0.5939447367315160
  0.6780296813219965  0.5284214513410228  0.6261335687142487
  0.6977473020502715  0.5625837166946438  0.6261638203792175
  0.7225360624228052  0.5255378336293843  0.6240882334540911
  0.6583133788658984  0.5625873406006987  0.6261578947339179
  0.6583087088020355  0.5397541393040526  0.6645479644530544
  0.6335080708191099  0.4968709485670307  0.6645777704518190
  0.6532228620808501  0.4627056278721658  0.6645551720791399
  0.6335092571781900  0.4740776245109229  0.6967670012956295
  0.5890028760773812  0.4769612422225613  0.6988123365557872
  0.6137832155258987  0.4340825667406988  0.6988366625754564
  0.6532171387102722  0.4340789428346437  0.6988425882207560
  0.6582894302874370  0.4596669223637756  0.7715154304169949
  0.6087085225164257  0.4596632984577208  0.7715213560622943
  0.5889888497131630  0.4482958023168550  0.7393022724145929
  0.6334960965298794  0.4454107394485691  0.7372565382933575
  0.6087142458870045  0.4882899834952431  0.7372339399206786
  0.6335210651281504  0.5540058069640996  0.6988123365557872
  0.5890008240023935  0.4997560114353167  0.6666235045730544
  0.6087204968056567  0.5111235075761823  0.6988425882207560
  0.5890126152735744  0.5511221892524613  0.6967670012956295
  0.6087262201762350  0.5397501926137046  0.6645551720791399
  0.5889994546252634  0.5224553041901077  0.7372565382933575
  0.6335070387639322  0.5253403670583936  0.7393022724145929
  0.5890006409843439  0.4996619801339998  0.7694457691371682
  0.6335090908389195  0.5025455978456379  0.7714911043973258
  0.6532267115671954  0.5367078631992592  0.7715213560622943
  0.6137927883828215  0.5367114871053139  0.7715154304169949
  0.7225240881335743  0.4740776245109229  0.6967670012956295
  0.7225229017744946  0.4968709485670307  0.6645777704518190
  0.7422376930362349  0.4627056278721658  0.6645551720791399
  0.7027980464812834  0.4340825667406988  0.6988366625754564
  0.6780177070327655  0.4769612422225613  0.6988123365557872
  0.7422319696656565  0.4340789428346437  0.6988425882207560
  0.6582967345128046  0.4882939301855913  0.7372267322945930
  0.7225109274852632  0.4454107394485691  0.7372565382933575
  0.6977290768423893  0.4882899834952431  0.7372339399206786
  0.6780036806685478  0.4482958023168550  0.7393022724145929
  0.6977233534718105  0.4596632984577208  0.7715213560622943
  0.6780274462289592  0.5511221892524613  0.6967670012956295
  0.6977410511316198  0.5397501926137046  0.6645551720791399
  0.6780156549577778  0.4997560114353167  0.6666235045730544
  0.6977353277610414  0.5111235075761823  0.6988425882207560
  0.7225358960835347  0.5540058069640996  0.6988123365557872
  0.6583014045766679  0.5111271314822371  0.6988366625754564
  0.6780142855806477  0.5224553041901077  0.7372565382933575
  0.7225218697193170  0.5253403670583936  0.7393022724145929
  0.6780154719397283  0.4996619801339998  0.7694457691371682
  0.7422415425225797  0.5367078631992592  0.7715213560622943
  0.7225239217943047  0.5025455978456379  0.7714911043973258
  0.7028076193382062  0.5367114871053139  0.7715154304169949
  0.5890268246558427  0.5798816604594840  0.5534548008727104
  0.6335332057566514  0.5769980427478461  0.5514094656125527
  0.5693105221997445  0.6140475497191602  0.5534791268923795
  0.6087444453841180  0.6140439258131053  0.5534850525376792
  0.5890234032037251  0.6253757224270308  0.5918990026102804
  0.5693058521358817  0.5912143484225141  0.5918691966115160
  0.6087381944654654  0.5912104017321661  0.5918764042376016
  0.6335330394173814  0.6054660160825609  0.6261335687142487
  0.5890245895628053  0.6025823983709230  0.6240882334540911
  0.6138120668974208  0.6167987040455910  0.6645479644530544
  0.6532444092270042  0.6167947573552429  0.6645551720791399
  0.5890114289144943  0.5739155133085693  0.6645777704518190
  0.6335190130531632  0.5768005761768551  0.6666235045730544
  0.6335309873423945  0.6282607852953165  0.5939447367315160
  0.6335450137066119  0.6569262252010226  0.5534548008727104
  0.6138240411866509  0.6682589131640526  0.5918691966115160
  0.5890365638520358  0.6540426074893845  0.5514094656125527
  0.6138287112505142  0.6910921144606986  0.5534791268923795
  0.6532563835162347  0.6682549664737046  0.5918764042376016
  0.6532626344348876  0.6910884905546438  0.5534850525376792
  0.6138167369612828  0.6396319053422371  0.6261578947339179
  0.6335427786135746  0.6796269631124611  0.6240882334540911
  0.5890363975127654  0.6825105808240994  0.6261335687142487
  0.6532506601456568  0.6396282814361821  0.6261638203792175
  0.6335296179652635  0.6509600780501077  0.6645777704518190
  0.5890223711485476  0.6538451409183936  0.6666235045730544
  0.6977530254208503  0.5912104017321661  0.5918764042376016
  0.6583206830912665  0.5912143484225141  0.5918691966115160
  0.7225480367120357  0.5769980427478461  0.5514094656125527
  0.6583253531551289  0.6140475497191602  0.5534791268923795
  0.6977592763395027  0.6140439258131053  0.5534850525376792
  0.6780416556112270  0.5798816604594840  0.5534548008727104
  0.6780382341591096  0.6253757224270308  0.5918990026102804
  0.6780394205181901  0.6025823983709230  0.6240882334540911
  0.7225478703727657  0.6054660160825609  0.6261335687142487
  0.7225338440085475  0.5768005761768551  0.6666235045730544
  0.6780262598698795  0.5739155133085693  0.6645777704518190
  0.7422592401823885  0.6167947573552429  0.6645551720791399
  0.7028268978528052  0.6167987040455910  0.6645479644530544
  0.7028388721420357  0.6682589131640526  0.5918691966115160
  0.7422774653902725  0.6910884905546438  0.5534850525376792
  0.7225598446619962  0.6569262252010226  0.5534548008727104
  0.7028435422058990  0.6910921144606986  0.5534791268923795
  0.6780513948074206  0.6540426074893845  0.5514094656125527
  0.7225458182977784  0.6282607852953165  0.5939447367315160
  0.7422712144716195  0.6682549664737046  0.5918764042376016
  0.7225576095689593  0.6796269631124611  0.6240882334540911
  0.7225444489206487  0.6509600780501077  0.6645777704518190
  0.6780372021039324  0.6538451409183936  0.6666235045730544
  0.7028315679166676  0.6396319053422371  0.6261578947339179
  0.6780512284681501  0.6825105808240994  0.6261335687142487
  0.7422654911010411  0.6396282814361821  0.6261638203792175
  0.6138000926081895  0.5653384949271295  0.7372267322945930
  0.6532386858564259  0.5881680723177208  0.6988425882207560
  0.6138047626720523  0.5881716962237756  0.6988366625754564
  0.6532324349377737  0.5653345482367818  0.7372339399206786
  0.6335176436760330  0.5994998689316462  0.7372565382933575
  0.5890103968593171  0.6023849317999321  0.7393022724145929
  0.6087300696625798  0.6137524279407975  0.7715213560622943
  0.5890124489343039  0.5795901625871765  0.7714911043973258
  0.6335188300351128  0.5767065448755382  0.7694457691371682
  0.5692961464782064  0.6137560518468526  0.7715154304169949
  0.6087420439518108  0.6652126370592593  0.6988425882207560
  0.5890244232235349  0.6310503717056385  0.6988123365557872
  0.5693081207674368  0.6652162609653141  0.6988366625754564
  0.6335308043243436  0.6281667539939999  0.6967670012956295
  0.5693034507035739  0.6423830596686678  0.7372267322945930
  0.6087357930331582  0.6423791129783198  0.7372339399206786
  0.5890210017714175  0.6765444336731850  0.7372565382933575
  0.5890221881304977  0.6537511096170767  0.7694457691371682
  0.6532482587133490  0.6907969926823359  0.7715213560622943
  0.6335285859100863  0.6794294965414706  0.7393022724145929
  0.6138143355289756  0.6908006165883911  0.7715154304169949
  0.6335306379850733  0.6566347273287149  0.7714911043973258
  0.7028149235635738  0.5653384949271295  0.7372267322945930
  0.7225456352797285  0.6281667539939999  0.6967670012956295
  0.7028195936274372  0.5881716962237756  0.6988366625754564
  0.7422535168118106  0.5881680723177208  0.6988425882207560
  0.7422472658931580  0.5653345482367818  0.7372339399206786
  0.7225324746314173  0.5994998689316462  0.7372565382933575
  0.6780252278147014  0.6023849317999321  0.7393022724145929
  0.6780272798896888  0.5795901625871765  0.7714911043973258
  0.6977449006179646  0.6137524279407975  0.7715213560622943
  0.6583109774335907  0.6137560518468526  0.7715154304169949
  0.7225336609904975  0.5767065448755382  0.7694457691371682
  0.6583182816589587  0.6423830596686678  0.7372267322945930
  0.6977568749071951  0.6652126370592593  0.6988425882207560
  0.6780392541789196  0.6310503717056385  0.6988123365557872
  0.6583229517228216  0.6652162609653141  0.6988366625754564
  0.6977506239885425  0.6423791129783198  0.7372339399206786
  0.7028291664843599  0.6908006165883911  0.7715154304169949
  0.7225434168654706  0.6794294965414706  0.7393022724145929
  0.7422630896687338  0.6907969926823359  0.7715213560622943
  0.7225454689404580  0.6566347273287149  0.7714911043973258
  0.6780358327268022  0.6765444336731850  0.7372565382933575
  0.6780370190858820  0.6537511096170767  0.7694457691371682
  0.6087022715977731  0.4368297743767814  0.8099127077622170
  0.6582847602235741  0.4368337210671295  0.8099055001361315
  0.5889874803360329  0.4709950950716462  0.8099353061348957
  0.6334950644747017  0.4738801579399323  0.8119810402561313
  0.5889886666951131  0.4482017710155381  0.8421245369787066
  0.6334971165496891  0.4510853887271767  0.8441698722388640
  0.6532084863593118  0.4624141299998583  0.8825914756037554
  0.6137761440297280  0.4624180766902067  0.8825842679776699
  0.6532147372779644  0.4852476540807979  0.8442001239038329
  0.6137808140935905  0.4852512779868525  0.8441941982585333
  0.5889984225700862  0.5509247226814705  0.8119810402561313
  0.6137881183189585  0.5138782858086680  0.8099055001361315
  0.6532204606485423  0.5138743391183200  0.8099127077622170
  0.6335056693868016  0.5480396598131845  0.8099353061348957
  0.6335068557458823  0.5252463357570769  0.8421245369787066
  0.5890004746450735  0.5281299534687151  0.8441698722388640
  0.6087180953733489  0.5622922188223360  0.8442001239038329
  0.6087118444546963  0.5394586947413968  0.8825914756037554
  0.6334936950975711  0.4965794506947233  0.8826140739764341
  0.5889864482808552  0.4994645135630092  0.8846598080976696
  0.6977171025531579  0.4368297743767814  0.8099127077622170
  0.6780023112914172  0.4709950950716462  0.8099353061348957
  0.7225098954300860  0.4738801579399323  0.8119810402561313
  0.6780034976504978  0.4482017710155381  0.8421245369787066
  0.7225119475050734  0.4510853887271767  0.8441698722388640
  0.7027956450489753  0.4852512779868525  0.8441941982585333
  0.7225085260529563  0.4965794506947233  0.8826140739764341
  0.7027909749851123  0.4624180766902067  0.8825842679776699
  0.7422233173146962  0.4624141299998583  0.8825914756037554
  0.7422295682333492  0.4852476540807979  0.8442001239038329
  0.6780132535254714  0.5509247226814705  0.8119810402561313
  0.7225205003421868  0.5480396598131845  0.8099353061348957
  0.7028029492743433  0.5138782858086680  0.8099055001361315
  0.7422352916039271  0.5138743391183200  0.8099127077622170
  0.7225216867012670  0.5252463357570769  0.8421245369787066
  0.6780153056004583  0.5281299534687151  0.8441698722388640
  0.6977266754100810  0.5394586947413968  0.8825914756037554
  0.6582943330804968  0.5394626414317449  0.8825842679776699
  0.6582990031443597  0.5622958427283911  0.8441941982585333
  0.6977329263287336  0.5622922188223360  0.8442001239038329
  0.6780012792362401  0.4994645135630092  0.8846598080976696
  0.5889885003558426  0.4766697443502536  0.9168486400804027
  0.6137688398043600  0.4337910688683911  0.9168729661000716
  0.6532027629887335  0.4337874449623360  0.9168788917453715
  0.6334948814566518  0.4737861266386150  0.9148033048202450
  0.6087061210841184  0.5108320097038748  0.9168788917453715
  0.5889982395520362  0.5508306913801538  0.9148033048202450
  0.6335066894066118  0.5537143090917922  0.9168486400804027
  0.6780033313112274  0.4766697443502536  0.9168486400804027
  0.6977209520395027  0.5108320097038748  0.9168788917453715
  0.6582870288551292  0.5108356336099291  0.9168729661000716
  0.6780130705074205  0.5508306913801538  0.9148033048202450
  0.6335166116208554  0.6279692874230093  0.8119810402561313
  0.6087238187439272  0.5909189038598586  0.8099127077622170
  0.5890090274821865  0.6250842245547231  0.8099353061348957
  0.5890102138412667  0.6022909004986150  0.8421245369787066
  0.6335186636958423  0.6051745182102535  0.8441698722388640
  0.6335046373316241  0.5765090783045473  0.8846598080976696
  0.6335164286028054  0.6278752561216919  0.9148033048202450
  0.5889970531929560  0.5736240154362614  0.8826140739764341
  0.6532300335054655  0.6165032594829355  0.8825914756037554
  0.6137976911758817  0.6165072061732835  0.8825842679776699
  0.5890220217912272  0.6822190829517918  0.8441698722388640
  0.6532420077946964  0.6679634686013968  0.8099127077622170
  0.6335284028920359  0.6793354652401536  0.8421245369787066
  0.6138096654651126  0.6679674152917450  0.8099055001361315
  0.6138023612397446  0.6393404074699294  0.8441941982585333
  0.6532362844241181  0.6393367835638745  0.8442001239038329
  0.6335152422437252  0.6506685801777999  0.8826140739764341
  0.6087333916008504  0.6935478242244738  0.8825914756037554
  0.5890079954270093  0.6535536430460862  0.8846598080976696
  0.5890100475019967  0.6307588738333305  0.9168486400804027
  0.7225314425762401  0.6279692874230093  0.8119810402561313
  0.6780238584375713  0.6250842245547231  0.8099353061348957
  0.6977386496993115  0.5909189038598586  0.8099127077622170
  0.6583063073697277  0.5909228505502063  0.8099055001361315
  0.6780250447966515  0.6022909004986150  0.8421245369787066
  0.7225334946512271  0.6051745182102535  0.8441698722388640
  0.7028125221312665  0.6165072061732835  0.8825842679776699
  0.6780118841483403  0.5736240154362614  0.8826140739764341
  0.7225194682870089  0.5765090783045473  0.8846598080976696
  0.7028244964204974  0.6679674152917450  0.8099055001361315
  0.7028171921951289  0.6393404074699294  0.8441941982585333
  0.7422568387500807  0.6679634686013968  0.8099127077622170
  0.6780368527466120  0.6822190829517918  0.8441698722388640
  0.7225432338474207  0.6793354652401536  0.8421245369787066
  0.7422511153795028  0.6393367835638745  0.8442001239038329
  0.6780228263823942  0.6535536430460862  0.8846598080976696
  0.6583158802266510  0.6935517709148219  0.8825842679776699
  0.6532243101348876  0.5878765744454130  0.9168788917453715
  0.6137903869505137  0.5878801983514678  0.9168729661000716
  0.6087276682302720  0.6649211391869515  0.9168788917453715
  0.7670446786166513  0.4999534780063075  0.5514094656125527
  0.7918201816620354  0.4627095745625142  0.6645479644530544
  0.7918248517258982  0.4855427758591602  0.6261578947339179
  0.7670327043274199  0.4484932688878460  0.6240882334540911
  0.7670315179683406  0.4712865929439539  0.5918990026102804
  0.7473186369643600  0.4599584202360833  0.5534791268923795
  0.7473139669004967  0.4371252189394371  0.5918691966115160
  0.7918368260151292  0.5370029849776219  0.5534791268923795
  0.7670445122773808  0.5284214513410228  0.6261335687142487
  0.7918321559512659  0.5141697836809754  0.5918691966115160
  0.8115508933781891  0.5255378336293843  0.6240882334540911
  0.7473355140466508  0.5912143484225141  0.5918691966115160
  0.7670564865666117  0.5798816604594840  0.5534548008727104
  0.8115628676674209  0.5769980427478461  0.5514094656125527
  0.7867678563762355  0.5912104017321661  0.5918764042376016
  0.7670424602023940  0.5512162205537782  0.5939447367315160
  0.8363503450020355  0.5912143484225141  0.5918691966115160
  0.8115497070191099  0.5483311576854927  0.5918990026102804
  0.7670542514735749  0.6025823983709230  0.6240882334540911
  0.8363430407766680  0.5625873406006987  0.6261578947339179
  0.7473282098212831  0.5625873406006987  0.6261578947339179
  0.8560690824289592  0.6025823983709230  0.6240882334540911
  0.7867621330056562  0.5625837166946438  0.6261638203792175
  0.8363383707128046  0.5397541393040526  0.6645479644530544
  0.7473235397574203  0.5397541393040526  0.6645479644530544
  0.8115377327298789  0.4968709485670307  0.6645777704518190
  0.7867439077977736  0.4882899834952431  0.7372339399206786
  0.7918128774366674  0.4340825667406988  0.6988366625754564
  0.8115389190889591  0.4740776245109229  0.6967670012956295
  0.8363263964235741  0.4882939301855913  0.7372267322945930
  0.7670325379881499  0.4769612422225613  0.6988123365557872
  0.7473115654681893  0.4882939301855913  0.7372267322945930
  0.7867558820870041  0.5397501926137046  0.6645551720791399
  0.7867501587164257  0.5111235075761823  0.6988425882207560
  0.7473162355320527  0.5111271314822371  0.6988366625754564
  0.7670304859131626  0.4997560114353167  0.6666235045730544
  0.8363310664874370  0.5111271314822371  0.6988366625754564
  0.7670422771843436  0.5511221892524613  0.6967670012956295
  0.7670410908252638  0.5739155133085693  0.6645777704518190
  0.8115507270389195  0.5540058069640996  0.6988123365557872
  0.8115486749639322  0.5768005761768551  0.6666235045730544
  0.7918344245828219  0.5881716962237756  0.6988366625754564
  0.7918297545189585  0.5653384949271295  0.7372267322945930
  0.8312620968485428  0.5653345482367818  0.7372339399206786
  0.8560571081397284  0.5511221892524613  0.6967670012956295
  0.8312683477671954  0.5881680723177208  0.6988425882207560
  0.8808492555382063  0.5881716962237756  0.6988366625754564
  0.8560559217806482  0.5739155133085693  0.6645777704518190
  0.8115746756173809  0.6569262252010226  0.5534548008727104
  0.7867741072948876  0.6140439258131053  0.5534850525376792
  0.7918583731612833  0.6910921144606986  0.5534791268923795
  0.7670662257628049  0.6540426074893845  0.5514094656125527
  0.7473401841105136  0.6140475497191602  0.5534791268923795
  0.8115606492531632  0.6282607852953165  0.5939447367315160
  0.7670530651144943  0.6253757224270308  0.5918990026102804
  0.7918537030974200  0.6682589131640526  0.5918691966115160
  0.8115724405243441  0.6796269631124611  0.6240882334540911
  0.7918417288081890  0.6167987040455910  0.6645479644530544
  0.8115627013281504  0.6054660160825609  0.6261335687142487
  0.7670660594235349  0.6825105808240994  0.6261335687142487
  0.7918463988720524  0.6396319053422371  0.6261578947339179
  0.8115592798760330  0.6509600780501077  0.6645777704518190
  0.8312740711377733  0.6167947573552429  0.6645551720791399
  0.7670520330593167  0.6538451409183936  0.6666235045730544
  0.8115604662351128  0.6281667539939999  0.6967670012956295
  0.7867717058625798  0.6652126370592593  0.6988425882207560
  0.7473377826782064  0.6652162609653141  0.6988366625754564
  0.7473331126143430  0.6423830596686678  0.7372267322945930
  0.7670540851343041  0.6310503717056385  0.6988123365557872
  0.7867654549439272  0.6423791129783198  0.7372339399206786
  0.8312860454270047  0.6682549664737046  0.5918764042376016
  0.8312922963456568  0.6910884905546438  0.5534850525376792
  0.8808685340528047  0.6682589131640526  0.5918691966115160
  0.8560678960698791  0.6253757224270308  0.5918990026102804
  0.8808732041166676  0.6910921144606986  0.5534791268923795
  0.8560810567181901  0.6540426074893845  0.5514094656125527
  0.8363550150658984  0.6140475497191602  0.5534791268923795
  0.8808612298274372  0.6396319053422371  0.6261578947339179
  0.9005872714797285  0.6796269631124611  0.6240882334540911
  0.8560808903789197  0.6825105808240994  0.6261335687142487
  0.8312803220564254  0.6396282814361821  0.6261638203792175
  0.8560689160896888  0.6310503717056385  0.6988123365557872
  0.8363479435697277  0.6423830596686678  0.7372267322945930
  0.8560668640147014  0.6538451409183936  0.6666235045730544
  0.8363526136335907  0.6652162609653141  0.6988366625754564
  0.8757865368179646  0.6652126370592593  0.6988425882207560
  0.8808565597635738  0.6167987040455910  0.6645479644530544
  0.9005741108314174  0.6509600780501077  0.6645777704518190
  0.8115387527496887  0.5025455978456379  0.7714911043973258
  0.8115257584406476  0.4454107394485691  0.7372565382933575
  0.7670303028951135  0.4996619801339998  0.7694457691371682
  0.7670185116239321  0.4482958023168550  0.7393022724145929
  0.7867381844271952  0.4596632984577208  0.7715213560622943
  0.7473042612428213  0.4596669223637756  0.7715154304169949
  0.7472995911789588  0.4368337210671295  0.8099055001361315
  0.7670171422468020  0.4709950950716462  0.8099353061348957
  0.8115247263854708  0.4738801579399323  0.8119810402561313
  0.7867319335085426  0.4368297743767814  0.8099127077622170
  0.7918104760043601  0.4852512779868525  0.8441941982585333
  0.7670183286058821  0.4482017710155381  0.8421245369787066
  0.7670291165360325  0.5224553041901077  0.7372565382933575
  0.8115367006747013  0.5253403670583936  0.7393022724145929
  0.7670421108450740  0.5795901625871765  0.7714911043973258
  0.7918224502935906  0.5367114871053139  0.7715154304169949
  0.7918177802297285  0.5138782858086680  0.8099055001361315
  0.7473211383251125  0.5909228505502063  0.8099055001361315
  0.7867534806546963  0.5909189038598586  0.8099127077622170
  0.7473138340997445  0.5622958427283911  0.8441941982585333
  0.8115353312975707  0.5480396598131845  0.8099353061348957
  0.7867477572841184  0.5622922188223360  0.8442001239038329
  0.7670301365558426  0.5281299534687151  0.8441698722388640
  0.7670280844808552  0.5509247226814705  0.8119810402561313
  0.8363190921982061  0.4596669223637756  0.7715154304169949
  0.8560451338504979  0.4996619801339998  0.7694457691371682
  0.8560439474914172  0.5224553041901077  0.7372565382933575
  0.8312563734779644  0.5367078631992592  0.7715213560622943
  0.8312501225593119  0.5138743391183200  0.8099127077622170
  0.8560569418004583  0.5795901625871765  0.7714911043973258
  0.8115484919458827  0.5767065448755382  0.7694457691371682
  0.8115473055868021  0.5994998689316462  0.7372565382933575
  0.7670400587700862  0.6023849317999321  0.7393022724145929
  0.7670506636821866  0.6765444336731850  0.7372565382933575
  0.7867597315733489  0.6137524279407975  0.7715213560622943
  0.7670518500412667  0.6537511096170767  0.7694457691371682
  0.7918439974397447  0.6908006165883911  0.7715154304169949
  0.7473258083889754  0.6137560518468526  0.7715154304169949
  0.7918393273758821  0.6679674152917450  0.8099055001361315
  0.7670386893929561  0.6250842245547231  0.8099353061348957
  0.7670398757520362  0.6022909004986150  0.8421245369787066
  0.8115462735316246  0.6279692874230093  0.8119810402561313
  0.8115602998958432  0.6566347273287149  0.7714911043973258
  0.8115582478208554  0.6794294965414706  0.7393022724145929
  0.8363406393443598  0.6137560518468526  0.7715154304169949
  0.8560548897254709  0.6023849317999321  0.7393022724145929
  0.7473091640358817  0.5394626414317449  0.8825842679776699
  0.4110474613343041  0.7345537856871766  0.1173821938234796
  0.4555538424351128  0.7316701679755382  0.1153368585633220
  0.5000622922896889  0.7345537856871766  0.1173821938234796
  0.3022996835697278  0.6944262645317449  0.2284753574038237
  0.2527234458625799  0.7172558419223362  0.1900912133299868
  0.2578030416651127  0.7714708292732833  0.2284753574038237
  0.2775110198760330  0.7030032829131846  0.1558263955610497
  0.3023043536335911  0.7172594658283908  0.1900852876846872
  0.3220303952858829  0.7572545235986151  0.1880156264048604
  0.3417440001885430  0.7458825269598585  0.1558037971883711
  0.3468178726204971  0.7714708292732833  0.2284753574038237
  0.3665388451404580  0.7601381413102535  0.1900609616650180
  0.3468225426843604  0.7943040305699293  0.1900852876846872
  0.2775120398958428  0.7086779321917920  0.2627397295065563
  0.2330035900412668  0.7057943144801536  0.2606943942463988
  0.2527171949439273  0.6944223178413967  0.2284825650299094
  0.2577910673758818  0.7200106201548219  0.3011541252453622
  0.2972234097054660  0.7200066734644739  0.3011613328714478
  0.2775099878208555  0.7314727014045475  0.2305508975238236
  0.2330024036821871  0.7285876385362616  0.2285051634025882
  0.2972296606241182  0.7428401975454130  0.2627699811715252
  0.2577957374397447  0.7428438214514678  0.2627640555262256
  0.2775086184437253  0.7541719941593383  0.3011839312441265
  0.2972353839946965  0.7714668825829353  0.2284825650299094
  0.2330013716270095  0.7570570570276243  0.3032296653653622
  0.2775217790920360  0.7828388792216918  0.2606943942463988
  0.2330153979912273  0.7857224969333304  0.2627397295065563
  0.3417320258993121  0.6944223178413967  0.2284825650299094
  0.3220184209966516  0.7057943144801536  0.2606943942463988
  0.3220172346375714  0.7285876385362616  0.2285051634025882
  0.3468058983312666  0.7200106201548219  0.3011541252453622
  0.3468105683951295  0.7428438214514678  0.2627640555262256
  0.3220162025823942  0.7570570570276243  0.3032296653653622
  0.3220302289466120  0.7857224969333304  0.2627397295065563
  0.3665234493991101  0.7541719941593383  0.3011839312441265
  0.3665366100474208  0.7828388792216918  0.2606943942463988
  0.2527267678008505  0.7970512382060122  0.3011613328714478
  0.2775195606777787  0.8341016217691629  0.3032296653653622
  0.3665354236883415  0.8056322032778003  0.2285051634025882
  0.3220281768716252  0.8085172661460858  0.2305508975238236
  0.3023139264905144  0.8198883861930064  0.2627640555262256
  0.3417478496748874  0.8198847622869514  0.2627699811715252
  0.3220268074944950  0.8312165589008769  0.3011839312441265
  0.3023092564266510  0.7970551848963602  0.3011541252453622
  0.3468274454774202  0.8740997496378986  0.3011541252453622
  0.3417415987562357  0.7970512382060122  0.3011613328714478
  0.3665343916331634  0.8341016217691629  0.3032296653653622
  0.4110440398821871  0.7800478476547231  0.1558263955610497
  0.4110334349700863  0.7058883457814705  0.1578721296822854
  0.3913191845889759  0.7172594658283908  0.1900852876846872
  0.3913264888143431  0.7458864736502064  0.1557965895622852
  0.4307588311439273  0.7458825269598585  0.1558037971883711
  0.4110452262412677  0.7572545235986151  0.1880156264048604
  0.4307531077733499  0.7172558419223362  0.1900912133299868
  0.4555406817868022  0.7030032829131846  0.1558263955610497
  0.4555516240208555  0.7829329105230088  0.1578721296822854
  0.4555536760958428  0.7601381413102535  0.1900609616650180
  0.5197679387287337  0.7172558419223362  0.1900912133299868
  0.5000600571966516  0.7572545235986151  0.1880156264048604
  0.4803340155443603  0.7172594658283908  0.1900852876846872
  0.5000482659254710  0.7058883457814705  0.1578721296822854
  0.3862564658687339  0.7943004066638747  0.1900912133299868
  0.4358373736397447  0.7943040305699293  0.1900852876846872
  0.5000718651466125  0.8371827060517918  0.1900609616650180
  0.4555634152920365  0.8342990883401536  0.1880156264048604
  0.4752712968241182  0.7943004066638747  0.1900912133299868
  0.4110332519520363  0.7057943144801536  0.2606943942463988
  0.4307468568546968  0.6944223178413967  0.2284825650299094
  0.4358207292866509  0.7200106201548219  0.3011541252453622
  0.3862382406608504  0.7200066734644739  0.3011613328714478
  0.4358253993505142  0.7428438214514678  0.2627640555262256
  0.4110310335377785  0.7570570570276243  0.3032296653653622
  0.3862502149500813  0.7714668825829353  0.2284825650299094
  0.4358327035758818  0.7714708292732833  0.2284753574038237
  0.4110450599019968  0.7857224969333304  0.2627397295065563
  0.4307564297116200  0.7970512382060122  0.3011613328714478
  0.4752530716162351  0.7200066734644739  0.3011613328714478
  0.4803293454804974  0.6944262645317449  0.2284753574038237
  0.5197616878100811  0.6944223178413967  0.2284825650299094
  0.4555417018066124  0.7086779321917920  0.2627397295065563
  0.5000480829074206  0.7057943144801536  0.2606943942463988
  0.5000468965483409  0.7285876385362616  0.2285051634025882
  0.4555396497316250  0.7314727014045475  0.2305508975238236
  0.4752593225348873  0.7428401975454130  0.2627699811715252
  0.4555382803544945  0.7541719941593383  0.3011839312441265
  0.4752650459054661  0.7714668825829353  0.2284825650299094
  0.5000598908573816  0.7857224969333304  0.2627397295065563
  0.5000458644931634  0.7570570570276243  0.3032296653653622
  0.5197712606670049  0.7970512382060122  0.3011613328714478
  0.4555514410028055  0.7828388792216918  0.2606943942463988
  0.4307684040008505  0.8485114473244737  0.2284825650299094
  0.4110430078270099  0.8085172661460858  0.2305508975238236
  0.3913360616712663  0.8485153940148217  0.2284753574038237
  0.4110547990981895  0.8598834439632304  0.2606943942463988
  0.3665484179973812  0.8627670616748689  0.2627397295065563
  0.3913287574458991  0.8198883861930064  0.2627640555262256
  0.4307626806302717  0.8198847622869514  0.2627699811715252
  0.4358422764328050  0.8740997496378986  0.3011541252453622
  0.4110416384498798  0.8312165589008769  0.3011839312441265
  0.3913240873820358  0.7970551848963602  0.3011541252453622
  0.3862597878070045  0.8740958029475505  0.3011613328714478
  0.4555502546437258  0.8056322032778003  0.2285051634025882
  0.4803508926266510  0.8485153940148217  0.2284753574038237
  0.5000696300535743  0.8598834439632304  0.2606943942463988
  0.4555632489527660  0.8627670616748689  0.2627397295065563
  0.4752746187623888  0.8740958029475505  0.3011613328714478
  0.4803389183374201  0.7970551848963602  0.3011541252453622
  0.4555492225885478  0.8341016217691629  0.3032296653653622
  0.5000564694052640  0.8312165589008769  0.3011839312441265
  0.4555598275006486  0.9082611236424155  0.3011839312441265
  0.2527210444302722  0.7684245531684899  0.3354487490130638
  0.2330000022498793  0.7797563497824155  0.3738626990856652
  0.2527090701410417  0.7169643440500284  0.4081275168546021
  0.2330011886089595  0.7569630257263074  0.4060519299294758
  0.2527147935116196  0.7455910290875507  0.3738401007129862
  0.2329893973377790  0.7055968479091628  0.3759084332069006
  0.2330034237019968  0.7342622878148687  0.3354184973480949
  0.2774966441544944  0.7027117850408768  0.3738626990856652
  0.2775096384635355  0.7598466434379457  0.4080972651896333
  0.2775098048028055  0.7313786701032305  0.3333731620879373
  0.3022972821374205  0.7455949757778985  0.3738328930869006
  0.3023019522012830  0.7684281770745449  0.3354428233677641
  0.3665246357581903  0.7313786701032305  0.3333731620879373
  0.3417358753856569  0.7684245531684899  0.3354487490130638
  0.3220182546573815  0.7342622878148687  0.3354184973480949
  0.3417296244670043  0.7455910290875507  0.3738401007129862
  0.3220148332052636  0.7797563497824155  0.3738626990856652
  0.3665114751098792  0.7027117850408768  0.3738626990856652
  0.3665244694189203  0.7598466434379457  0.4080972651896333
  0.3220160195643438  0.7569630257263074  0.4060519299294758
  0.3220042282931633  0.7055968479091628  0.3759084332069006
  0.3022899779120525  0.7169679679560832  0.4081215912093025
  0.3417239010964260  0.7169643440500284  0.4081275168546021
  0.2330129965589199  0.8368912081794841  0.4080972651896333
  0.2527306172871953  0.8710534735331051  0.4081275168546021
  0.2330131628981904  0.8084232348447689  0.3333731620879373
  0.2577933360074370  0.7940125326976217  0.4081215912093025
  0.2775075863885477  0.7826414126507012  0.3759084332069006
  0.2775193776597287  0.8340075904678460  0.4060519299294758
  0.3220279938535747  0.8084232348447689  0.3333731620879373
  0.3468201412520522  0.8454727418160832  0.3354428233677641
  0.3468154711881897  0.8226395405194371  0.3738328930869006
  0.3220257754393170  0.8596859773922397  0.3759084332069006
  0.3665224173439325  0.7826414126507012  0.3759084332069006
  0.3023115250582062  0.8710570974391602  0.4081215912093025
  0.3220278275143043  0.8368912081794841  0.4080972651896333
  0.3468081669628217  0.7940125326976217  0.4081215912093025
  0.3417454482425797  0.8710534735331051  0.4081275168546021
  0.2972272591918100  0.7940089087915668  0.4081275168546021
  0.2972210082731578  0.7711753847106279  0.4465188685545248
  0.2577886659435741  0.7711793314009754  0.4465116609284391
  0.2774956120993177  0.7311812035322397  0.4485872010484390
  0.2329880279606488  0.7282961406639540  0.4465414669272034
  0.2527028192223891  0.6941308199690890  0.4465188685545248
  0.2329892143197285  0.7055028166078460  0.4787306977710143
  0.2775074033704978  0.7825473813493845  0.4787306977710143
  0.2330010222696886  0.7854309990610226  0.4807760330311719
  0.2774976641743042  0.7083864343194843  0.4807760330311719
  0.2972090339839278  0.7197151755921661  0.5191976363960632
  0.2577813617182065  0.7425523235791601  0.4808003590508410
  0.2972152849025800  0.7425486996731053  0.4808062846961406
  0.2577766916543431  0.7197191222825141  0.5191904287699776
  0.3665104430547020  0.7311812035322397  0.4485872010484390
  0.3468034968989588  0.7711793314009754  0.4465116609284391
  0.3417176501777734  0.6941308199690890  0.4465188685545248
  0.3220028589160336  0.7282961406639540  0.4465414669272034
  0.3022853078481892  0.6941347666594372  0.4465116609284391
  0.3220040452751129  0.7055028166078460  0.4787306977710143
  0.3665222343258821  0.7825473813493845  0.4787306977710143
  0.3665124951296889  0.7083864343194843  0.4807760330311719
  0.3467915226097279  0.7197191222825141  0.5191904287699776
  0.3467961926735908  0.7425523235791601  0.4808003590508410
  0.3220158532250734  0.7854309990610226  0.4807760330311719
  0.2527243663685427  0.8482199494521659  0.4465188685545248
  0.2775062170114176  0.8053407054054923  0.4465414669272034
  0.2329989701947017  0.8082257682737781  0.4485872010484390
  0.2775171592454709  0.8852703330153167  0.4485872010484390
  0.2330107614658822  0.8595919460909228  0.4787306977710143
  0.2775192113204583  0.8624755638025611  0.4807760330311719
  0.2527186429979644  0.8195932644146436  0.4808062846961406
  0.2577982388004968  0.8738082517655911  0.5191904287699776
  0.2527123920793118  0.7967597403337047  0.5191976363960632
  0.2972305811300811  0.8738043050752433  0.5191976363960632
  0.3665319902008557  0.8852703330153167  0.4485872010484390
  0.3665210479668023  0.8053407054054923  0.4465414669272034
  0.3023068549943433  0.8482238961425139  0.4465116609284391
  0.3417391973239275  0.8482199494521659  0.4465188685545248
  0.3220244060621868  0.8823852701470307  0.4465414669272034
  0.3220138011500865  0.8082257682737781  0.4485872010484390
  0.3417272230346966  0.7967597403337047  0.5191976363960632
  0.3220255924212670  0.8595919460909228  0.4787306977710143
  0.3022995507689757  0.8195968883206984  0.4808003590508410
  0.3468130697558820  0.8738082517655911  0.5191904287699776
  0.3022948807051123  0.7967636870240525  0.5191904287699776
  0.3417334739533492  0.8195932644146436  0.4808062846961406
  0.3913167831566678  0.7684281770745449  0.3354428233677641
  0.4110330856127659  0.7342622878148687  0.3354184973480949
  0.4307507063410417  0.7684245531684899  0.3354487490130638
  0.3913121130928049  0.7455949757778985  0.3738328930869006
  0.4307444554223891  0.7455910290875507  0.3738401007129862
  0.4110296641606484  0.7797563497824155  0.3738626990856652
  0.4555263060652640  0.7027117850408768  0.3738626990856652
  0.4110190592485481  0.7055968479091628  0.3759084332069006
  0.4307387320518108  0.7169643440500284  0.4081275168546021
  0.3913048088674368  0.7169679679560832  0.4081215912093025
  0.4110308505197286  0.7569630257263074  0.4060519299294758
  0.4555394667135750  0.7313786701032305  0.3333731620879373
  0.5197655372964261  0.7684245531684899  0.3354487490130638
  0.5000479165681506  0.7342622878148687  0.3354184973480949
  0.4803316141120526  0.7684281770745449  0.3354428233677641
  0.4803269440481897  0.7455949757778985  0.3738328930869006
  0.5197592863777735  0.7455910290875507  0.3738401007129862
  0.5000444951160332  0.7797563497824155  0.3738626990856652
  0.4555372482993173  0.7826414126507012  0.3759084332069006
  0.5000338902039324  0.7055968479091628  0.3759084332069006
  0.5000456814751129  0.7569630257263074  0.4060519299294758
  0.5197535630071956  0.7169643440500284  0.4081275168546021
  0.4803196398228216  0.7169679679560832  0.4081215912093025
  0.4555393003743050  0.7598466434379457  0.4080972651896333
  0.3665364437081507  0.8113068525564072  0.3354184973480949
  0.4110428248089595  0.8084232348447689  0.3333731620879373
  0.3862478135177735  0.8226355938290894  0.3738401007129862
  0.3862540644364261  0.8454691179100282  0.3354487490130638
  0.3665330222560328  0.8568009145239538  0.3738626990856652
  0.4307602791979640  0.8710534735331051  0.4081275168546021
  0.3665342086151130  0.8340075904678460  0.4060519299294758
  0.4110406063947017  0.8596859773922397  0.3759084332069006
  0.4110426584696891  0.8368912081794841  0.4080972651896333
  0.3862420901471948  0.7940089087915668  0.4081275168546021
  0.3913263560135909  0.8710570974391602  0.4081215912093025
  0.4358349722074370  0.8454727418160832  0.3354428233677641
  0.4752688953918109  0.8454691179100282  0.3354487490130638
  0.4555512746635351  0.8113068525564072  0.3354184973480949
  0.5000576557643438  0.8084232348447689  0.3333731620879373
  0.4555478532114176  0.8568009145239538  0.3738626990856652
  0.4752626444731583  0.8226355938290894  0.3738401007129862
  0.4358303021435741  0.8226395405194371  0.3738328930869006
  0.5000554373500865  0.8596859773922397  0.3759084332069006
  0.4555490395704978  0.8340075904678460  0.4060519299294758
  0.5000574894250738  0.8368912081794841  0.4080972651896333
  0.5197751101533488  0.8710534735331051  0.4081275168546021
  0.4358229979182065  0.7940125326976217  0.4081215912093025
  0.4803411869689757  0.8710570974391602  0.4081215912093025
  0.4752569211025796  0.7940089087915668  0.4081275168546021
  0.4110188762304977  0.7055028166078460  0.4787306977710143
  0.3913001388035739  0.6941347666594372  0.4465116609284391
  0.4307324811331582  0.6941308199690890  0.4465188685545248
  0.3862238649393122  0.7197151755921661  0.5191976363960632
  0.4358063535651127  0.7197191222825141  0.5191904287699776
  0.4110176898714183  0.7282961406639540  0.4465414669272034
  0.4358183278543436  0.7711793314009754  0.4465116609284391
  0.3862358392285427  0.7711753847106279  0.4465188685545248
  0.3862301158579647  0.7425486996731053  0.4808062846961406
  0.4358110236289756  0.7425523235791601  0.4808003590508410
  0.4110306841804581  0.7854309990610226  0.4807760330311719
  0.4752386958946969  0.7197151755921661  0.5191976363960632
  0.4555273260850737  0.7083864343194843  0.4807760330311719
  0.4803149697589583  0.6941347666594372  0.4465116609284391
  0.5000337071858825  0.7055028166078460  0.4787306977710143
  0.5197473120885430  0.6941308199690890  0.4465188685545248
  0.4555252740100868  0.7311812035322397  0.4485872010484390
  0.5000325208268027  0.7282961406639540  0.4465414669272034
  0.4752449468133495  0.7425486996731053  0.4808062846961406
  0.4555370652812669  0.7825473813493845  0.4787306977710143
  0.5000455151358429  0.7854309990610226  0.4807760330311719
  0.4752506701839274  0.7711753847106279  0.4465188685545248
  0.4307540282793123  0.8482199494521659  0.4465188685545248
  0.4110392370175716  0.8823852701470307  0.4465414669272034
  0.3913216859497276  0.8482238961425139  0.4465116609284391
  0.4110286321054712  0.8082257682737781  0.4485872010484390
  0.4110404233766513  0.8595919460909228  0.4787306977710143
  0.3665340422758426  0.8624755638025611  0.4807760330311719
  0.3913143817243600  0.8195968883206984  0.4808003590508410
  0.4307483049087339  0.8195932644146436  0.4808062846961406
  0.4358279007112664  0.8738082517655911  0.5191904287699776
  0.3862454120854658  0.8738043050752433  0.5191976363960632
  0.3913097116604971  0.7967636870240525  0.5191904287699776
  0.4307420539900814  0.7967597403337047  0.5191976363960632
  0.4555358789221872  0.8053407054054923  0.4465414669272034
  0.4803365169051124  0.8482238961425139  0.4465116609284391
  0.5197688592346966  0.8482199494521659  0.4465188685545248
  0.5000540679729564  0.8823852701470307  0.4465414669272034
  0.4555468211562400  0.8852703330153167  0.4485872010484390
  0.5000434630608560  0.8082257682737781  0.4485872010484390
  0.5000552543320366  0.8595919460909228  0.4787306977710143
  0.4803292126797448  0.8195968883206984  0.4808003590508410
  0.4803245426158819  0.7967636870240525  0.5191904287699776
  0.4752602430408506  0.8738043050752433  0.5191976363960632
  0.5197631358641187  0.8195932644146436  0.4808062846961406
  0.4555488732312273  0.8624755638025611  0.4807760330311719
  0.3665461829043439  0.8854677995863075  0.3333731620879373
  0.3417511716131575  0.8996801585706274  0.3738401007129862
  0.3220398018035352  0.8883514172979459  0.3354184973480949
  0.2972368320487336  0.8966378291561823  0.4808062846961406
  0.3220375667104979  0.9110521552093843  0.4060519299294758
  0.3665460165650735  0.9139357729210227  0.4080972651896333
  0.3468250440451125  0.9252684608840526  0.4465116609284391
  0.3665437814720362  0.9366365108324612  0.4787306977710143
  0.3468177398197449  0.8966414530622370  0.4808003590508410
  0.4307660025685424  0.8996801585706274  0.3738401007129862
  0.3913336602389590  0.8996841052609752  0.3738328930869006
  0.4110546327589200  0.8883514172979459  0.3354184973480949
  0.4307722534871958  0.9225136826515669  0.3354487490130638
  0.4110512113068021  0.9338454792654924  0.3738626990856652
  0.5197870844425806  0.9225136826515669  0.3354487490130638
  0.4803484911943433  0.8996841052609752  0.3738328930869006
  0.5197808335239271  0.8996801585706274  0.3738401007129862
  0.5000660422621869  0.9338454792654924  0.3738626990856652
  0.4555587954454710  0.9367305421337782  0.3759084332069006
  0.4358398750004968  0.9252684608840526  0.4465116609284391
  0.4110523976658818  0.9110521552093843  0.4060519299294758
  0.3862573863746968  0.9252645141937046  0.4465188685545248
  0.4110522313266118  0.9395201285440996  0.4807760330311719
  0.4358325707751293  0.8966414530622370  0.4808003590508410
  0.3862516630041184  0.8966378291561823  0.4808062846961406
  0.4307636011362350  0.9508488698167814  0.5191976363960632
  0.4752722173300815  0.9252645141937046  0.4465188685545248
  0.5000672286212666  0.9110521552093843  0.4060519299294758
  0.4555608475204587  0.9139357729210227  0.4080972651896333
  0.4752784682487337  0.9480980382746437  0.4081275168546021
  0.4555586124274206  0.9366365108324612  0.4787306977710143
  0.5000670622819966  0.9395201285440996  0.4807760330311719
  0.5197784320916198  0.9508488698167814  0.5191976363960632
  0.4803460897620356  0.9508528165071295  0.5191904287699776
  0.4752664939595032  0.8966378291561823  0.4808062846961406
  0.5890771232450741  0.7345537856871766  0.1173821938234796
  0.5693561507251126  0.7458864736502064  0.1557965895622852
  0.6087884930546968  0.7458825269598585  0.1558037971883711
  0.6583709816804970  0.7458864736502064  0.1557965895622852
  0.5693488464997450  0.7172594658283908  0.1900852876846872
  0.5445555127421874  0.7030032829131846  0.1558263955610497
  0.6087765187654659  0.6944223178413967  0.2284825650299094
  0.5693441764358822  0.6944262645317449  0.2284753574038237
  0.5890630968808553  0.7058883457814705  0.1578721296822854
  0.5445544806870098  0.7314727014045475  0.2305508975238236
  0.5890617275037257  0.7285876385362616  0.2285051634025882
  0.5890748881520363  0.7572545235986151  0.1880156264048604
  0.5445685070512281  0.7601381413102535  0.1900609616650180
  0.5642798768608503  0.7714668825829353  0.2284825650299094
  0.5248475345312666  0.7714708292732833  0.2284753574038237
  0.5445664549762402  0.7829329105230088  0.1578721296822854
  0.5890737017929566  0.7800478476547231  0.1558263955610497
  0.6583636774551298  0.7172594658283908  0.1900852876846872
  0.6087827696841185  0.7172558419223362  0.1900912133299868
  0.6583590073912674  0.6944262645317449  0.2284753574038237
  0.6335693116423946  0.7314727014045475  0.2305508975238236
  0.6780765584591100  0.7285876385362616  0.2285051634025882
  0.6780897191074211  0.7572545235986151  0.1880156264048604
  0.6335833380066128  0.7601381413102535  0.1900609616650180
  0.5248522045951295  0.7943040305699293  0.1900852876846872
  0.5642861277795029  0.7943004066638747  0.1900912133299868
  0.5890726697377791  0.8085172661460858  0.2305508975238236
  0.5445650855991101  0.8056322032778003  0.2285051634025882
  0.5445782462474208  0.8342990883401536  0.1880156264048604
  0.6087980659116197  0.8485114473244737  0.2284825650299094
  0.5693657235820359  0.8485153940148217  0.2284753574038237
  0.6533009587348877  0.7943004066638747  0.1900912133299868
  0.6335799165544949  0.8056322032778003  0.2285051634025882
  0.6780875006931638  0.8085172661460858  0.2305508975238236
  0.6138670355505143  0.7943040305699293  0.1900852876846872
  0.7225851746529560  0.7030032829131846  0.1558263955610497
  0.6977913497208511  0.6944223178413967  0.2284825650299094
  0.6977976006395029  0.7172558419223362  0.1900912133299868
  0.7028771964420366  0.7714708292732833  0.2284753574038237
  0.7225841425977785  0.7314727014045475  0.2305508975238236
  0.7423095387716204  0.7714668825829353  0.2284825650299094
  0.7473738383466517  0.6944262645317449  0.2284753574038237
  0.7670913894144948  0.7285876385362616  0.2285051634025882
  0.7473785084105141  0.7172594658283908  0.1900852876846872
  0.5642741534902721  0.7428401975454130  0.2627699811715252
  0.5445565327619967  0.7086779321917920  0.2627397295065563
  0.5890629138628050  0.7057943144801536  0.2606943942463988
  0.5445662719581894  0.7828388792216918  0.2606943942463988
  0.5890747218127659  0.7857224969333304  0.2627397295065563
  0.5248402303058985  0.7428438214514678  0.2627640555262256
  0.6138550612612833  0.7428438214514678  0.2627640555262256
  0.6138503911974205  0.7200106201548219  0.3011541252453622
  0.5642679025716195  0.7200066734644739  0.3011613328714478
  0.5248355602420357  0.7200106201548219  0.3011541252453622
  0.5693417750035744  0.7455949757778985  0.3738328930869006
  0.5445411370206488  0.7027117850408768  0.3738626990856652
  0.5445531113098793  0.7541719941593383  0.3011839312441265
  0.5445542976689594  0.7313786701032305  0.3333731620879373
  0.5693464450674373  0.7684281770745449  0.3354428233677641
  0.5890593260714180  0.7797563497824155  0.3738626990856652
  0.5890627475235349  0.7342622878148687  0.3354184973480949
  0.5890606954485477  0.7570570570276243  0.3032296653653622
  0.6087803682518108  0.7684245531684899  0.3354487490130638
  0.6087741173331582  0.7455910290875507  0.3738401007129862
  0.6335559679760331  0.7027117850408768  0.3738626990856652
  0.6138719383435741  0.8740997496378986  0.3011541252453622
  0.5693584193566678  0.8198883861930064  0.2627640555262256
  0.5248571073881898  0.8740997496378986  0.3011541252453622
  0.6087923425410413  0.8198847622869514  0.2627699811715252
  0.5890844610089586  0.8598834439632304  0.2606943942463988
  0.5445780799081508  0.8627670616748689  0.2627397295065563
  0.5693537492928049  0.7970551848963602  0.3011541252453622
  0.5445626841668024  0.8568009145239538  0.3738626990856652
  0.5248498031628217  0.8454727418160832  0.3354428233677641
  0.5445640535439326  0.8341016217691629  0.3032296653653622
  0.5445661056189194  0.8113068525564072  0.3354184973480949
  0.5248451330989589  0.8226395405194371  0.3738328930869006
  0.5642774754285427  0.8226355938290894  0.3738401007129862
  0.5642837263471953  0.8454691179100282  0.3354487490130638
  0.5890724867197286  0.8084232348447689  0.3333731620879373
  0.5890713003606485  0.8312165589008769  0.3011839312441265
  0.6138599640543436  0.8226395405194371  0.3738328930869006
  0.6087860916223887  0.7970512382060122  0.3011613328714478
  0.6138646341182066  0.8454727418160832  0.3354428233677641
  0.5642894497177736  0.8740958029475505  0.3011613328714478
  0.7225861946727657  0.7086779321917920  0.2627397295065563
  0.7225959338689594  0.7828388792216918  0.2606943942463988
  0.6780777448181897  0.7057943144801536  0.2606943942463988
  0.7028652221528048  0.7200106201548219  0.3011541252453622
  0.6780895527681511  0.7857224969333304  0.2627397295065563
  0.7028698922166681  0.7428438214514678  0.2627640555262256
  0.6335713637173819  0.7086779321917920  0.2627397295065563
  0.6532827335270047  0.7200066734644739  0.3011613328714478
  0.6335679422652640  0.7541719941593383  0.3011839312441265
  0.6335691286243437  0.7313786701032305  0.3333731620879373
  0.6780741570268027  0.7797563497824155  0.3738626990856652
  0.6583612760228221  0.7684281770745449  0.3354428233677641
  0.6583566059589587  0.7455949757778985  0.3738328930869006
  0.6780755264039324  0.7570570570276243  0.3032296653653622
  0.6780775784789197  0.7342622878148687  0.3354184973480949
  0.6977889482885425  0.7455910290875507  0.3738401007129862
  0.6977951992071956  0.7684245531684899  0.3354487490130638
  0.7225707989314178  0.7027117850408768  0.3738626990856652
  0.7225827732206492  0.7541719941593383  0.3011839312441265
  0.7225839595797289  0.7313786701032305  0.3333731620879373
  0.6978071734964256  0.8198847622869514  0.2627699811715252
  0.6583732503120525  0.8198883861930064  0.2627640555262256
  0.6335929108635351  0.8627670616748689  0.2627397295065563
  0.6583685802481897  0.7970551848963602  0.3011541252453622
  0.6780861313160332  0.8312165589008769  0.3011839312441265
  0.6533042806731584  0.8740958029475505  0.3011613328714478
  0.6978009225777739  0.7970512382060122  0.3011613328714478
  0.6532985573025800  0.8454691179100282  0.3354487490130638
  0.6335788844993169  0.8341016217691629  0.3032296653653622
  0.6532923063839274  0.8226355938290894  0.3738401007129862
  0.6335775151221872  0.8568009145239538  0.3738626990856652
  0.6335809365743041  0.8113068525564072  0.3354184973480949
  0.6780873176751130  0.8084232348447689  0.3333731620879373
  0.7028747950097279  0.8226395405194371  0.3738328930869006
  0.7028794650735913  0.8454727418160832  0.3354428233677641
  0.7225923460775719  0.8568009145239538  0.3738626990856652
  0.7225937154547016  0.8341016217691629  0.3032296653653622
  0.7225957675296889  0.8113068525564072  0.3354184973480949
  0.5642717520579643  0.7940089087915668  0.4081275168546021
  0.5890487211593176  0.7055968479091628  0.3759084332069006
  0.5445520792547016  0.7826414126507012  0.3759084332069006
  0.5890605124304977  0.7569630257263074  0.4060519299294758
  0.5445541313296893  0.7598466434379457  0.4080972651896333
  0.5693298007143430  0.6941347666594372  0.4465116609284391
  0.5248331588097279  0.7711793314009754  0.4465116609284391
  0.6138479897651127  0.7711793314009754  0.4465116609284391
  0.5445421570404581  0.7083864343194843  0.4807760330311719
  0.5248258545843604  0.7425523235791601  0.4808003590508410
  0.5445401049654716  0.7311812035322397  0.4485872010484390
  0.5248211845204974  0.7197191222825141  0.5191904287699776
  0.5445518962366517  0.7825473813493845  0.4787306977710143
  0.5642535268500817  0.7197151755921661  0.5191976363960632
  0.5642597777687338  0.7425486996731053  0.4808062846961406
  0.5890485381412672  0.7055028166078460  0.4787306977710143
  0.5890473517821875  0.7282961406639540  0.4465414669272034
  0.6138360154758817  0.7197191222825141  0.5191904287699776
  0.5890603460912273  0.7854309990610226  0.4807760330311719
  0.5642655011393122  0.7711753847106279  0.4465188685545248
  0.5445507098775715  0.8053407054054923  0.4465414669272034
  0.5248378288735913  0.7940125326976217  0.4081215912093025
  0.5445638705258826  0.8340075904678460  0.4060519299294758
  0.5693560179243605  0.8710570974391602  0.4081215912093025
  0.5890582940162403  0.8082257682737781  0.4485872010484390
  0.5890723203804582  0.8368912081794841  0.4080972651896333
  0.6087899411087335  0.8710534735331051  0.4081275168546021
  0.6087836901900814  0.8482199494521659  0.4465188685545248
  0.5890702683054708  0.8596859773922397  0.3759084332069006
  0.5248427316666511  0.8738082517655911  0.5191904287699776
  0.5445637041866122  0.8624755638025611  0.4807760330311719
  0.5642750739962349  0.8738043050752433  0.5191976363960632
  0.5693393735712666  0.7967636870240525  0.5191904287699776
  0.5693440436351296  0.8195968883206984  0.4808003590508410
  0.6087779668195030  0.8195932644146436  0.4808062846961406
  0.6087717159008504  0.7967597403337047  0.5191976363960632
  0.6138575626220359  0.8738082517655911  0.5191904287699776
  0.6780635521147019  0.7055968479091628  0.3759084332069006
  0.6335669102100864  0.7826414126507012  0.3759084332069006
  0.7225817411654711  0.7826414126507012  0.3759084332069006
  0.6780753433858825  0.7569630257263074  0.4060519299294758
  0.7225837932404585  0.7598466434379457  0.4080972651896333
  0.6583493017335912  0.7169679679560832  0.4081215912093025
  0.6977832249179646  0.7169643440500284  0.4081275168546021
  0.6583446316697278  0.6941347666594372  0.4465116609284391
  0.7028628207204970  0.7711793314009754  0.4465116609284391
  0.6780633690966515  0.7055028166078460  0.4787306977710143
  0.6977769739993120  0.6941308199690890  0.4465188685545248
  0.7028508464312666  0.7197191222825141  0.5191904287699776
  0.7225718189512271  0.7083864343194843  0.4807760330311719
  0.6335569879958428  0.7083864343194843  0.4807760330311719
  0.6532683578054664  0.7197151755921661  0.5191976363960632
  0.6780621827375718  0.7282961406639540  0.4465414669272034
  0.6780751770466120  0.7854309990610226  0.4807760330311719
  0.6532803320946965  0.7711753847106279  0.4465188685545248
  0.6780837298837255  0.8823852701470307  0.4465414669272034
  0.6335787014812669  0.8340075904678460  0.4060519299294758
  0.6583661788158814  0.8482238961425139  0.4465116609284391
  0.6583708488797448  0.8710570974391602  0.4081215912093025
  0.6780850992608560  0.8596859773922397  0.3759084332069006
  0.6780871513358430  0.8368912081794841  0.4080972651896333
  0.6977985211454657  0.8482199494521659  0.4465188685545248
  0.6978047720641187  0.8710534735331051  0.4081275168546021
  0.7028674907843604  0.7940125326976217  0.4081215912093025
  0.7225803717883410  0.8053407054054923  0.4465414669272034
  0.7225935324366517  0.8340075904678460  0.4060519299294758
  0.6977927977748878  0.8195932644146436  0.4808062846961406
  0.6780731249716251  0.8082257682737781  0.4485872010484390
  0.6977865468562352  0.7967597403337047  0.5191976363960632
  0.6583542045266514  0.7967636870240525  0.5191904287699776
  0.6583588745905139  0.8195968883206984  0.4808003590508410
  0.6780849162428056  0.8595919460909228  0.4787306977710143
  0.7225933660973812  0.8624755638025611  0.4807760330311719
  0.6335785351419969  0.8624755638025611  0.4807760330311719
  0.7028723935774207  0.8738082517655911  0.5191904287699776
  0.6532899049516196  0.8738043050752433  0.5191976363960632
  0.5445746584560334  0.9082611236424155  0.3011839312441265
  0.6087956644793114  0.8996801585706274  0.3738401007129862
  0.5445758448151135  0.8854677995863075  0.3333731620879373
  0.5890842946696890  0.8883514172979459  0.3354184973480949
  0.5693633221497281  0.8996841052609752  0.3738328930869006
  0.5693679922135914  0.9225173065576217  0.3354428233677641
  0.6780991256250738  0.8883514172979459  0.3354184973480949
  0.6335906757704978  0.8854677995863075  0.3333731620879373
  0.6583781531051128  0.8996841052609752  0.3738328930869006
  0.5248593760197450  0.9481016621806985  0.4081215912093025
  0.5248547059558816  0.9252684608840526  0.4465116609284391
  0.5445756784758430  0.9139357729210227  0.4080972651896333
  0.5445736264008557  0.9367305421337782  0.3759084332069006
  0.5642870482854658  0.9252645141937046  0.4465188685545248
  0.5890820595766514  0.9110521552093843  0.4060519299294758
  0.5890808732175716  0.9338454792654924  0.3738626990856652
  0.6138695369112659  0.9252684608840526  0.4465116609284391
  0.5445616521116252  0.8852703330153167  0.4485872010484390
  0.5445734433828058  0.9366365108324612  0.4787306977710143
  0.5248474017305140  0.8966414530622370  0.4808003590508410
  0.5693609207174204  0.9508528165071295  0.5191904287699776
  0.6138622326858988  0.8966414530622370  0.4808003590508410
  0.5890818932373814  0.9395201285440996  0.4807760330311719
  0.6533018792408506  0.9252645141937046  0.4465188685545248
  0.6335905094312274  0.9139357729210227  0.4080972651896333
  0.6780968905320361  0.9110521552093843  0.4060519299294758
  0.6335764830670095  0.8852703330153167  0.4485872010484390
  0.6335882743381901  0.9366365108324612  0.4787306977710143
  0.6532961558702722  0.8966378291561823  0.4808062846961406
  0.7028770636412831  0.8966414530622370  0.4808003590508410
  0.7225913140223947  0.8852703330153167  0.4485872010484390
  0.7670903573593172  0.7570570570276243  0.3032296653653622
  0.7868157535331578  0.7970512382060122  0.3011613328714478
  0.7422975644823886  0.7200066734644739  0.3011613328714478
  0.7670925757735740  0.7057943144801536  0.2606943942463988
  0.7473834112035740  0.7970551848963602  0.3011541252453622
  0.7671043837235350  0.7857224969333304  0.2627397295065563
  0.7423038154010412  0.7428401975454130  0.2627699811715252
  0.7473714369143435  0.7455949757778985  0.3738328930869006
  0.7670924094343045  0.7342622878148687  0.3354184973480949
  0.7670783830700862  0.7055968479091628  0.3759084332069006
  0.7868037792439273  0.7455910290875507  0.3738401007129862
  0.7868100301625799  0.7684245531684899  0.3354487490130638
  0.7473761069782069  0.7684281770745449  0.3354428233677641
  0.7670889879821871  0.7797563497824155  0.3738626990856652
  0.7423071373393118  0.8226355938290894  0.3738401007129862
  0.7423133882579648  0.8454691179100282  0.3354487490130638
  0.7671021486304982  0.8084232348447689  0.3333731620879373
  0.7918847231720525  0.7428438214514678  0.2627640555262256
  0.7918800531081895  0.7200106201548219  0.3011541252453622
  0.8115976041760327  0.7541719941593383  0.3011839312441265
  0.8115987905351133  0.7313786701032305  0.3333731620879373
  0.8363862678697283  0.7455949757778985  0.3738328930869006
  0.8363909379335908  0.7684281770745449  0.3354428233677641
  0.8115965721208555  0.7826414126507012  0.3759084332069006
  0.8115856298868022  0.7027117850408768  0.3738626990856652
  0.7918896259651131  0.8226395405194371  0.3738328930869006
  0.7473594626251130  0.6941347666594372  0.4465116609284391
  0.7867918049546972  0.6941308199690890  0.4465188685545248
  0.7670770136929561  0.7282961406639540  0.4465414669272034
  0.8115845978316251  0.7311812035322397  0.4485872010484390
  0.7867980558733494  0.7169643440500284  0.4081275168546021
  0.7473641326889755  0.7169679679560832  0.4081215912093025
  0.7918656773866509  0.7197191222825141  0.5191904287699776
  0.8115866499066119  0.7083864343194843  0.4807760330311719
  0.7670782000520368  0.7055028166078460  0.4787306977710143
  0.7918703474505142  0.7425523235791601  0.4808003590508410
  0.7422831887608503  0.7197151755921661  0.5191976363960632
  0.7423014139687338  0.7940089087915668  0.4081275168546021
  0.7670879559270095  0.8082257682737781  0.4485872010484390
  0.7918776516758819  0.7711793314009754  0.4465116609284391
  0.7918823217397452  0.7940125326976217  0.4081215912093025
  0.8115952027437253  0.8053407054054923  0.4465414669272034
  0.7670901743412673  0.7569630257263074  0.4060519299294758
  0.7670900080019963  0.7854309990610226  0.4807760330311719
  0.8115963891028055  0.7825473813493845  0.4787306977710143
  0.7473690354820354  0.7967636870240525  0.5191904287699776
  0.7868013778116196  0.7967597403337047  0.5191976363960632
  0.7473737055458987  0.8195968883206984  0.4808003590508410
  0.7868076287302721  0.8195932644146436  0.4808062846961406
  0.8561050052966516  0.7569630257263074  0.4060519299294758
  0.8363789636443603  0.7169679679560832  0.4081215912093025
  0.8115986241958428  0.7598466434379457  0.4080972651896333
  0.8363742935804973  0.6941347666594372  0.4465116609284391
  0.8313099940054656  0.7711753847106279  0.4465188685545248
  0.8560918446483409  0.7282961406639540  0.4465414669272034
  0.8313042706348877  0.7425486996731053  0.4808062846961406
  0.8808851784058985  0.7425523235791601  0.4808003590508410
  0.8560930310074206  0.7055028166078460  0.4787306977710143
  0.8808805083420357  0.7197191222825141  0.5191904287699776
  0.8312980197162355  0.7197151755921661  0.5191976363960632
  0.8313162449241182  0.7940089087915668  0.4081275168546021
  0.8561048389573811  0.7854309990610226  0.4807760330311719
  0.8363838664374201  0.7967636870240525  0.5191904287699776
  0.7671019822912277  0.8368912081794841  0.4080972651896333
  0.7473856798351296  0.8710570974391602  0.4081215912093025
  0.7473810097712663  0.8482238961425139  0.4465116609284391
  0.7868133521008505  0.8482199494521659  0.4465188685545248
  0.7670997471981900  0.8595919460909228  0.4787306977710143
  0.7423047359070045  0.8738043050752433  0.5191976363960632
  0.2329869959054712  0.7567655591553166  0.5212659688899776
  0.2774942427221871  0.7538804962870308  0.5192202347687421
  0.3220018268608560  0.7567655591553166  0.5212659688899776
  0.3220038789358429  0.7339707899425612  0.5534548008727104
  0.2774954290812673  0.7310871722309228  0.5514094656125527
  0.2329890479804581  0.7339707899425612  0.5534548008727104
  0.2527066687087344  0.7681330552961819  0.5534850525376792
  0.3022875764797448  0.7681366792022369  0.5534791268923795
  0.3022829064158819  0.7453034779055910  0.5918691966115160
  0.2329856265283407  0.7794648519101077  0.5918990026102804
  0.2774822684329562  0.7024202871685692  0.5918990026102804
  0.2774932106670095  0.7823499147783934  0.5939447367315160
  0.2774952627419968  0.7595551455656381  0.6261335687142487
  0.3022756021905139  0.7166764700837754  0.6261578947339179
  0.3220004574837254  0.7794648519101077  0.5918990026102804
  0.3220016438428056  0.7566715278539997  0.6240882334540911
  0.3219898525716251  0.7053053500368551  0.5939447367315160
  0.2972248577595031  0.8451776200377206  0.5534850525376792
  0.2329987871766517  0.8081317369724614  0.5514094656125527
  0.2577909345751296  0.8451812439437756  0.5534791268923795
  0.2775169762274209  0.8851763017139997  0.5514094656125527
  0.2775072370312273  0.8110153546840996  0.5534548008727104
  0.3220124317729564  0.8309250610285692  0.5192202347687421
  0.2329976008175716  0.8309250610285692  0.5192202347687421
  0.2775051849562400  0.8338101238968547  0.5212659688899776
  0.2577862645112663  0.8223480426471294  0.5918691966115160
  0.3220134517927661  0.8365997103071764  0.6261335687142487
  0.2972186068408501  0.8223440959567814  0.5918764042376016
  0.2577789602858988  0.7937210348253141  0.6261578947339179
  0.2775050019381901  0.8337160925955382  0.6240882334540911
  0.2972128834702722  0.7937174109192588  0.6261638203792175
  0.2329986208373813  0.8365997103071764  0.6261335687142487
  0.2775038155791099  0.8565094166516461  0.5918990026102804
  0.3022971493366680  0.8707655995668524  0.6261578947339179
  0.2329965687623940  0.8593944795199321  0.5939447367315160
  0.3220113997177788  0.8593944795199321  0.5939447367315160
  0.4307300797008500  0.7452995312152428  0.5918764042376016
  0.4110187098912276  0.7339707899425612  0.5534548008727104
  0.3417152487454652  0.7452995312152428  0.5918764042376016
  0.3665102600366516  0.7310871722309228  0.5514094656125527
  0.3665090736775710  0.7538804962870308  0.5192202347687421
  0.3417214996641182  0.7681330552961819  0.5534850525376792
  0.3912977373712667  0.7453034779055910  0.5918691966115160
  0.3467937912412831  0.7937210348253141  0.6261578947339179
  0.3417095253748869  0.7166728461777208  0.6261638203792175
  0.3665080416223943  0.7823499147783934  0.5939447367315160
  0.3664970993883405  0.7024202871685692  0.5918990026102804
  0.3862277144256566  0.7937174109192588  0.6261638203792175
  0.3665100936973812  0.7595551455656381  0.6261335687142487
  0.3912904331458986  0.7166764700837754  0.6261578947339179
  0.4358086221966678  0.7937210348253141  0.6261578947339179
  0.4307243563302717  0.7166728461777208  0.6261638203792175
  0.4110164747981899  0.7566715278539997  0.6240882334540911
  0.4110046835270099  0.7053053500368551  0.5939447367315160
  0.4110152884391102  0.7794648519101077  0.5918990026102804
  0.4110402570373813  0.8880599194256379  0.5534548008727104
  0.3220136181320361  0.8081317369724614  0.5514094656125527
  0.3220254260819965  0.8880599194256379  0.5534548008727104
  0.3665318071828053  0.8851763017139997  0.5514094656125527
  0.4110272627283402  0.8309250610285692  0.5192202347687421
  0.3665200159116248  0.8338101238968547  0.5212659688899776
  0.3665220679866121  0.8110153546840996  0.5534548008727104
  0.4358205964858983  0.8451812439437756  0.5534791268923795
  0.3468057655305140  0.8451812439437756  0.5534791268923795
  0.3862396887148875  0.8451776200377206  0.5534850525376792
  0.3468010954666511  0.8223480426471294  0.5918691966115160
  0.3417310725210415  0.8707619756607975  0.6261638203792175
  0.3665198328935748  0.8337160925955382  0.6240882334540911
  0.3665186465344946  0.8565094166516461  0.5918990026102804
  0.3862334377962345  0.8223440959567814  0.5918764042376016
  0.3913119802920523  0.8707655995668524  0.6261578947339179
  0.4110262306731635  0.8593944795199321  0.5939447367315160
  0.4110282827481504  0.8365997103071764  0.6261335687142487
  0.4307459034764253  0.8707619756607975  0.6261638203792175
  0.4358159264220359  0.8223480426471294  0.5918691966115160
  0.2774812363777786  0.7308897056599321  0.6666235045730544
  0.3022709321266514  0.6938432687871295  0.6645479644530544
  0.3219896695535742  0.7052113187355380  0.6967670012956295
  0.3219884831944945  0.7280046427916460  0.6645777704518190
  0.2526884435008504  0.6938393220967816  0.6645551720791399
  0.2329736522391097  0.7280046427916460  0.6645777704518190
  0.2577742902220354  0.7708878335286679  0.6645479644530544
  0.2774930276489591  0.7822558834770768  0.6967670012956295
  0.2329748385981899  0.7052113187355380  0.6967670012956295
  0.2972066325516197  0.7708838868383197  0.6645551720791399
  0.2329866465481504  0.7851395011887150  0.6988123365557872
  0.2329746722589199  0.7336792920702535  0.7714911043973258
  0.2329726201839326  0.7564740612830089  0.7393022724145929
  0.2577669859966678  0.7422608257068524  0.6988366625754564
  0.2577623159328049  0.7194276244102065  0.7372267322945930
  0.2774798670006485  0.7535889984147234  0.7372565382933575
  0.2774810533597286  0.7307956743586154  0.7694457691371682
  0.2971946582623892  0.7194236777198585  0.7372339399206786
  0.2774832884527655  0.7080949364471766  0.6988123365557872
  0.2972009091810413  0.7422572018007976  0.6988425882207560
  0.3219874511393173  0.7564740612830089  0.7393022724145929
  0.3220014775035351  0.7851395011887150  0.6988123365557872
  0.3219895032143042  0.7336792920702535  0.7714911043973258
  0.2774918412898790  0.8050492075331847  0.6645777704518190
  0.3219994254285478  0.8079342704014704  0.6666235045730544
  0.3220100303406482  0.8820937722747232  0.6645777704518190
  0.3022924792728051  0.8479323982702063  0.6645479644530544
  0.2527099906470041  0.8479284515798583  0.6645551720791399
  0.2329845944731631  0.8079342704014704  0.6666235045730544
  0.2527042672764262  0.8193017665423360  0.6988425882207560
  0.3022851750474370  0.8193053904483910  0.6988366625754564
  0.3219992424104983  0.8078402391001537  0.7694457691371682
  0.3022805049835741  0.7964721891517448  0.7372267322945930
  0.2526980163577732  0.7964682424613968  0.7372339399206786
  0.3219980560514177  0.8306335631562617  0.7372565382933575
  0.3417032744562352  0.6938393220967816  0.6645551720791399
  0.4307181054116195  0.6938393220967816  0.6645551720791399
  0.4110045005089594  0.7052113187355380  0.6967670012956295
  0.3912857630820357  0.6938432687871295  0.6645479644530544
  0.4110033141498793  0.7280046427916460  0.6645777704518190
  0.3664960673331629  0.7308897056599321  0.6666235045730544
  0.3862214635070044  0.7708838868383197  0.6645551720791399
  0.4358039521328049  0.7708878335286679  0.6645479644530544
  0.3467891211774202  0.7708878335286679  0.6645479644530544
  0.3665078586043439  0.7822558834770768  0.6967670012956295
  0.3467771468881893  0.7194276244102065  0.7372267322945930
  0.3664958843151130  0.7307956743586154  0.7694457691371682
  0.3467818169520526  0.7422608257068524  0.6988366625754564
  0.3664946979560328  0.7535889984147234  0.7372565382933575
  0.3664981194081507  0.7080949364471766  0.6988123365557872
  0.3862094892177739  0.7194236777198585  0.7372339399206786
  0.3862157401364261  0.7422572018007976  0.6988425882207560
  0.4110022820947021  0.7564740612830089  0.7393022724145929
  0.4357966479074369  0.7422608257068524  0.6988366625754564
  0.4357919778435740  0.7194276244102065  0.7372267322945930
  0.4110043341696890  0.7336792920702535  0.7714911043973258
  0.4110163084589195  0.7851395011887150  0.6988123365557872
  0.3220112166997283  0.8593004482186152  0.6967670012956295
  0.3665176144793170  0.8849788351430089  0.6666235045730544
  0.3417248216023889  0.8479284515798583  0.6645551720791399
  0.3665066722452642  0.8050492075331847  0.6645777704518190
  0.3417190982318105  0.8193017665423360  0.6988425882207560
  0.3665196665543043  0.8621840659302535  0.6988123365557872
  0.3862310363639276  0.8735128072029351  0.7372339399206786
  0.3417128473131579  0.7964682424613968  0.7372339399206786
  0.3665056401900861  0.8335186260245473  0.7393022724145929
  0.3665076922650735  0.8107238568117920  0.7714911043973258
  0.4307396525577732  0.8479284515798583  0.6645551720791399
  0.3913073102281894  0.8479323982702063  0.6645479644530544
  0.4110142563839317  0.8079342704014704  0.6666235045730544
  0.4110248612960334  0.8820937722747232  0.6645777704518190
  0.4110260476551131  0.8593004482186152  0.6967670012956295
  0.3913000060028218  0.8193053904483910  0.6988366625754564
  0.4307339291871953  0.8193017665423360  0.6988425882207560
  0.4358135249897277  0.8735167538932834  0.7372267322945930
  0.3912953359389585  0.7964721891517448  0.7372267322945930
  0.4110140733658826  0.8078402391001537  0.7694457691371682
  0.4307276782685427  0.7964682424613968  0.7372339399206786
  0.4110128870068020  0.8306335631562617  0.7372565382933575
  0.3220233740070096  0.9108546886383934  0.5212659688899776
  0.3023044535620356  0.8993926073886680  0.5918691966115160
  0.3665306208237260  0.9079696257701075  0.5192202347687421
  0.4110382049623945  0.9108546886383934  0.5212659688899776
  0.4307578777656567  0.9222221847792591  0.5534850525376792
  0.3417430468102723  0.9222221847792591  0.5534850525376792
  0.3913239545812832  0.9222258086853139  0.5534791268923795
  0.3417367958916194  0.8993886606983200  0.5918764042376016
  0.3665316408435353  0.9136442750487150  0.6261335687142487
  0.4110380219443440  0.9107606573370765  0.6240882334540911
  0.4110368355852639  0.9335539813931845  0.5918990026102804
  0.3913192845174203  0.8993926073886680  0.5918691966115160
  0.4307516268470041  0.8993886606983200  0.5918764042376016
  0.4358254992789586  0.9249769630117448  0.6645479644530544
  0.4358181950535910  0.8963499551899293  0.6988366625754564
  0.3862372872825797  0.8963463312838745  0.6988425882207560
  0.4803172383905139  0.7681366792022369  0.5534791268923795
  0.4555239046329558  0.7538804962870308  0.5192202347687421
  0.4555250909920364  0.7310871722309228  0.5514094656125527
  0.5445399219474207  0.7310871722309228  0.5514094656125527
  0.5445387355883410  0.7538804962870308  0.5192202347687421
  0.5000314887716251  0.7567655591553166  0.5212659688899776
  0.5000335408466120  0.7339707899425612  0.5534548008727104
  0.5197511615748878  0.7681330552961819  0.5534850525376792
  0.4555119303437253  0.7024202871685692  0.5918990026102804
  0.4555228725777791  0.7823499147783934  0.5939447367315160
  0.4555249246527660  0.7595551455656381  0.6261335687142487
  0.5000313057535747  0.7566715278539997  0.6240882334540911
  0.5000301193944945  0.7794648519101077  0.5918990026102804
  0.5197391872856565  0.7166728461777208  0.6261638203792175
  0.5445377035331634  0.7823499147783934  0.5939447367315160
  0.5445397556081503  0.7595551455656381  0.6261335687142487
  0.5445267612991100  0.7024202871685692  0.5918990026102804
  0.5445496778223943  0.8338101238968547  0.5212659688899776
  0.4555348468670096  0.8338101238968547  0.5212659688899776
  0.4555368989419968  0.8110153546840996  0.5534548008727104
  0.4555466381381905  0.8851763017139997  0.5514094656125527
  0.4752545196702723  0.8451776200377206  0.5534850525376792
  0.5000550879927661  0.8880599194256379  0.5534548008727104
  0.5248354274412835  0.8451812439437756  0.5534791268923795
  0.5248307573774202  0.8223480426471294  0.5918691966115160
  0.4752482687516192  0.8223440959567814  0.5918764042376016
  0.4752425453810413  0.7937174109192588  0.6261638203792175
  0.4555346638489591  0.8337160925955382  0.6240882334540911
  0.5445494948043439  0.8337160925955382  0.6240882334540911
  0.5000431137035352  0.8365997103071764  0.6261335687142487
  0.5445483084452637  0.8565094166516461  0.5918990026102804
  0.4555334774898790  0.8565094166516461  0.5918990026102804
  0.4803268112474370  0.8707655995668524  0.6261578947339179
  0.5197607344318101  0.8707619756607975  0.6261638203792175
  0.5000410616285479  0.8593944795199321  0.5939447367315160
  0.5890463197270094  0.7567655591553166  0.5212659688899776
  0.6335535665437253  0.7538804962870308  0.5192202347687421
  0.6583422302374206  0.7453034779055910  0.5918691966115160
  0.6335547529028055  0.7310871722309228  0.5514094656125527
  0.5890483718019968  0.7339707899425612  0.5534548008727104
  0.6087659925302721  0.7681330552961819  0.5534850525376792
  0.6583469003012834  0.7681366792022369  0.5534791268923795
  0.5693320693458986  0.7681366792022369  0.5534791268923795
  0.5693273992820358  0.7453034779055910  0.5918691966115160
  0.6087597416116192  0.7452995312152428  0.5918764042376016
  0.5890449503498792  0.7794648519101077  0.5918990026102804
  0.5890343454377794  0.7053053500368551  0.5939447367315160
  0.5693200950566677  0.7166764700837754  0.6261578947339179
  0.5890461367089594  0.7566715278539997  0.6240882334540911
  0.6087540182410413  0.7166728461777208  0.6261638203792175
  0.6335415922544948  0.7024202871685692  0.5918990026102804
  0.6335525344885478  0.7823499147783934  0.5939447367315160
  0.6335545865635350  0.7595551455656381  0.6261335687142487
  0.6532722072918109  0.7937174109192588  0.6261638203792175
  0.6583349260120525  0.7166764700837754  0.6261578947339179
  0.5445614690935753  0.8851763017139997  0.5514094656125527
  0.6335763000489600  0.8851763017139997  0.5514094656125527
  0.6335645087777787  0.8338101238968547  0.5212659688899776
  0.5890569246391102  0.8309250610285692  0.5192202347687421
  0.6335665608527660  0.8110153546840996  0.5534548008727104
  0.5890581109981904  0.8081317369724614  0.5514094656125527
  0.5642693506256570  0.8451776200377206  0.5534850525376792
  0.6532841815810414  0.8451776200377206  0.5534850525376792
  0.5890699189481509  0.8880599194256379  0.5534548008727104
  0.6138502583966678  0.8451812439437756  0.5534791268923795
  0.5642630997070041  0.8223440959567814  0.5918764042376016
  0.5890558925839331  0.8593944795199321  0.5939447367315160
  0.5890579446589195  0.8365997103071764  0.6261335687142487
  0.5693416422028218  0.8707655995668524  0.6261578947339179
  0.6087755653871949  0.8707619756607975  0.6261638203792175
  0.6138382841074369  0.7937210348253141  0.6261578947339179
  0.6335631394006486  0.8565094166516461  0.5918990026102804
  0.6138455883328050  0.8223480426471294  0.5918691966115160
  0.6335643257597287  0.8337160925955382  0.6240882334540911
  0.6532779306623888  0.8223440959567814  0.5918764042376016
  0.4555129503635350  0.7080949364471766  0.6988123365557872
  0.5000193314643437  0.7052113187355380  0.6967670012956295
  0.4803005940374200  0.6938432687871295  0.6645479644530544
  0.5197329363670039  0.6938393220967816  0.6645551720791399
  0.5445277813189193  0.7080949364471766  0.6988123365557872
  0.5000181451052637  0.7280046427916460  0.6645777704518190
  0.5445257292439325  0.7308897056599321  0.6666235045730544
  0.4555108982885477  0.7308897056599321  0.6666235045730544
  0.4555226895597282  0.7822558834770768  0.6967670012956295
  0.5000311394143042  0.7851395011887150  0.6988123365557872
  0.5445375205151129  0.7822558834770768  0.6967670012956295
  0.5248187830881893  0.7708878335286679  0.6645479644530544
  0.4752362944623887  0.7708838868383197  0.6645551720791399
  0.4752305710918108  0.7422572018007976  0.6988425882207560
  0.4752243201731582  0.7194236777198585  0.7372339399206786
  0.4555095289114175  0.7535889984147234  0.7372565382933575
  0.4555107152704977  0.7307956743586154  0.7694457691371682
  0.5000171130500864  0.7564740612830089  0.7393022724145929
  0.5000191651250733  0.7336792920702535  0.7714911043973258
  0.5248068087989588  0.7194276244102065  0.7372267322945930
  0.5248114788628216  0.7422608257068524  0.6988366625754564
  0.5197544835131580  0.8479284515798583  0.6645551720791399
  0.4555215032006489  0.8050492075331847  0.6645777704518190
  0.4803221411835746  0.8479323982702063  0.6645479644530544
  0.4555324454347014  0.8849788351430089  0.6666235045730544
  0.5000396922514181  0.8820937722747232  0.6645777704518190
  0.5000290873393165  0.8079342704014704  0.6666235045730544
  0.4803148369582061  0.8193053904483910  0.6988366625754564
  0.4555344975096887  0.8621840659302535  0.6988123365557872
  0.5000408786104974  0.8593004482186152  0.6967670012956295
  0.5197487601425801  0.8193017665423360  0.6988425882207560
  0.4555225232204582  0.8107238568117920  0.7714911043973258
  0.4803101668943432  0.7964721891517448  0.7372267322945930
  0.5197425092239275  0.7964682424613968  0.7372339399206786
  0.5000289043212670  0.8078402391001537  0.7694457691371682
  0.5445373541758429  0.8107238568117920  0.7714911043973258
  0.5000277179621864  0.8306335631562617  0.7372565382933575
  0.4555204711454709  0.8335186260245473  0.7393022724145929
  0.5445353021008557  0.8335186260245473  0.7393022724145929
  0.5248283559451125  0.8735167538932834  0.7372267322945930
  0.4752458673193115  0.8735128072029351  0.7372339399206786
  0.5890341624197281  0.7052113187355380  0.6967670012956295
  0.6583302559481896  0.6938432687871295  0.6645479644530544
  0.5693154249928049  0.6938432687871295  0.6645479644530544
  0.6087477673223887  0.6938393220967816  0.6645551720791399
  0.5890329760606484  0.7280046427916460  0.6645777704518190
  0.6335405601993173  0.7308897056599321  0.6666235045730544
  0.6532659563731579  0.7708838868383197  0.6645551720791399
  0.6138336140435741  0.7708878335286679  0.6645479644530544
  0.6335523514704977  0.7822558834770768  0.6967670012956295
  0.5642391511285431  0.7194236777198585  0.7372339399206786
  0.5642454020471952  0.7422572018007976  0.6988425882207560
  0.5890459703696890  0.7851395011887150  0.6988123365557872
  0.6087573401793118  0.7964682424613968  0.7372339399206786
  0.6138216397543431  0.7194276244102065  0.7372267322945930
  0.6335403771812669  0.7307956743586154  0.7694457691371682
  0.5445493284650734  0.8621840659302535  0.6988123365557872
  0.5890557095658822  0.8593004482186152  0.6967670012956295
  0.5890545232068025  0.8820937722747232  0.6645777704518190
  0.5693369721389590  0.8479323982702063  0.6645479644530544
  0.5890439182947013  0.8079342704014704  0.6666235045730544
  0.5693296679135910  0.8193053904483910  0.6988366625754564
  0.5642606982746967  0.8735128072029351  0.7372339399206786
  0.5693249978497280  0.7964721891517448  0.7372267322945930
  0.5890437352766518  0.8078402391001537  0.7694457691371682
  0.5890425489175716  0.8306335631562617  0.7372565382933575
  0.6087693144685428  0.8479284515798583  0.6645551720791399
  0.6583518030943437  0.8479323982702063  0.6645479644530544
  0.6335511651114181  0.8050492075331847  0.6645777704518190
  0.6087635910979644  0.8193017665423360  0.6988425882207560
  0.6583444988689753  0.8193053904483910  0.6988366625754564
  0.6583398288051123  0.7964721891517448  0.7372267322945930
  0.6335501330562404  0.8335186260245473  0.7393022724145929
  0.6335521851312274  0.8107238568117920  0.7714911043973258
  0.4555444197239332  0.9364390442614704  0.5939447367315160
  0.4555454517791099  0.9079696257701075  0.5192202347687421
  0.4555464717989196  0.9136442750487150  0.6261335687142487
  0.4803387855366675  0.9222258086853139  0.5534791268923795
  0.5000516665406481  0.9335539813931845  0.5918990026102804
  0.4803341154728046  0.8993926073886680  0.5918691966115160
  0.5000528528997283  0.9107606573370765  0.6240882334540911
  0.5000530359177787  0.9108546886383934  0.5212659688899776
  0.5445602827344946  0.9079696257701075  0.5192202347687421
  0.5197727087210414  0.9222221847792591  0.5534850525376792
  0.5197664578023888  0.8993886606983200  0.5918764042376016
  0.5445592506793175  0.9364390442614704  0.5939447367315160
  0.5445613027543044  0.9136442750487150  0.6261335687142487
  0.6087875396764262  0.9222221847792591  0.5534850525376792
  0.6335751136898794  0.9079696257701075  0.5192202347687421
  0.5890678668731636  0.9108546886383934  0.5212659688899776
  0.5693536164920523  0.9222258086853139  0.5534791268923795
  0.5693489464281899  0.8993926073886680  0.5918691966115160
  0.5890676838551131  0.9107606573370765  0.6240882334540911
  0.6087812887577737  0.8993886606983200  0.5918764042376016
  0.5890664974960330  0.9335539813931845  0.5918990026102804
  0.6335761337096887  0.9136442750487150  0.6261335687142487
  0.4752578416085424  0.9249730163213968  0.6645551720791399
  0.4752521182379645  0.8963463312838745  0.6988425882207560
  0.6138478569643602  0.8963499551899293  0.6988366625754564
  0.5642669491933493  0.8963463312838745  0.6988425882207560
  0.2329606458947016  0.7050138521645476  0.8119810402561313
  0.3219860817621867  0.7791733540378003  0.8099353061348957
  0.2526922929871953  0.7678415574238745  0.7715213560622943
  0.3022732007582061  0.7678451813299295  0.7715154304169949
  0.3022685306943437  0.7450119800332833  0.8099055001361315
  0.2774678927114175  0.7021287892962619  0.8099353061348957
  0.3219754768500864  0.7050138521645476  0.8119810402561313
  0.3022612264689756  0.7163849722114680  0.8441941982585333
  0.3664936659008561  0.7820584169060858  0.8119810402561313
  0.3417071239425796  0.7678415574238745  0.7715213560622943
  0.3417008730239275  0.7450080333429353  0.8099127077622170
  0.3664827236668023  0.7021287892962619  0.8099353061348957
  0.3912833616497280  0.7450119800332833  0.8099055001361315
  0.3664957179758430  0.7592636476933303  0.8441698722388640
  0.3912880317135909  0.7678451813299295  0.7715154304169949
  0.4110009127175711  0.7791733540378003  0.8099353061348957
  0.4109903078054712  0.7050138521645476  0.8119810402561313
  0.4110020990766517  0.7563800299816922  0.8421245369787066
  0.4307219548979644  0.7678415574238745  0.7715213560622943
  0.4307157039793118  0.7450080333429353  0.8099127077622170
  0.3912760574243599  0.7163849722114680  0.8441941982585333
  0.3416951496533491  0.7163813483054132  0.8442001239038329
  0.3912713873604970  0.6935517709148219  0.8825842679776699
  0.4307099806087339  0.7163813483054132  0.8442001239038329
  0.4109889384283406  0.7277131449193386  0.8826140739764341
  0.4357942464751292  0.7934295369530063  0.8441941982585333
  0.3862190620746963  0.8220525980844737  0.8099127077622170
  0.3862253129933493  0.8448861221654130  0.7715213560622943
  0.4358015507004972  0.8220565447748222  0.8099055001361315
  0.4358062207643601  0.8448897460714678  0.7715154304169949
  0.5000157436729559  0.7791733540378003  0.8099353061348957
  0.5197305349346966  0.7450080333429353  0.8099127077622170
  0.4803028626689752  0.7678451813299295  0.7715154304169949
  0.5197367858533491  0.7678415574238745  0.7715213560622943
  0.4802981926051132  0.7450119800332833  0.8099055001361315
  0.5000051387608555  0.7050138521645476  0.8119810402561313
  0.5445233278116252  0.7820584169060858  0.8119810402561313
  0.4555084968562404  0.7820584169060858  0.8119810402561313
  0.5000169300320361  0.7563800299816922  0.8421245369787066
  0.4555105489312273  0.7592636476933303  0.8441698722388640
  0.4554965225670095  0.7305982077876245  0.8846598080976696
  0.4802862183158819  0.6935517709148219  0.8825842679776699
  0.5000037693837254  0.7277131449193386  0.8826140739764341
  0.5197248115641182  0.7163813483054132  0.8442001239038329
  0.5445113535223938  0.7305982077876245  0.8846598080976696
  0.5445253798866121  0.7592636476933303  0.8441698722388640
  0.4752401439487340  0.8448861221654130  0.7715213560622943
  0.4752338930300806  0.8220525980844737  0.8099127077622170
  0.5248210517197445  0.8448897460714678  0.7715154304169949
  0.5248163816558820  0.8220565447748222  0.8099055001361315
  0.5248090774305140  0.7934295369530063  0.8441941982585333
  0.4752281696595031  0.7934259130469516  0.8442001239038329
  0.5890199697162398  0.7050138521645476  0.8119810402561313
  0.5693130235604975  0.7450119800332833  0.8099055001361315
  0.5890317609874208  0.7563800299816922  0.8421245369787066
  0.5890305746283406  0.7791733540378003  0.8099353061348957
  0.6087453658900809  0.7450080333429353  0.8099127077622170
  0.6335381587670099  0.7820584169060858  0.8119810402561313
  0.6087516168087339  0.7678415574238745  0.7715213560622943
  0.6583325245797448  0.7678451813299295  0.7715154304169949
  0.6335272165329557  0.7021287892962619  0.8099353061348957
  0.6335402108419964  0.7592636476933303  0.8441698722388640
  0.6583278545158818  0.7450119800332833  0.8099055001361315
  0.5693057193351291  0.7163849722114680  0.8441941982585333
  0.5693010492712661  0.6935517709148219  0.8825842679776699
  0.6087396425195030  0.7163813483054132  0.8442001239038329
  0.6583205502905138  0.7163849722114680  0.8441941982585333
  0.5890186003391097  0.7277131449193386  0.8826140739764341
  0.5642430006148874  0.7934259130469516  0.8442001239038329
  0.6138358826751292  0.8448897460714678  0.7715154304169949
  0.5642549749041188  0.8448861221654130  0.7715213560622943
  0.5642487239854653  0.8220525980844737  0.8099127077622170
  0.6138312126112663  0.8220565447748222  0.8099055001361315
  0.6977808234856570  0.7681330552961819  0.5534850525376792
  0.7670780337127654  0.7339707899425612  0.5534548008727104
  0.7225683974991105  0.7538804962870308  0.5192202347687421
  0.7473617312566682  0.7681366792022369  0.5534791268923795
  0.6780611506823947  0.7567655591553166  0.5212659688899776
  0.7225695838581903  0.7310871722309228  0.5514094656125527
  0.6780632027573815  0.7339707899425612  0.5534548008727104
  0.7670759816377786  0.7567655591553166  0.5212659688899776
  0.7473570611928049  0.7453034779055910  0.5918691966115160
  0.6977745725670039  0.7452995312152428  0.5918764042376016
  0.6977688491964256  0.7166728461777208  0.6261638203792175
  0.6780597813052640  0.7794648519101077  0.5918990026102804
  0.6780491763931638  0.7053053500368551  0.5939447367315160
  0.6780609676643438  0.7566715278539997  0.6240882334540911
  0.7225564232098792  0.7024202871685692  0.5918990026102804
  0.7225673654439330  0.7823499147783934  0.5939447367315160
  0.7225694175189198  0.7595551455656381  0.6261335687142487
  0.7670640073485485  0.7053053500368551  0.5939447367315160
  0.7670746122606489  0.7794648519101077  0.5918990026102804
  0.7670757986197281  0.7566715278539997  0.6240882334540911
  0.7473497569674372  0.7166764700837754  0.6261578947339179
  0.6780717555944945  0.8309250610285692  0.5192202347687421
  0.7225793397331635  0.8338101238968547  0.5212659688899776
  0.7028604192881898  0.8223480426471294  0.5918691966115160
  0.7225813918081507  0.8110153546840996  0.5534548008727104
  0.6780847499035352  0.8880599194256379  0.5534548008727104
  0.7225911310043439  0.8851763017139997  0.5514094656125527
  0.7028650893520526  0.8451812439437756  0.5534791268923795
  0.6780729419535747  0.8081317369724614  0.5514094656125527
  0.7422990125364262  0.8451776200377206  0.5534850525376792
  0.6977903963425797  0.8707619756607975  0.6261638203792175
  0.6583564731582066  0.8707655995668524  0.6261578947339179
  0.6780707235393170  0.8593944795199321  0.5939447367315160
  0.6780727756143042  0.8365997103071764  0.6261335687142487
  0.7028531150628217  0.7937210348253141  0.6261578947339179
  0.7225779703560333  0.8565094166516461  0.5918990026102804
  0.7225791567151130  0.8337160925955382  0.6240882334540911
  0.7670855544947022  0.8593944795199321  0.5939447367315160
  0.7422927616177731  0.8223440959567814  0.5918764042376016
  0.7422870382471952  0.7937174109192588  0.6261638203792175
  0.8758042344777739  0.7452995312152428  0.5918764042376016
  0.8560908125931633  0.7567655591553166  0.5212659688899776
  0.8363765622120525  0.7681366792022369  0.5534791268923795
  0.7867956544410417  0.7681330552961819  0.5534850525376792
  0.8115844148135750  0.7310871722309228  0.5514094656125527
  0.8363718921481896  0.7453034779055910  0.5918691966115160
  0.8115832284544944  0.7538804962870308  0.5192202347687421
  0.8560928646681502  0.7339707899425612  0.5534548008727104
  0.7867894035223887  0.7452995312152428  0.5918764042376016
  0.8115712541652640  0.7024202871685692  0.5918990026102804
  0.7867836801518108  0.7166728461777208  0.6261638203792175
  0.7918679460182065  0.7937210348253141  0.6261578947339179
  0.8313018692025800  0.7937174109192588  0.6261638203792175
  0.8115842484743045  0.7595551455656381  0.6261335687142487
  0.8115821963993177  0.7823499147783934  0.5939447367315160
  0.8363645879228216  0.7166764700837754  0.6261578947339179
  0.8560788383039324  0.7053053500368551  0.5939447367315160
  0.8560906295751134  0.7566715278539997  0.6240882334540911
  0.8757985111071946  0.7166728461777208  0.6261638203792175
  0.8115962227635346  0.8110153546840996  0.5534548008727104
  0.7670877729089595  0.8081317369724614  0.5514094656125527
  0.7670865865498797  0.8309250610285692  0.5192202347687421
  0.8115941706885478  0.8338101238968547  0.5212659688899776
  0.7918799203074374  0.8451812439437756  0.5534791268923795
  0.7670876065696890  0.8365997103071764  0.6261335687142487
  0.7918752502435741  0.8223480426471294  0.5918691966115160
  0.7225553911547016  0.7308897056599321  0.6666235045730544
  0.7473450869035739  0.6938432687871295  0.6645479644530544
  0.6780478070160332  0.7280046427916460  0.6645777704518190
  0.7670626379714179  0.7280046427916460  0.6645777704518190
  0.7028484449989588  0.7708878335286679  0.6645479644530544
  0.7422807873285426  0.7708838868383197  0.6645551720791399
  0.6977625982777734  0.6938393220967816  0.6645551720791399
  0.7670638243304977  0.7052113187355380  0.6967670012956295
  0.6780489933751129  0.7052113187355380  0.6967670012956295
  0.7225671824258821  0.7822558834770768  0.6967670012956295
  0.7422688130393121  0.7194236777198585  0.7372339399206786
  0.7225574432296888  0.7080949364471766  0.6988123365557872
  0.6780488270358425  0.7336792920702535  0.7714911043973258
  0.7225552081366512  0.7307956743586154  0.7694457691371682
  0.7028364707097279  0.7194276244102065  0.7372267322945930
  0.7670636579912272  0.7336792920702535  0.7714911043973258
  0.7422750639579643  0.7422572018007976  0.6988425882207560
  0.7028411407735908  0.7422608257068524  0.6988366625754564
  0.6780608013250733  0.7851395011887150  0.6988123365557872
  0.7225540217775714  0.7535889984147234  0.7372565382933575
  0.6780467749608555  0.7564740612830089  0.7393022724145929
  0.7670616059162407  0.7564740612830089  0.7393022724145929
  0.7670756322804582  0.7851395011887150  0.6988123365557872
  0.6977721711346966  0.7964682424613968  0.7372339399206786
  0.7225659960668028  0.8050492075331847  0.6645777704518190
  0.7473593298243600  0.8193053904483910  0.6988366625754564
  0.6977784220533492  0.8193017665423360  0.6988425882207560
  0.7670735802054703  0.8079342704014704  0.6666235045730544
  0.6780587492500860  0.8079342704014704  0.6666235045730544
  0.6977841454239275  0.8479284515798583  0.6645551720791399
  0.7473666340497285  0.8479323982702063  0.6645479644530544
  0.6780705405212670  0.8593004482186152  0.6967670012956295
  0.6780693541621873  0.8820937722747232  0.6645777704518190
  0.6780585662320361  0.8078402391001537  0.7694457691371682
  0.7473546597604971  0.7964721891517448  0.7372267322945930
  0.6780573798729559  0.8306335631562617  0.7372565382933575
  0.7918632759543436  0.7708878335286679  0.6645479644530544
  0.8560774689268023  0.7280046427916460  0.6645777704518190
  0.8363599178589596  0.6938432687871295  0.6645479644530544
  0.7867774292331582  0.6938393220967816  0.6645551720791399
  0.8312956182839274  0.7708838868383197  0.6645551720791399
  0.8115702221100863  0.7308897056599321  0.6666235045730544
  0.8757922601885425  0.6938393220967816  0.6645551720791399
  0.8560786552858820  0.7052113187355380  0.6967670012956295
  0.8115722741850733  0.7080949364471766  0.6988123365557872
  0.7918559717289756  0.7422608257068524  0.6988366625754564
  0.7918513016651122  0.7194276244102065  0.7372267322945930
  0.8312898949133490  0.7422572018007976  0.6988425882207560
  0.6583637773835742  0.8993926073886680  0.5918691966115160
  0.6583684474474371  0.9222258086853139  0.5534791268923795
  0.6977961197131585  0.8993886606983200  0.5918764042376016
  0.6780826978285479  0.9108546886383934  0.5212659688899776
  0.7225420474883405  0.7021287892962619  0.8099353061348957
  0.6977664477641182  0.7678415574238745  0.7715213560622943
  0.7473473555351295  0.7678451813299295  0.7715154304169949
  0.6780454055837254  0.7791733540378003  0.8099353061348957
  0.6977601968454656  0.7450080333429353  0.8099127077622170
  0.6780348006716246  0.7050138521645476  0.8119810402561313
  0.7670496316270095  0.7050138521645476  0.8119810402561313
  0.6977544734748877  0.7163813483054132  0.8442001239038329
  0.9005860851206483  0.7024202871685692  0.5918990026102804
  0.1636089711070040  0.2315719336475507  0.6645551720791399
  0.2328970365114174  0.2142770452239539  0.7372565382933575
  0.1438941798452640  0.2657372543424154  0.6645777704518190
  0.1191123292023889  0.3086164983890893  0.6645551720791399
  0.0993975379406486  0.3427818190839539  0.6645777704518190
  0.2081151858685427  0.2571562892706277  0.7372339399206786
  0.1884003946068022  0.2913216099654924  0.7372565382933575
  0.1191219020593121  0.4112454187537045  0.7372339399206786
  0.1439037527021865  0.3683661747070308  0.7372565382933575
  0.1636185439639276  0.3342008540121660  0.7372339399206786
  0.2081247587254657  0.3597852096352431  0.8099127077622170
  0.1884099674637254  0.3939505303301078  0.8099353061348957
  0.2526214006300813  0.2827406448937046  0.8099127077622170
  0.2329066093683405  0.3169059655885693  0.8099353061348957
  0.4751908316100815  0.2065705737690892  0.1558037971883711
  0.5247733202358815  0.2065745204594371  0.1557965895622852
  0.5197090206608507  0.2836151385106275  0.1558037971883711
  0.5445040319520366  0.2694027795263076  0.1153368585633220
  0.5692915092866512  0.2836190852009756  0.1557965895622852
  0.5444908713037255  0.2407358944639537  0.1558263955610497
  0.4999836244870096  0.2436209573322397  0.1578721296822854
  0.4999976508512278  0.2722863972379458  0.1173821938234796
  0.5197209949500812  0.3350753476290892  0.0831250293468325
  0.5693034835758821  0.3350792943194372  0.0831178217207469
  0.5692961793505141  0.3064522864976217  0.1174065198431488
  0.5197152715795028  0.3064486625915667  0.1174124454884484
  0.5642272097116199  0.3606597032521663  0.1558037971883711
  0.5890222210028054  0.3464473442678460  0.1153368585633220
  0.6138096983374199  0.3606636499425140  0.1557965895622852
  0.5890090603544947  0.3177804592054922  0.1558263955610497
  0.5445018135377788  0.3206655220737782  0.1578721296822854
  0.5445158399019966  0.3493309619794842  0.1173821938234796
  0.5642391840008504  0.4121199123706275  0.0831250293468325
  0.6138216726266513  0.4121238590609757  0.0831178217207469
  0.5890210346437252  0.3692406683239539  0.0831476277195113
  0.5445137878270093  0.3721257311922397  0.0851933618407469
  0.6138143684012833  0.3834968512391603  0.1174065198431488
  0.5642334606302720  0.3834932273331054  0.1174124454884484
  0.6087453987623891  0.4377042679937045  0.1558037971883711
  0.6335404100535746  0.4234919090093845  0.1153368585633220
  0.6583278873881891  0.4377082146840525  0.1557965895622852
  0.6335272494052635  0.3948250239470307  0.1558263955610497
  0.5890200025885476  0.3977100868153166  0.1578721296822854
  0.5890340289527658  0.4263755267210225  0.1173821938234796
  0.6087573730516196  0.4891644771121660  0.0831250293468325
  0.6583398616774201  0.4891684238025140  0.0831178217207469
  0.6335392236944944  0.4462852330654923  0.0831476277195113
  0.5890319768777785  0.4491702959337783  0.0851933618407469
  0.6583325574520525  0.4605414159806987  0.1174065198431488
  0.6087516496810417  0.4605377920746437  0.1174124454884484
  0.6532635878131583  0.5147488327352429  0.1558037971883711
  0.6780585991043439  0.5005364737509227  0.1153368585633220
  0.7028460764389588  0.5147527794255908  0.1557965895622852
  0.6780454384560327  0.4718695886885693  0.1558263955610497
  0.6335381916393168  0.4747546515568552  0.1578721296822854
  0.6335522180035351  0.5034200914625613  0.1173821938234796
  0.5642056625654658  0.2065705737690892  0.1558037971883711
  0.6087238516162350  0.2836151385106275  0.1558037971883711
  0.6583063402420355  0.2836190852009756  0.1557965895622852
  0.6335057022591103  0.2407358944639537  0.1558263955610497
  0.5889984554423939  0.2436209573322397  0.1578721296822854
  0.5890124818066121  0.2722863972379458  0.1173821938234796
  0.6087358259054659  0.3350753476290892  0.0831250293468325
  0.6583110103058989  0.3064522864976217  0.1174065198431488
  0.6087301025348876  0.3064486625915667  0.1174124454884484
  0.6532420406670046  0.3606597032521663  0.1558037971883711
  0.6780370519581902  0.3464473442678460  0.1153368585633220
  0.7028245292928047  0.3606636499425140  0.1557965895622852
  0.6780238913098795  0.3177804592054922  0.1558263955610497
  0.6335306708573814  0.3493309619794842  0.1173821938234796
  0.6532540149562351  0.4121199123706275  0.0831250293468325
  0.6335286187823941  0.3721257311922397  0.0851933618407469
  0.7028291993566677  0.3834968512391603  0.1174065198431488
  0.6532482915856568  0.3834932273331054  0.1174124454884484
  0.6977602297177738  0.4377042679937045  0.1558037971883711
  0.7225552410089594  0.4234919090093845  0.1153368585633220
  0.7473427183435739  0.4377082146840525  0.1557965895622852
  0.6780348335439323  0.3977100868153166  0.1578721296822854
  0.6780488599081507  0.4263755267210225  0.1173821938234796
  0.6977722040070043  0.4891644771121660  0.0831250293468325
  0.6780468078331628  0.4491702959337783  0.0851933618407469
  0.7473473884074369  0.4605414159806987  0.1174065198431488
  0.6977664806364260  0.4605377920746437  0.1174124454884484
  0.7422784187685426  0.5147488327352429  0.1558037971883711
  0.7918609073943432  0.5147527794255908  0.1557965895622852
  0.7670602694114175  0.4718695886885693  0.1558263955610497
  0.7225530225947016  0.4747546515568552  0.1578721296822854
  0.7225670489589194  0.5034200914625613  0.1173821938234796
  0.6977386825716198  0.2836151385106275  0.1558037971883711
  0.7225314754485479  0.3206655220737782  0.1578721296822854
  0.7867750606731582  0.4377042679937045  0.1558037971883711
  0.6532755621023888  0.5662090418537044  0.0831250293468325
  0.6780574127452637  0.5233297978070307  0.0831476277195113
  0.6335501659285477  0.5262148606753169  0.0851933618407469
  0.7028507465028218  0.5375859807222371  0.1174065198431488
  0.6532698387318104  0.5375823568161823  0.1174124454884484
  0.6977817768639271  0.5917933974767815  0.1558037971883711
  0.7225767881551135  0.5775810384924615  0.1153368585633220
  0.7473642654897281  0.5917973441671295  0.1557965895622852
  0.7225636275068024  0.5489141534301076  0.1558263955610497
  0.6780563806900864  0.5517992162983936  0.1578721296822854
  0.6780704070543043  0.5804646562040996  0.1173821938234796
  0.6977880277825801  0.6146269215577205  0.1174124454884484
  0.7670818165575716  0.6259587181716462  0.1558263955610497
  0.7422846696871952  0.5375823568161823  0.1174124454884484
  0.7867966078193123  0.5917933974767815  0.1558037971883711
  0.7670712116454713  0.5517992162983936  0.1578721296822854
  0.5196611235039275  0.0777743020367816  0.4465188685545248
  0.5444561347951129  0.0635619430524614  0.4060519299294758
  0.5692436121297280  0.0777782487271296  0.4465116609284391
  0.5692363079043600  0.0491512409053139  0.4808003590508410
  0.5196554001333491  0.0491476169992591  0.4808062846961406
  0.5641673382654657  0.1033586576598585  0.5191976363960632
  0.6137498268912667  0.1033626043502063  0.5191904287699776
  0.5889491889083406  0.0604794136131847  0.5192202347687421
  0.5444419420916247  0.0633644764814705  0.5212659688899776
  0.6137425226658987  0.0747355965283910  0.5534791268923795
  0.5641616148948874  0.0747319726223359  0.5534850525376792
  0.6086735530270044  0.1289430132829353  0.5918764042376016
  0.6334685643181900  0.1147306542986152  0.5514094656125527
  0.6582560416528045  0.1289469599732832  0.5918691966115160
  0.6334554036698793  0.0860637692362616  0.5918990026102804
  0.5889481568531629  0.0889488321045473  0.5939447367315160
  0.5889621832173813  0.1176142720102533  0.5534548008727104
  0.4751668830316196  0.1036501555321662  0.3011613328714478
  0.5247493716574205  0.1036541022225141  0.3011541252453622
  0.5247420674320525  0.0750270944006988  0.3354428233677641
  0.4751611596610413  0.0750234704946436  0.3354487490130638
  0.5196730977931578  0.1292345111552430  0.3738401007129862
  0.5444681090843438  0.1150221521709230  0.3333731620879373
  0.5692555864189589  0.1292384578455910  0.3738328930869006
  0.4999477016193168  0.0892403299768551  0.3759084332069006
  0.4999617279835347  0.1179057698825611  0.3354184973480949
  0.5692482821935908  0.1006114500237757  0.4081215912093025
  0.5641793125546967  0.1548188667783199  0.4465188685545248
  0.5889743238458821  0.1406065077939997  0.4060519299294758
  0.6137618011804972  0.1548228134686679  0.4465116609284391
  0.5444679427450734  0.1434901255056380  0.4080972651896333
  0.6137544969551296  0.1261958056468526  0.4808003590508410
  0.6086855273162349  0.1804032224013969  0.5191976363960632
  0.6334805386074209  0.1661908634170767  0.4787306977710143
  0.6582680159420354  0.1804071690917449  0.5191904287699776
  0.6334673779591098  0.1375239783547230  0.5192202347687421
  0.5889601311423939  0.1404090412230089  0.5212659688899776
  0.5889741575066116  0.1690744811287150  0.4807760330311719
  0.6582607117166679  0.1517801612699296  0.5534791268923795
  0.6086798039456566  0.1517765373638744  0.5534850525376792
  0.6531917420777736  0.2059875780244738  0.5918764042376016
  0.7027742307035741  0.2059915247148218  0.5918691966115160
  0.6779735927206481  0.1631083339777999  0.5918990026102804
  0.6334663459039326  0.1659933968460859  0.5939447367315160
  0.6334803722681505  0.1946588367517919  0.5534548008727104
  0.6086759544593122  0.0777743020367816  0.4465188685545248
  0.6582584430851127  0.0777782487271296  0.4465116609284391
  0.5889645846496889  0.0664455607640997  0.4080972651896333
  0.6531821692208505  0.1033586576598585  0.5191976363960632
  0.6779771805120360  0.0891462986755383  0.4787306977710143
  0.7027646578466505  0.1033626043502063  0.5191904287699776
  0.6334707994112272  0.0920299163871766  0.4807760330311719
  0.6976883839823887  0.1289430132829353  0.5918764042376016
  0.7224833952735747  0.1147306542986152  0.5514094656125527
  0.7472708726081894  0.1289469599732832  0.5918691966115160
  0.6779629878085477  0.0889488321045473  0.5939447367315160
  0.6779770141727656  0.1176142720102533  0.5534548008727104
  0.5641817139870043  0.1036501555321662  0.3011613328714478
  0.6137642026128050  0.1036541022225141  0.3011541252453622
  0.5641759906164260  0.0750234704946436  0.3354487490130638
  0.6086879287485427  0.1292345111552430  0.3738401007129862
  0.6334829400397286  0.1150221521709230  0.3333731620879373
  0.6582704173743432  0.1292384578455910  0.3738328930869006
  0.6334697793914176  0.0863552671085693  0.3738626990856652
  0.5889625325747017  0.0892403299768551  0.3759084332069006
  0.5889765589389194  0.1179057698825611  0.3354184973480949
  0.6582631131489751  0.1006114500237757  0.4081215912093025
  0.6086822053779644  0.1006078261177205  0.4081275168546021
  0.6531941435100810  0.1548188667783199  0.4465188685545248
  0.6779891548012669  0.1406065077939997  0.4060519299294758
  0.7027766321358819  0.1548228134686679  0.4465116609284391
  0.6779759941529558  0.1119396227316462  0.4465414669272034
  0.6334687473362404  0.1148246855999320  0.4485872010484390
  0.6334827737004581  0.1434901255056380  0.4080972651896333
  0.7027693279105139  0.1261958056468526  0.4808003590508410
  0.6531884201395031  0.1261921817407975  0.4808062846961406
  0.7224953695628052  0.1661908634170767  0.4787306977710143
  0.7472828468974198  0.1804071690917449  0.5191904287699776
  0.7224822089144946  0.1375239783547230  0.5192202347687421
  0.6779749620977786  0.1404090412230089  0.5212659688899776
  0.6779889884619965  0.1690744811287150  0.4807760330311719
  0.7472755426720522  0.1517801612699296  0.5534791268923795
  0.6976946349010413  0.1517765373638744  0.5534850525376792
  0.7422065730331580  0.2059875780244738  0.5918764042376016
  0.7670015843243440  0.1917752190401537  0.5514094656125527
  0.7917890616589586  0.2059915247148218  0.5918691966115160
  0.7224811768593170  0.1659933968460859  0.5939447367315160
  0.6977027597039275  0.1292345111552430  0.3738401007129862
  0.6779913898943042  0.1179057698825611  0.3354184973480949
  0.6976970363333491  0.1006078261177205  0.4081275168546021
  0.7422089744654657  0.1548188667783199  0.4465188685545248
  0.7670039857566516  0.1406065077939997  0.4060519299294758
  0.7917914630912667  0.1548228134686679  0.4465116609284391
  0.7224835782916247  0.1148246855999320  0.4485872010484390
  0.7224976046558429  0.1434901255056380  0.4080972651896333
  0.7422032510948874  0.1261921817407975  0.4808062846961406
  0.7867151892270045  0.1804032224013969  0.5191976363960632
  0.8115102005181900  0.1661908634170767  0.4787306977710143
  0.7669897930531629  0.1404090412230089  0.5212659688899776
  0.7670038194173813  0.1690744811287150  0.4807760330311719
  0.7867094658564261  0.1517765373638744  0.5534850525376792
  0.8312214039885427  0.2059875780244738  0.5918764042376016
  0.8115100341789200  0.1946588367517919  0.5534548008727104
  0.4751788573208505  0.1551103646506276  0.2284825650299094
  0.5247613459466510  0.1551143113409755  0.2284753574038237
  0.5247540417212830  0.1264873035191602  0.2627640555262256
  0.5196850720823888  0.1806947202737046  0.3011613328714478
  0.5444800833735748  0.1664823612893844  0.2606943942463988
  0.5692675607081897  0.1806986669640527  0.3011541252453622
  0.5444669227252636  0.1378154762270307  0.3011839312441265
  0.4999596759085478  0.1407005390953165  0.3032296653653622
  0.4999737022727660  0.1693659790010227  0.2627397295065563
  0.5692602564828217  0.1520716591422371  0.3354428233677641
  0.5196793487118109  0.1520680352361822  0.3354487490130638
  0.5641912868439276  0.2062790758967815  0.3738401007129862
  0.5889862981351131  0.1920667169124616  0.3333731620879373
  0.6137737754697277  0.2062830225871294  0.3738328930869006
  0.5889731374868024  0.1633998318501078  0.3738626990856652
  0.5444799170343043  0.1949503346240997  0.3354184973480949
  0.6137664712443600  0.1776560147653140  0.4081215912093025
  0.6086975016054659  0.2318634315198584  0.4465188685545248
  0.6334925128966513  0.2176510725355383  0.4060519299294758
  0.6582799902312664  0.2318673782102063  0.4465116609284391
  0.6334793522483407  0.1889841874731847  0.4465414669272034
  0.5889721054316248  0.1918692503414704  0.4485872010484390
  0.5889861317958426  0.2205346902471765  0.4080972651896333
  0.6582726860058988  0.2032403703883909  0.4808003590508410
  0.6086917782348880  0.2032367464823361  0.4808062846961406
  0.6532037163670041  0.2574477871429353  0.5191976363960632
  0.6779987276581901  0.2432354281586151  0.4787306977710143
  0.6334783201931631  0.2174536059645473  0.5212659688899776
  0.6334923465573813  0.2461190458702535  0.4807760330311719
  0.6531979929964258  0.2288211021054130  0.5534850525376792
  0.6977099311285424  0.2830321427660122  0.5918764042376016
  0.7472924197543435  0.2830360894563604  0.5918691966115160
  0.7224917817714177  0.2401528987193385  0.5918990026102804
  0.6779845349547015  0.2430379615876243  0.5939447367315160
  0.5247660160105140  0.1779475126376219  0.1900852876846872
  0.4751851082395031  0.1779438887315667  0.1900912133299868
  0.5196970463716197  0.2321549293921661  0.2284825650299094
  0.5444920576628053  0.2179425704078459  0.1880156264048604
  0.5692795349974202  0.2321588760825141  0.2284753574038237
  0.5444788970144946  0.1892756853454924  0.2285051634025882
  0.4999716501977787  0.1921607482137782  0.2305508975238236
  0.4999856765619965  0.2208261881194844  0.1900609616650180
  0.5692722307720522  0.2035318682606988  0.2627640555262256
  0.5196913230010414  0.2035282443546438  0.2627699811715252
  0.5642032611331580  0.2577392850152431  0.3011613328714478
  0.5889982724243440  0.2435269260309228  0.2606943942463988
  0.6137857497589591  0.2577432317055911  0.3011541252453622
  0.5889851117760329  0.2148600409685692  0.3011839312441265
  0.5444778649593174  0.2177451038368551  0.3032296653653622
  0.5444918913235353  0.2464105437425612  0.2627397295065563
  0.5641975377625796  0.2291125999777206  0.3354487490130638
  0.6087094758946968  0.2833236406383200  0.3738401007129862
  0.6335044871858823  0.2691112816539998  0.3333731620879373
  0.6582919645204973  0.2833275873286680  0.3738328930869006
  0.6334913265375717  0.2404443965916462  0.3738626990856652
  0.5889840797208553  0.2433294594599320  0.3759084332069006
  0.5889981060850735  0.2719948993656380  0.3354184973480949
  0.6582846602951293  0.2547005795068525  0.4081215912093025
  0.6087037525241185  0.2546969556007975  0.4081275168546021
  0.6532156906562351  0.3089079962613969  0.4465188685545248
  0.6780107019474205  0.2946956372770766  0.4060519299294758
  0.7027981792820356  0.3089119429517448  0.4465116609284391
  0.6779975412991104  0.2660287522147230  0.4465414669272034
  0.6334902944823940  0.2689138150830089  0.4485872010484390
  0.6335043208466118  0.2975792549887150  0.4080972651896333
  0.7027908750566680  0.2802849351299296  0.4808003590508410
  0.6532099672856567  0.2802813112238743  0.4808062846961406
  0.6977219054177733  0.3344923518844738  0.5191976363960632
  0.7225169167089593  0.3202799929001536  0.4787306977710143
  0.7473043940435743  0.3344962985748218  0.5191904287699776
  0.7225037560606482  0.2916131078378000  0.5192202347687421
  0.6780105356081506  0.3231636106117919  0.4807760330311719
  0.7472970898182063  0.3058692907530065  0.5534791268923795
  0.7422281201793117  0.3600767075075508  0.5918764042376016
  0.7918106088051127  0.3600806541978988  0.5918691966115160
  0.7670099708221869  0.3171974634608769  0.5918990026102804
  0.7225027240054711  0.3200825263291627  0.5939447367315160
  0.5692842050612832  0.2549920773791604  0.1900852876846872
  0.5197032972902723  0.2549884534731053  0.1900912133299868
  0.5890102467135745  0.2949871351493845  0.1880156264048604
  0.6137977240481894  0.3092034408240524  0.2284753574038237
  0.5889970860652638  0.2663202500870308  0.2285051634025882
  0.5444898392485479  0.2692053129553167  0.2305508975238236
  0.6137904198228215  0.2805764330022372  0.2627640555262256
  0.5642095120518106  0.2805728090961822  0.2627699811715252
  0.6087214501839272  0.3347838497567817  0.3011613328714478
  0.6335164614751132  0.3205714907724613  0.2606943942463988
  0.6583039388097278  0.3347877964471295  0.3011541252453622
  0.5889960540100867  0.2947896685783937  0.3032296653653622
  0.5890100803743045  0.3234551084840998  0.2627397295065563
  0.6087157268133494  0.3061571647192591  0.3354487490130638
  0.6532276649454660  0.3603682053798585  0.3738401007129862
  0.6780226762366519  0.3461558463955384  0.3333731620879373
  0.7028101535712665  0.3603721520702063  0.3738328930869006
  0.6780095155883404  0.3174889613331846  0.3738626990856652
  0.6335022687716250  0.3203740242014707  0.3759084332069006
  0.6335162951358427  0.3490394641071766  0.3354184973480949
  0.7028028493458985  0.3317451442483907  0.4081215912093025
  0.6532219415748877  0.3317415203423361  0.4081275168546021
  0.6977338797070043  0.3859525610029353  0.4465188685545248
  0.7473163683328048  0.3859565076932832  0.4465116609284391
  0.7225157303498791  0.3430733169562617  0.4465414669272034
  0.6780084835331632  0.3459583798245476  0.4485872010484390
  0.6780225098973810  0.3746238197302535  0.4080972651896333
  0.7473090641074368  0.3573294998714677  0.4808003590508410
  0.6977281563364259  0.3573258759654132  0.4808062846961406
  0.7422400944685426  0.4115369166260122  0.5191976363960632
  0.7670351057597286  0.3973245576416921  0.4787306977710143
  0.7918225830943432  0.4115408633163601  0.5191904287699776
  0.7670219451114174  0.3686576725793383  0.5192202347687421
  0.7225287246589198  0.4002081753533305  0.4807760330311719
  0.7918152788689755  0.3829138554945446  0.5534791268923795
  0.7867463092300814  0.4371212722490890  0.5918764042376016
  0.8115413205212673  0.4229089132647690  0.5514094656125527
  0.8115281598729561  0.3942420282024153  0.5918990026102804
  0.7670209130562403  0.3971270910707011  0.5939447367315160
  0.7670349394204585  0.4257925309764074  0.5534548008727104
  0.6138023941120528  0.3320366421206986  0.1900852876846872
  0.5642214863410415  0.3320330182146438  0.1900912133299868
  0.6087334244731581  0.3862440588752432  0.2284825650299094
  0.6335284357643437  0.3720316998909228  0.1880156264048604
  0.6583159130989588  0.3862480055655910  0.2284753574038237
  0.6335152751160330  0.3433648148285692  0.2285051634025882
  0.5890080282993171  0.3462498776968553  0.2305508975238236
  0.5890220546635350  0.3749153176025612  0.1900609616650180
  0.6583086088735907  0.3576209977437755  0.2627640555262256
  0.6087277011025798  0.3576173738377206  0.2627699811715252
  0.6532396392346965  0.4118284144983201  0.3011613328714478
  0.6780346505258820  0.3976160555139997  0.2606943942463988
  0.7028221278604975  0.4118323611886681  0.3011541252453622
  0.6780214898775714  0.3689491704516462  0.3011839312441265
  0.6335282694250737  0.4004996732256381  0.2627397295065563
  0.7028148236351294  0.3832053533668524  0.3354428233677641
  0.6977458539962352  0.4374127701213968  0.3738401007129862
  0.7225408652874211  0.4232004111370767  0.3333731620879373
  0.7473283426220357  0.4374167168117448  0.3738328930869006
  0.6780204578223937  0.3974185889430089  0.3759084332069006
  0.6780344841866119  0.4260840288487150  0.3354184973480949
  0.6977401306256569  0.4087860850838745  0.4081275168546021
  0.7422520687577735  0.4629971257444737  0.4465188685545248
  0.7670470800489591  0.4487847667601535  0.4060519299294758
  0.7918345573835740  0.4630010724348217  0.4465116609284391
  0.7670339194006488  0.4201178816978000  0.4465414669272034
  0.7225266725839324  0.4230029445660858  0.4485872010484390
  0.7225406989481507  0.4516683844717919  0.4080972651896333
  0.7918272531582065  0.4343740646130063  0.4808003590508410
  0.7422463453871956  0.4343704407069514  0.4808062846961406
  0.7867582835193118  0.4885814813675506  0.5191976363960632
  0.8115532948104978  0.4743691223832306  0.4787306977710143
  0.8363407721451124  0.4885854280578986  0.5191904287699776
  0.8115401341621871  0.4457022373208769  0.5192202347687421
  0.7670328873454708  0.4485873001891629  0.5212659688899776
  0.7670469137096890  0.4772527400948690  0.4807760330311719
  0.8363334679197447  0.4599584202360833  0.5534791268923795
  0.7867525601487338  0.4599547963300283  0.5534850525376792
  0.8312644982808506  0.5141658369906277  0.5918764042376016
  0.8560595095720360  0.4999534780063075  0.5514094656125527
  0.8808469869066511  0.5141697836809754  0.5918691966115160
  0.8115391021070095  0.4741716558122398  0.5939447367315160
  0.8115531284712273  0.5028370957179459  0.5534548008727104
  0.6583205831628216  0.4090812068622372  0.1900852876846872
  0.6087396753918107  0.4090775829561824  0.1900912133299868
  0.6532516135239278  0.4632886236167814  0.2284825650299094
  0.6780466248151129  0.4490762646324612  0.1880156264048604
  0.7028341021497280  0.4632925703071298  0.2284753574038237
  0.6780334641668022  0.4204093795701078  0.2285051634025882
  0.6335262173500864  0.4232944424383935  0.2305508975238236
  0.6335402437143042  0.4519598823440996  0.1900609616650180
  0.7028267979243599  0.4346655624853141  0.2627640555262256
  0.6532458901533490  0.4346619385792592  0.2627699811715252
  0.6977578282854657  0.4888729792398585  0.3011613328714478
  0.7225528395766516  0.4746606202555383  0.2606943942463988
  0.7473403169112667  0.4888769259302067  0.3011541252453622
  0.7225396789283406  0.4459937351931846  0.3011839312441265
  0.6780324321116251  0.4488787980614704  0.3032296653653622
  0.6780464584758429  0.4775442379671763  0.2627397295065563
  0.7473330126858987  0.4602499181083910  0.3354428233677641
  0.6977521049148878  0.4602462942023360  0.3354487490130638
  0.7422640430470040  0.5144573348629352  0.3738401007129862
  0.7670590543381903  0.5002449758786152  0.3333731620879373
  0.7918465316728049  0.5144612815532834  0.3738328930869006
  0.7670458936898793  0.4715780908162616  0.3738626990856652
  0.7225386468731629  0.4744631536845473  0.3759084332069006
  0.7225526732373811  0.5031285935902533  0.3354184973480949
  0.7918392274474370  0.4858342737314679  0.4081215912093025
  0.7422583196764261  0.4858306498254131  0.4081275168546021
  0.7867702578085427  0.5400416904860122  0.4465188685545248
  0.8115652690997283  0.5258293315016921  0.4060519299294758
  0.8363527464343432  0.5400456371763603  0.4465116609284391
  0.8115521084514176  0.4971624464393384  0.4465414669272034
  0.7670448616347016  0.5000475093076246  0.4485872010484390
  0.7670588879989195  0.5287129492133302  0.4080972651896333
  0.8363454422089757  0.5114186293545447  0.4808003590508410
  0.7867645344379648  0.5114150054484899  0.4808062846961406
  0.8312764725700811  0.5656260461090892  0.5191976363960632
  0.8560714838612670  0.5514136871247692  0.4787306977710143
  0.8808589611958820  0.5656299927994372  0.5191904287699776
  0.8560583232129558  0.5227468020624157  0.5192202347687421
  0.8115510763962400  0.5256318649307012  0.5212659688899776
  0.8115651027604582  0.5542973048364074  0.4807760330311719
  0.8808516569705139  0.5370029849776219  0.5534791268923795
  0.8312707491995032  0.5369993610715669  0.5534850525376792
  0.8757826873316198  0.5912104017321661  0.5918764042376016
  0.9005776986228052  0.5769980427478461  0.5514094656125527
  0.9253651759574203  0.5912143484225141  0.5918691966115160
  0.9005645379744946  0.5483311576854927  0.5918990026102804
  0.8560572911577787  0.5512162205537782  0.5939447367315160
  0.8560713175219969  0.5798816604594840  0.5534548008727104
  0.7028387722135908  0.4861257716037756  0.1900852876846872
  0.6532578644425799  0.4861221476977206  0.1900912133299868
  0.6977698025746966  0.5403331883583200  0.2284825650299094
  0.7225648138658821  0.5261208293739995  0.1880156264048604
  0.7473522912004972  0.5403371350486680  0.2284753574038237
  0.7225516532175714  0.4974539443116461  0.2285051634025882
  0.6780444064008556  0.5003390071799321  0.2305508975238236
  0.6780584327650738  0.5290044470856382  0.1900609616650180
  0.7473449869751291  0.5117101272268525  0.2627640555262256
  0.6977640792041183  0.5117065033207977  0.2627699811715252
  0.7422760173362349  0.5659175439813969  0.3011613328714478
  0.7670710286274208  0.5517051849970764  0.2606943942463988
  0.7918585059620359  0.5659214906717449  0.3011541252453622
  0.7670578679791098  0.5230382999347231  0.3011839312441265
  0.7225506211623943  0.5259233628030090  0.3032296653653622
  0.7225646475266121  0.5545888027087150  0.2627397295065563
  0.7918512017366679  0.5372944828499295  0.3354428233677641
  0.7422702939656566  0.5372908589438744  0.3354487490130638
  0.7867822320977732  0.5915018996044737  0.3738401007129862
  0.8115772433889596  0.5772895406201536  0.3333731620879373
  0.8363647207235742  0.5915058462948217  0.3738328930869006
  0.8115640827406485  0.5486226555577999  0.3738626990856652
  0.7670568359239326  0.5515077184260860  0.3759084332069006
  0.7670708622881504  0.5801731583317919  0.3354184973480949
  0.8363574164982062  0.5628788384730065  0.4081215912093025
  0.7867765087271953  0.5628752145669512  0.4081275168546021
  0.8312884468593119  0.6170862552275509  0.4465188685545248
  0.8560834581504975  0.6028738962432304  0.4060519299294758
  0.8808709354851125  0.6170902019178987  0.4465116609284391
  0.8560702975021872  0.5742070111808770  0.4465414669272034
  0.8115630506854709  0.5770920740491630  0.4485872010484390
  0.8115770770496887  0.6057575139548689  0.4080972651896333
  0.8808636312597453  0.5884631940960834  0.4808003590508410
  0.8312827234887336  0.5884595701900281  0.4808062846961406
  0.8757946616208503  0.6426706108506278  0.5191976363960632
  0.9005896729120362  0.6284582518663073  0.4787306977710143
  0.9253771502466512  0.6426745575409758  0.5191904287699776
  0.9005765122637255  0.5997913668039540  0.5192202347687421
  0.8560692654470092  0.6026764296722397  0.5212659688899776
  0.8560832918112274  0.6313418695779457  0.4807760330311719
  0.9253698460212831  0.6140475497191602  0.5534791268923795
  0.8757889382502724  0.6140439258131053  0.5534850525376792
  0.9005754802085479  0.6282607852953165  0.5939447367315160
  0.9005895065727657  0.6569262252010226  0.5534548008727104
  0.5641936882762348  0.1551103646506276  0.2284825650299094
  0.6137761769020358  0.1551143113409755  0.2284753574038237
  0.6137688726766678  0.1264873035191602  0.2627640555262256
  0.5641879649056569  0.1264836796131054  0.2627699811715252
  0.6086999030377735  0.1806947202737046  0.3011613328714478
  0.6334949143289591  0.1664823612893844  0.2606943942463988
  0.6582823916635742  0.1806986669640527  0.3011541252453622
  0.6334817536806484  0.1378154762270307  0.3011839312441265
  0.5889745068639326  0.1407005390953165  0.3032296653653622
  0.5889885332281508  0.1693659790010227  0.2627397295065563
  0.6582750874382065  0.1520716591422371  0.3354428233677641
  0.6086941796671952  0.1520680352361822  0.3354487490130638
  0.6780011290904978  0.1920667169124616  0.3333731620879373
  0.7027886064251124  0.2062830225871294  0.3738328930869006
  0.6779879684421868  0.1633998318501078  0.3738626990856652
  0.6334807216254709  0.1662848947183936  0.3759084332069006
  0.7027813021997444  0.1776560147653140  0.4081215912093025
  0.6532003944287340  0.1776523908592591  0.4081275168546021
  0.6977123325608502  0.2318634315198584  0.4465188685545248
  0.7225073438520361  0.2176510725355383  0.4060519299294758
  0.7472948211866511  0.2318673782102063  0.4465116609284391
  0.7224941832037250  0.1889841874731847  0.4465414669272034
  0.6779869363870096  0.1918692503414704  0.4485872010484390
  0.6780009627512273  0.2205346902471765  0.4080972651896333
  0.7472875169612836  0.2032403703883909  0.4808003590508410
  0.6977066091902723  0.2032367464823361  0.4808062846961406
  0.7422185473223889  0.2574477871429353  0.5191976363960632
  0.7670135586135749  0.2432354281586151  0.4787306977710143
  0.7918010359481894  0.2574517338332832  0.5191904287699776
  0.7670003979652638  0.2145685430962615  0.5192202347687421
  0.7225071775127662  0.2461190458702535  0.4807760330311719
  0.7917937317228219  0.2288247260114679  0.5534791268923795
  0.7422128239518105  0.2288211021054130  0.5534850525376792
  0.7867247620839273  0.2830321427660122  0.5918764042376016
  0.8115197733751132  0.2688197837816923  0.5514094656125527
  0.8363072507097282  0.2830360894563604  0.5918691966115160
  0.8115066127268020  0.2401528987193385  0.5918990026102804
  0.7669993659100862  0.2430379615876243  0.5939447367315160
  0.7670133922743044  0.2717034014933303  0.5534548008727104
  0.6137808469658987  0.1779475126376219  0.1900852876846872
  0.5641999391948874  0.1779438887315667  0.1900912133299868
  0.6087118773270045  0.2321549293921661  0.2284825650299094
  0.6335068886181900  0.2179425704078459  0.1880156264048604
  0.6582943659528050  0.2321588760825141  0.2284753574038237
  0.6334937279698789  0.1892756853454924  0.2285051634025882
  0.5889864811531634  0.1921607482137782  0.2305508975238236
  0.5890005075173813  0.2208261881194844  0.1900609616650180
  0.6582870617274370  0.2035318682606988  0.2627640555262256
  0.6087061539564257  0.2035282443546438  0.2627699811715252
  0.6780131033797283  0.2435269260309228  0.2606943942463988
  0.7028005807143434  0.2577432317055911  0.3011541252453622
  0.6779999427314176  0.2148600409685692  0.3011839312441265
  0.6334926959147018  0.2177451038368551  0.3032296653653622
  0.6335067222789196  0.2464105437425612  0.2627397295065563
  0.7027932764889757  0.2291162238837757  0.3354428233677641
  0.6977243068500811  0.2833236406383200  0.3738401007129862
  0.7225193181412670  0.2691112816539998  0.3333731620879373
  0.7473067954758816  0.2833275873286680  0.3738328930869006
  0.7225061574929560  0.2404443965916462  0.3738626990856652
  0.6779989106762401  0.2433294594599320  0.3759084332069006
  0.7472994912505136  0.2547005795068525  0.4081215912093025
  0.6977185834795028  0.2546969556007975  0.4081275168546021
  0.7422305216116194  0.3089079962613969  0.4465188685545248
  0.7918130102374203  0.3089119429517448  0.4465116609284391
  0.7670123722544947  0.2660287522147230  0.4465414669272034
  0.7225051254377788  0.2689138150830089  0.4485872010484390
  0.7225191518019966  0.2975792549887150  0.4080972651896333
  0.7918057060120528  0.2802849351299296  0.4808003590508410
  0.7422247982410415  0.2802813112238743  0.4808062846961406
  0.7867367363731581  0.3344923518844738  0.5191976363960632
  0.8115317476643441  0.3202799929001536  0.4787306977710143
  0.8363192249989587  0.3344962985748218  0.5191904287699776
  0.8115185870160330  0.2916131078378000  0.5192202347687421
  0.7670113401993170  0.2944981707060859  0.5212659688899776
  0.7670253665635354  0.3231636106117919  0.4807760330311719
  0.8363119207735911  0.3058692907530065  0.5534791268923795
  0.7867310130025797  0.3058656668469513  0.5534850525376792
  0.8312429511346965  0.3600767075075508  0.5918764042376016
  0.8560379624258824  0.3458643485232304  0.5514094656125527
  0.8808254397604970  0.3600806541978988  0.5918691966115160
  0.8560248017775713  0.3171974634608769  0.5918990026102804
  0.8115175549608554  0.3200825263291627  0.5939447367315160
  0.8115315813250736  0.3487479662348687  0.5534548008727104
  0.6582990360166679  0.2549920773791604  0.1900852876846872
  0.6087181282456571  0.2549884534731053  0.1900912133299868
  0.6532300663777733  0.3091994941337043  0.2284825650299094
  0.7028125550035743  0.3092034408240524  0.2284753574038237
  0.6780119170206486  0.2663202500870308  0.2285051634025882
  0.6335046702039326  0.2692053129553167  0.2305508975238236
  0.7028052507782062  0.2805764330022372  0.2627640555262256
  0.6532243430071949  0.2805728090961822  0.2627699811715252
  0.6977362811393121  0.3347838497567817  0.3011613328714478
  0.7225312924304975  0.3205714907724613  0.2606943942463988
  0.7473187697651126  0.3347877964471295  0.3011541252453622
  0.7225181317821868  0.2919046057101076  0.3011839312441265
  0.6780108849654710  0.2947896685783937  0.3032296653653622
  0.6780249113296892  0.3234551084840998  0.2627397295065563
  0.7473114655397449  0.3061607886253140  0.3354428233677641
  0.6977305577687337  0.3061571647192591  0.3354487490130638
  0.7670375071920362  0.3461558463955384  0.3333731620879373
  0.7918249845266508  0.3603721520702063  0.3738328930869006
  0.7225170997270093  0.3203740242014707  0.3759084332069006
  0.7225311260912275  0.3490394641071766  0.3354184973480949
  0.7918176803012833  0.3317451442483907  0.4081215912093025
  0.7422367725302720  0.3317415203423361  0.4081275168546021
  0.7867487106623886  0.3859525610029353  0.4465188685545248
  0.8115437219535750  0.3717402020186154  0.4060519299294758
  0.8363311992881896  0.3859565076932832  0.4465116609284391
  0.8115305613052639  0.3430733169562617  0.4465414669272034
  0.7670233144885480  0.3459583798245476  0.4485872010484390
  0.7670373408527659  0.3746238197302535  0.4080972651896333
  0.8363238950628216  0.3573294998714677  0.4808003590508410
  0.7867429872918107  0.3573258759654132  0.4808062846961406
  0.8312549254239273  0.4115369166260122  0.5191976363960632
  0.8560499367151133  0.3973245576416921  0.4787306977710143
  0.8808374140497275  0.4115408633163601  0.5191904287699776
  0.8560367760668022  0.3686576725793383  0.5192202347687421
  0.8115295292500864  0.3715427354476245  0.5212659688899776
  0.8115435556143046  0.4002081753533305  0.4807760330311719
  0.8808301098243603  0.3829138554945446  0.5534791268923795
  0.8312492020533491  0.3829102315884899  0.5534850525376792
  0.8757611401854657  0.4371212722490890  0.5918764042376016
  0.9005561514766516  0.4229089132647690  0.5514094656125527
  0.9253436288112662  0.4371252189394371  0.5918691966115160
  0.9005429908283410  0.3942420282024153  0.5918990026102804
  0.8560357440116246  0.3971270910707011  0.5939447367315160
  0.8560497703758428  0.4257925309764074  0.5534548008727104
  0.7028172250674372  0.3320366421206986  0.1900852876846872
  0.6977482554285429  0.3862440588752432  0.2284825650299094
  0.7473307440543435  0.3862480055655910  0.2284753574038237
  0.7225301060714178  0.3433648148285692  0.2285051634025882
  0.6780228592547020  0.3462498776968553  0.2305508975238236
  0.6780368856189197  0.3749153176025612  0.1900609616650180
  0.7473234398289754  0.3576209977437755  0.2627640555262256
  0.6977425320579645  0.3576173738377206  0.2627699811715252
  0.7422544701900813  0.4118284144983201  0.3011613328714478
  0.7670494814812672  0.3976160555139997  0.2606943942463988
  0.7918369588158818  0.4118323611886681  0.3011541252453622
  0.7670363208329561  0.3689491704516462  0.3011839312441265
  0.7225290740162402  0.3718342333199320  0.3032296653653622
  0.7225431003804580  0.4004996732256381  0.2627397295065563
  0.7918296545905142  0.3832053533668524  0.3354428233677641
  0.7422487468195029  0.3832017294607976  0.3354487490130638
  0.7867606849516195  0.4374127701213968  0.3738401007129862
  0.8115556962428054  0.4232004111370767  0.3333731620879373
  0.8363431735774201  0.4374167168117448  0.3738328930869006
  0.8115425355944949  0.3945335260747231  0.3738626990856652
  0.7670493151419963  0.4260840288487150  0.3354184973480949
  0.8363358693520525  0.4087897089899293  0.4081215912093025
  0.7867549615810412  0.4087860850838745  0.4081275168546021
  0.8312668997131578  0.4629971257444737  0.4465188685545248
  0.8560619110043438  0.4487847667601535  0.4060519299294758
  0.8808493883389588  0.4630010724348217  0.4465116609284391
  0.8560487503560336  0.4201178816978000  0.4465414669272034
  0.8115415035393172  0.4230029445660858  0.4485872010484390
  0.8115555299035351  0.4516683844717919  0.4080972651896333
  0.8808420841135908  0.4343740646130063  0.4808003590508410
  0.8312611763425799  0.4343704407069514  0.4808062846961406
  0.8757731144746965  0.4885814813675506  0.5191976363960632
  0.9005681257658821  0.4743691223832306  0.4787306977710143
  0.9253556031004967  0.4885854280578986  0.5191904287699776
  0.9005549651175714  0.4457022373208769  0.5192202347687421
  0.8560477183008556  0.4485873001891629  0.5212659688899776
  0.8560617446650738  0.4772527400948690  0.4807760330311719
  0.9253482988751295  0.4599584202360833  0.5534791268923795
  0.8757673911041183  0.4599547963300283  0.5534850525376792
  0.9202793292362353  0.5141658369906277  0.5918764042376016
  0.9450743405274208  0.4999534780063075  0.5514094656125527
  0.9450611798791102  0.4712865929439539  0.5918990026102804
  0.9005539330623938  0.4741716558122398  0.5939447367315160
  0.9005679594266121  0.5028370957179459  0.5534548008727104
  0.6977545063471955  0.4090775829561824  0.1900912133299868
  0.7422664444793121  0.4632886236167814  0.2284825650299094
  0.7670614557704977  0.4490762646324612  0.1880156264048604
  0.7918489331051127  0.4632925703071298  0.2284753574038237
  0.7670482951221870  0.4204093795701078  0.2285051634025882
  0.7225410483054707  0.4232944424383935  0.2305508975238236
  0.7225550746696889  0.4519598823440996  0.1900609616650180
  0.7918416288797446  0.4346655624853141  0.2627640555262256
  0.7422607211087339  0.4346619385792592  0.2627699811715252
  0.7867726592408500  0.4888729792398585  0.3011613328714478
  0.8115676705320359  0.4746606202555383  0.2606943942463988
  0.8363551478666510  0.4888769259302067  0.3011541252453622
  0.8115545098837254  0.4459937351931846  0.3011839312441265
  0.7670472630670094  0.4488787980614704  0.3032296653653622
  0.7670612894312272  0.4775442379671763  0.2627397295065563
  0.8363478436412830  0.4602499181083910  0.3354428233677641
  0.7867669358702721  0.4602462942023360  0.3354487490130638
  0.8312788740023888  0.5144573348629352  0.3738401007129862
  0.8560738852935752  0.5002449758786152  0.3333731620879373
  0.8808613626281893  0.5144612815532834  0.3738328930869006
  0.8560607246452636  0.4715780908162616  0.3738626990856652
  0.8115534778285477  0.4744631536845473  0.3759084332069006
  0.8115675041927659  0.5031285935902533  0.3354184973480949
  0.8808540584028213  0.4858342737314679  0.4081215912093025
  0.8312731506318104  0.4858306498254131  0.4081275168546021
  0.8757850887639270  0.5400416904860122  0.4465188685545248
  0.9005801000551130  0.5258293315016921  0.4060519299294758
  0.9253675773897281  0.5400456371763603  0.4465116609284391
  0.9005669394068023  0.4971624464393384  0.4465414669272034
  0.8560596925900864  0.5000475093076246  0.4485872010484390
  0.8560737189543043  0.5287129492133302  0.4080972651896333
  0.9253602731643600  0.5114186293545447  0.4808003590508410
  0.8757793653933491  0.5114150054484899  0.4808062846961406
  0.9202913035254658  0.5656260461090892  0.5191976363960632
  0.9450731541683407  0.5227468020624157  0.5192202347687421
  0.9005659073516248  0.5256318649307012  0.5212659688899776
  0.9005799337158430  0.5542973048364074  0.4807760330311719
  0.9202855801548875  0.5369993610715669  0.5534850525376792
  0.9450721221131630  0.5512162205537782  0.5939447367315160
  0.9450861484773813  0.5798816604594840  0.5534548008727104
  0.7918536031689756  0.4861257716037756  0.1900852876846872
  0.7422726953979647  0.4861221476977206  0.1900912133299868
  0.7867846335300814  0.5403331883583200  0.2284825650299094
  0.8115796448212669  0.5261208293739995  0.1880156264048604
  0.8363671221558819  0.5403371350486680  0.2284753574038237
  0.8115664841729562  0.4974539443116461  0.2285051634025882
  0.7670592373562404  0.5003390071799321  0.2305508975238236
  0.7670732637204581  0.5290044470856382  0.1900609616650180
  0.8363598179305138  0.5117101272268525  0.2627640555262256
  0.7867789101595031  0.5117065033207977  0.2627699811715252
  0.8312908482916197  0.5659175439813969  0.3011613328714478
  0.8560858595828051  0.5517051849970764  0.2606943942463988
  0.8808733369174202  0.5659214906717449  0.3011541252453622
  0.8560726989344946  0.5230382999347231  0.3011839312441265
  0.8115654521177786  0.5259233628030090  0.3032296653653622
  0.8115794784819964  0.5545888027087150  0.2627397295065563
  0.8312851249210413  0.5372908589438744  0.3354487490130638
  0.8757970630531580  0.5915018996044737  0.3738401007129862
  0.9253795516789585  0.5915058462948217  0.3738328930869006
  0.9005789136960324  0.5486226555577999  0.3738626990856652
  0.8560716668793169  0.5515077184260860  0.3759084332069006
  0.8560856932435352  0.5801731583317919  0.3354184973480949
  0.9253722474535909  0.5628788384730065  0.4081215912093025
  0.8757913396825801  0.5628752145669512  0.4081275168546021
  0.9203032778146962  0.6170862552275509  0.4465188685545248
  0.9450851284575715  0.5742070111808770  0.4465414669272034
  0.9005778816408557  0.5770920740491630  0.4485872010484390
  0.9005919080050735  0.6057575139548689  0.4080972651896333
  0.9202975544441184  0.5884595701900281  0.4808062846961406
  0.9450840964023940  0.6026764296722397  0.5212659688899776
  0.6977147339931583  0.1806947202737046  0.3011613328714478
  0.7472972226189589  0.1806986669640527  0.3011541252453622
  0.6779893378193169  0.1407005390953165  0.3032296653653622
  0.6780033641835351  0.1693659790010227  0.2627397295065563
  0.7472899183935908  0.1520716591422371  0.3354428233677641
  0.6977090106225801  0.1520680352361822  0.3354487490130638
  0.7422209487546967  0.2062790758967815  0.3738401007129862
  0.7670159600458821  0.1920667169124616  0.3333731620879373
  0.7918034373804972  0.2062830225871294  0.3738328930869006
  0.7670027993975715  0.1633998318501078  0.3738626990856652
  0.7224955525808556  0.1662848947183936  0.3759084332069006
  0.7225095789450734  0.1949503346240997  0.3354184973480949
  0.7917961331551292  0.1776560147653140  0.4081215912093025
  0.7422152253841183  0.1776523908592591  0.4081275168546021
  0.7867271635162350  0.2318634315198584  0.4465188685545248
  0.8115221748074209  0.2176510725355383  0.4060519299294758
  0.8363096521420359  0.2318673782102063  0.4465116609284391
  0.8115090141591103  0.1889841874731847  0.4465414669272034
  0.7670017673423939  0.1918692503414704  0.4485872010484390
  0.7670157937066121  0.2205346902471765  0.4080972651896333
  0.8363023479166679  0.2032403703883909  0.4808003590508410
  0.7867214401456566  0.2032367464823361  0.4808062846961406
  0.8312333782777737  0.2574477871429353  0.5191976363960632
  0.8560283895689592  0.2432354281586151  0.4787306977710143
  0.8808158669035743  0.2574517338332832  0.5191904287699776
  0.8560152289206485  0.2145685430962615  0.5192202347687421
  0.8115079821039323  0.2174536059645473  0.5212659688899776
  0.8115220084681505  0.2461190458702535  0.4807760330311719
  0.8312276549071953  0.2288211021054130  0.5534850525376792
  0.8757395930393120  0.2830321427660122  0.5918764042376016
  0.8560141968654710  0.2430379615876243  0.5939447367315160
  0.8560282232296892  0.2717034014933303  0.5534548008727104
  0.6977267082823888  0.2321549293921661  0.2284825650299094
  0.7473091969081898  0.2321588760825141  0.2284753574038237
  0.6780013121085477  0.1921607482137782  0.2305508975238236
  0.6780153384727656  0.2208261881194844  0.1900609616650180
  0.7473018926828218  0.2035318682606988  0.2627640555262256
  0.6977209849118104  0.2035282443546438  0.2627699811715252
  0.7422329230439276  0.2577392850152431  0.3011613328714478
  0.7670279343351126  0.2435269260309228  0.2606943942463988
  0.7918154116697281  0.2577432317055911  0.3011541252453622
  0.7670147736868024  0.2148600409685692  0.3011839312441265
  0.7225075268700866  0.2177451038368551  0.3032296653653622
  0.7225215532343043  0.2464105437425612  0.2627397295065563
  0.7918081074443600  0.2291162238837757  0.3354428233677641
  0.7422271996733493  0.2291125999777206  0.3354487490130638
  0.8115341490966518  0.2691112816539998  0.3333731620879373
  0.8363216264312664  0.2833275873286680  0.3738328930869006
  0.8115209884483408  0.2404443965916462  0.3738626990856652
  0.7670137416316248  0.2433294594599320  0.3759084332069006
  0.7670277679958426  0.2719948993656380  0.3354184973480949
  0.8363143222058984  0.2547005795068525  0.4081215912093025
  0.7867334144348880  0.2546969556007975  0.4081275168546021
  0.8312453525670042  0.3089079962613969  0.4465188685545248
  0.8560403638581902  0.2946956372770766  0.4060519299294758
  0.8808278411928051  0.3089119429517448  0.4465116609284391
  0.8560272032098790  0.2660287522147230  0.4465414669272034
  0.8115199563931635  0.2689138150830089  0.4485872010484390
  0.8115339827573813  0.2975792549887150  0.4080972651896333
  0.8808205369674371  0.2802849351299296  0.4808003590508410
  0.8312396291964262  0.2802813112238743  0.4808062846961406
  0.8757515673285429  0.3344923518844738  0.5191976363960632
  0.9005465786197284  0.3202799929001536  0.4787306977710143
  0.9253340559543435  0.3344962985748218  0.5191904287699776
  0.9005334179714177  0.2916131078378000  0.5192202347687421
  0.8560261711547019  0.2944981707060859  0.5212659688899776
  0.8560401975189197  0.3231636106117919  0.4807760330311719
  0.8757458439579646  0.3058656668469513  0.5534850525376792
  0.9202577820900812  0.3600767075075508  0.5918764042376016
  0.9005323859162402  0.3200825263291627  0.5939447367315160
  0.9005464122804580  0.3487479662348687  0.5534548008727104
  0.6977329592010414  0.2549884534731053  0.1900912133299868
  0.7422448973331580  0.3091994941337043  0.2284825650299094
  0.7670399086243440  0.2949871351493845  0.1880156264048604
  0.7918273859589591  0.3092034408240524  0.2284753574038237
  0.7670267479760329  0.2663202500870308  0.2285051634025882
  0.7225195011593171  0.2692053129553167  0.2305508975238236
  0.7225335275235353  0.2978707528610228  0.1900609616650180
  0.7918200817335910  0.2805764330022372  0.2627640555262256
  0.7422391739625798  0.2805728090961822  0.2627699811715252
  0.7867511120946968  0.3347838497567817  0.3011613328714478
  0.8115461233858823  0.3205714907724613  0.2606943942463988
  0.8363336007204973  0.3347877964471295  0.3011541252453622
  0.8115329627375717  0.2919046057101076  0.3011839312441265
  0.7670257159208553  0.2947896685783937  0.3032296653653622
  0.7670397422850735  0.3234551084840998  0.2627397295065563
  0.8363262964951294  0.3061607886253140  0.3354428233677641
  0.7867453887241185  0.3061571647192591  0.3354487490130638
  0.8312573268562351  0.3603682053798585  0.3738401007129862
  0.8560523381474214  0.3461558463955384  0.3333731620879373
  0.8808398154820356  0.3603721520702063  0.3738328930869006
  0.8560391774991100  0.3174889613331846  0.3738626990856652
  0.8115459570466118  0.3490394641071766  0.3354184973480949
  0.8808325112566676  0.3317451442483907  0.4081215912093025
  0.8312516034856567  0.3317415203423361  0.4081275168546021
  0.8757635416177734  0.3859525610029353  0.4465188685545248
  0.9005585529089594  0.3717402020186154  0.4060519299294758
  0.9005453922606482  0.3430733169562617  0.4465414669272034
  0.8560381454439328  0.3459583798245476  0.4485872010484390
  0.8560521718081506  0.3746238197302535  0.4080972651896333
  0.9253387260182063  0.3573294998714677  0.4808003590508410
  0.8757578182471959  0.3573258759654132  0.4808062846961406
  0.9202697563793121  0.4115369166260122  0.5191976363960632
  0.9005443602054716  0.3715427354476245  0.5212659688899776
  0.9005583865696893  0.4002081753533305  0.4807760330311719
  0.9202640330087338  0.3829102315884899  0.5534850525376792
  0.9450646013312272  0.4257925309764074  0.5534548008727104
  0.7918320560228215  0.3320366421206986  0.1900852876846872
  0.7422511482518106  0.3320330182146438  0.1900912133299868
  0.7867630863839273  0.3862440588752432  0.2284825650299094
  0.8115580976751132  0.3720316998909228  0.1880156264048604
  0.8363455750097283  0.3862480055655910  0.2284753574038237
  0.8115449370268021  0.3433648148285692  0.2285051634025882
  0.7670376902100863  0.3462498776968553  0.2305508975238236
  0.8363382707843602  0.3576209977437755  0.2627640555262256
  0.7867573630133490  0.3576173738377206  0.2627699811715252
  0.8312693011454660  0.4118284144983201  0.3011613328714478
  0.8560643124366515  0.3976160555139997  0.2606943942463988
  0.8808517897712665  0.4118323611886681  0.3011541252453622
  0.8560511517883409  0.3689491704516462  0.3011839312441265
  0.8115439049716245  0.3718342333199320  0.3032296653653622
  0.8115579313358428  0.4004996732256381  0.2627397295065563
  0.8808444855458986  0.3832053533668524  0.3354428233677641
  0.8312635777748872  0.3832017294607976  0.3354487490130638
  0.8757755159070043  0.4374127701213968  0.3738401007129862
  0.9005705271981899  0.4232004111370767  0.3333731620879373
  0.9253580045328048  0.4374167168117448  0.3738328930869006
  0.9005573665498792  0.3945335260747231  0.3738626990856652
  0.8560501197331633  0.3974185889430089  0.3759084332069006
  0.8560641460973810  0.4260840288487150  0.3354184973480949
  0.9253507003074368  0.4087897089899293  0.4081215912093025
  0.8757697925364255  0.4087860850838745  0.4081275168546021
  0.9202817306685426  0.4629971257444737  0.4465188685545248
  0.9450767419597286  0.4487847667601535  0.4060519299294758
  0.9005563344947016  0.4230029445660858  0.4485872010484390
  0.9005703608589198  0.4516683844717919  0.4080972651896333
  0.9450625492562399  0.4485873001891629  0.5212659688899776
  0.9450765756204581  0.4772527400948690  0.4807760330311719
  0.7867693373025798  0.4090775829561824  0.1900912133299868
  0.8312812754346965  0.4632886236167814  0.2284825650299094
  0.8560631260775717  0.4204093795701078  0.2285051634025882
  0.8115558792608555  0.4232944424383935  0.2305508975238236
  0.8115699056250737  0.4519598823440996  0.1900609616650180
  0.8808564598351294  0.4346655624853141  0.2627640555262256
  0.8312755520641182  0.4346619385792592  0.2627699811715252
  0.8757874901962353  0.4888729792398585  0.3011613328714478
  0.9005693408391101  0.4459937351931846  0.3011839312441265
  0.8560620940223937  0.4488787980614704  0.3032296653653622
  0.8560761203866120  0.4775442379671763  0.2627397295065563
  0.9253626745966682  0.4602499181083910  0.3354428233677641
  0.8757817668256569  0.4602462942023360  0.3354487490130638
  0.9202937049577735  0.5144573348629352  0.3738401007129862
  0.9005683087839325  0.4744631536845473  0.3759084332069006
  0.9005823351481503  0.5031285935902533  0.3354184973480949
  0.9202879815871952  0.4858306498254131  0.4081275168546021
  0.9450745235454713  0.5000475093076246  0.4485872010484390
  0.9450885499096890  0.5287129492133302  0.4080972651896333
  0.8312875263533495  0.4861221476977206  0.1900912133299868
  0.8560740683116247  0.5003390071799321  0.2305508975238236
  0.8757937411148874  0.5117065033207977  0.2627699811715252
  0.8312357797100810  0.2062790758967815  0.3738401007129862
  0.8312477539993119  0.2577392850152431  0.3011613328714478
  0.8312420306287340  0.2291125999777206  0.3354487490130638
  0.8757539687608502  0.2833236406383200  0.3738401007129862
  0.8560285725870096  0.2433294594599320  0.3759084332069006
  0.8560425989512274  0.2719948993656380  0.3354184973480949
  0.8757482453902723  0.2546969556007975  0.4081275168546021
  0.9005488137127662  0.2975792549887150  0.4080972651896333
  0.8757659430500816  0.3347838497567817  0.3011613328714478
  0.8560405468762401  0.2947896685783937  0.3032296653653622
  0.8757602196795032  0.3061571647192591  0.3354487490130638
  0.9202721578116194  0.3603682053798585  0.3738401007129862
  0.9005467616377788  0.3203740242014707  0.3759084332069006
  0.9005607880019966  0.3490394641071766  0.3354184973480949
  0.7473569612643605  0.5631703363453140  0.1900852876846872
  0.6977760534933491  0.5631667124392592  0.1900912133299868
  0.7422879916254659  0.6173777530998583  0.2284825650299094
  0.7670830029166513  0.6031653941155382  0.1880156264048604
  0.7918704802512664  0.6173816997902064  0.2284753574038237
  0.7670698422683407  0.5744985090531849  0.2285051634025882
  0.7225625954516248  0.5773835719214707  0.2305508975238236
  0.7225766218158426  0.6060490118271765  0.1900609616650180
  0.7918631760258987  0.5887546919683908  0.2627640555262256
  0.7422822682548875  0.5887510680623360  0.2627699811715252
  0.7867942063870041  0.6429621087229352  0.3011613328714478
  0.8115892176781900  0.6287497497386153  0.2606943942463988
  0.8363766950128051  0.6429660554132832  0.3011541252453622
  0.8115760570298790  0.6000828646762616  0.3011839312441265
  0.7670688102131635  0.6029679275445473  0.3032296653653622
  0.7670828365773813  0.6316333674502534  0.2627397295065563
  0.8363693907874371  0.6143390475914680  0.3354428233677641
  0.7867884830164262  0.6143354236854129  0.3354487490130638
  0.8313004211485429  0.6685464643460122  0.3738401007129862
  0.8560954324397289  0.6543341053616921  0.3333731620879373
  0.8560822717914177  0.6256672202993385  0.3738626990856652
  0.8115750249747018  0.6285522831676242  0.3759084332069006
  0.8115890513389197  0.6572177230733305  0.3354184973480949
  0.8808756055489758  0.6399234032145448  0.4081215912093025
  0.8312946977779645  0.6399197793084899  0.4081275168546021
  0.8758066359100811  0.6941308199690890  0.4465188685545248
  0.9005884865529560  0.6512515759224153  0.4465414669272034
  0.8560812397362402  0.6541366387907014  0.4485872010484390
  0.9253818203105141  0.6655077588376217  0.4808003590508410
  0.8758009125395032  0.6655041349315669  0.4808062846961406
  0.9005874544977789  0.6797209944137782  0.5212659688899776
  0.9006014808619967  0.7083864343194843  0.4807760330311719
  0.7918751503151292  0.6402149010868525  0.1900852876846872
  0.7868061806762351  0.6944223178413967  0.2284825650299094
  0.8115880313191099  0.6515430737947233  0.2285051634025882
  0.7670807845023940  0.6544281366630088  0.2305508975238236
  0.7670948108666118  0.6830935765687148  0.1900609616650180
  0.8363813650766676  0.6657992567099295  0.2627640555262256
  0.7868004573056567  0.6657956328038744  0.2627699811715252
  0.8313123954377734  0.7200066734644739  0.3011613328714478
  0.8560942460806482  0.6771274294178000  0.3011839312441265
  0.8115869992639327  0.6800124922860857  0.3032296653653622
  0.8116010256281505  0.7086779321917920  0.2627397295065563
  0.8808875798382063  0.6913836123330063  0.3354428233677641
  0.8313066720671954  0.6913799884269515  0.3354487490130638
  0.8561072403896889  0.7342622878148687  0.3354184973480949
  0.7867908844487339  0.5631667124392592  0.1900912133299868
  0.8313028225808506  0.6173777530998583  0.2284825650299094
  0.8560846732237251  0.5744985090531849  0.2285051634025882
  0.8115774264070096  0.5773835719214707  0.2305508975238236
  0.8115914527712274  0.6060490118271765  0.1900609616650180
  0.8808780069812832  0.5887546919683908  0.2627640555262256
  0.8312970992102723  0.5887510680623360  0.2627699811715252
  0.8758090373423889  0.6429621087229352  0.3011613328714478
  0.9005908879852638  0.6000828646762616  0.3011839312441265
  0.8560836411685478  0.6029679275445473  0.3032296653653622
  0.8560976675327661  0.6316333674502534  0.2627397295065563
  0.8758033139718105  0.6143354236854129  0.3354487490130638
  0.9005898559300861  0.6285522831676242  0.3759084332069006
  0.9006038822943044  0.6572177230733305  0.3354184973480949
  0.9203095287333493  0.6399197793084899  0.4081275168546021
  0.5889502089281503  0.0661540628917919  0.6261335687142487
  0.6582487374274369  0.1003199521514679  0.6261578947339179
  0.6086678296564261  0.1003163282454130  0.6261638203792175
  0.6531797677885427  0.1545273689060123  0.6645551720791399
  0.6779747790797283  0.1403150099216921  0.6240882334540911
  0.7027622564143433  0.1545313155963603  0.6645479644530544
  0.6779616184314176  0.1116481248593384  0.6645777704518190
  0.6334543716147018  0.1145331877276243  0.6666235045730544
  0.6334683979789195  0.1431986276333302  0.6261335687142487
  0.6531740444179645  0.1259006838684900  0.6988425882207560
  0.6976859825500811  0.1801117245290892  0.7372339399206786
  0.7224809938412670  0.1658993655447692  0.6967670012956295
  0.6779746127404582  0.1687829832564074  0.6988123365557872
  0.7027669264782062  0.1773645168930065  0.6261578947339179
  0.6531860187071953  0.1773608929869513  0.6261638203792175
  0.6976979568393120  0.2315719336475507  0.6645551720791399
  0.7224929681304975  0.2173595746632305  0.6240882334540911
  0.7472804454651125  0.2315758803378987  0.6645479644530544
  0.6779725606654710  0.1915777524691628  0.6666235045730544
  0.6779865870296887  0.2202431923748688  0.6261335687142487
  0.6976922334687341  0.2029452486100284  0.6988425882207560
  0.7422041716008503  0.2571562892706277  0.7372339399206786
  0.7669991828920362  0.2429439302863076  0.6967670012956295
  0.7917866602266512  0.2571602359609758  0.7372267322945930
  0.7669860222437251  0.2142770452239539  0.7372565382933575
  0.7224787754270092  0.2171621080922398  0.7393022724145929
  0.7224928017912274  0.2458275479979459  0.6988123365557872
  0.7421984482302719  0.2285296042331052  0.7715213560622943
  0.7669990165527657  0.2714119036210226  0.7714911043973258
  0.7224832289343043  0.1431986276333302  0.6261335687142487
  0.7917817574335909  0.1773645168930065  0.6261578947339179
  0.7422008496625797  0.1773608929869513  0.6261638203792175
  0.7867127877946968  0.2315719336475507  0.6645551720791399
  0.8115077990858822  0.2173595746632305  0.6240882334540911
  0.8362952764204973  0.2315758803378987  0.6645479644530544
  0.7669873916208557  0.1915777524691628  0.6666235045730544
  0.7670014179850735  0.2202431923748688  0.6261335687142487
  0.7867070644241184  0.2029452486100284  0.6988425882207560
  0.8115076327466122  0.2458275479979459  0.6988123365557872
  0.7472851155289758  0.2544090816345447  0.6261578947339179
  0.6977042077579645  0.2544054577284899  0.6261638203792175
  0.7422161458900812  0.3086164983890893  0.6645551720791399
  0.7670111571812667  0.2944041394047691  0.6240882334540911
  0.7917986345158817  0.3086204450794373  0.6645479644530544
  0.7669979965329561  0.2657372543424154  0.6645777704518190
  0.7224907497162402  0.2686223172107012  0.6666235045730544
  0.7225047760804579  0.2972877571164072  0.6261335687142487
  0.7917913302905137  0.2799934372576218  0.6988366625754564
  0.7422104225195033  0.2799898133515670  0.6988425882207560
  0.7867223606516195  0.3342008540121660  0.7372339399206786
  0.8115173719428054  0.3199884950278460  0.6967670012956295
  0.8363048492774204  0.3342048007025142  0.7372267322945930
  0.8115042112944948  0.2913216099654924  0.7372565382933575
  0.7669969644777784  0.2942066728337780  0.7393022724145929
  0.7670109908419966  0.3228721127394842  0.6988123365557872
  0.7867166372810416  0.3055741689746437  0.7715213560622943
  0.8115172056035355  0.3484564683625612  0.7714911043973258
  0.7918033045797450  0.3314536463760833  0.6261578947339179
  0.7422223968087338  0.3314500224700282  0.6261638203792175
  0.7867343349408504  0.3856610631306276  0.6645551720791399
  0.8115293462320359  0.3714487041463074  0.6240882334540911
  0.8363168235666509  0.3856650098209756  0.6645479644530544
  0.8115161855837253  0.3427818190839539  0.6645777704518190
  0.7670089387670094  0.3456668819522397  0.6666235045730544
  0.7670229651312271  0.3743323218579458  0.6261335687142487
  0.8363095193412834  0.3570380019991604  0.6988366625754564
  0.7867286115702721  0.3570343780931053  0.6988425882207560
  0.8312405497023887  0.4112454187537045  0.7372339399206786
  0.8560355609935747  0.3970330597693843  0.6967670012956295
  0.8808230383281896  0.4112493654440526  0.7372267322945930
  0.8560224003452636  0.3683661747070308  0.7372565382933575
  0.8115151535285481  0.3712512375753166  0.7393022724145929
  0.8115291798927659  0.3999166774810228  0.6988123365557872
  0.8312348263318108  0.3826187337161821  0.7715213560622943
  0.8560353946543042  0.4255010331040996  0.7714911043973258
  0.8363214936305142  0.4084982111176218  0.6261578947339179
  0.7867405858595030  0.4084945872115668  0.6261638203792175
  0.8312525239916196  0.4627056278721658  0.6645551720791399
  0.8808350126174201  0.4627095745625142  0.6645479644530544
  0.8560343746344945  0.4198263838254924  0.6645777704518190
  0.8115271278177786  0.4227114466937780  0.6666235045730544
  0.8808277083920522  0.4340825667406988  0.6988366625754564
  0.8312468006210417  0.4340789428346437  0.6988425882207560
  0.8757587387531579  0.4882899834952431  0.7372339399206786
  0.9005537500443439  0.4740776245109229  0.6967670012956295
  0.8560333425793173  0.4482958023168550  0.7393022724145929
  0.8560473689435351  0.4769612422225613  0.6988123365557872
  0.8808396826812835  0.4855427758591602  0.6261578947339179
  0.8757707130423888  0.5397501926137046  0.6645551720791399
  0.9005657243335747  0.5255378336293843  0.6240882334540911
  0.9253532016681894  0.5397541393040526  0.6645479644530544
  0.9005525636852642  0.4968709485670307  0.6645777704518190
  0.8560453168685478  0.4997560114353167  0.6666235045730544
  0.8560593432327656  0.5284214513410228  0.6261335687142487
  0.8757649896718109  0.5111235075761823  0.6988425882207560
  0.9005655579943044  0.5540058069640996  0.6988123365557872
  0.9253578717320523  0.5625873406006987  0.6261578947339179
  0.8757769639610414  0.5625837166946438  0.6261638203792175
  0.9005635059193170  0.5768005761768551  0.6666235045730544
  0.9005775322835348  0.6054660160825609  0.6261335687142487
  0.9202951530118106  0.6396282814361821  0.6261638203792175
  0.8362999464843601  0.2544090816345447  0.6261578947339179
  0.7867190387133494  0.2544054577284899  0.6261638203792175
  0.8312309768454655  0.3086164983890893  0.6645551720791399
  0.8560259881366514  0.2944041394047691  0.6240882334540911
  0.8808134654712665  0.3086204450794373  0.6645479644530544
  0.8560128274883404  0.2657372543424154  0.6645777704518190
  0.8115055806716249  0.2686223172107012  0.6666235045730544
  0.8115196070358427  0.2972877571164072  0.6261335687142487
  0.8312252534748876  0.2799898133515670  0.6988425882207560
  0.8560258217973814  0.3228721127394842  0.6988123365557872
  0.8808181355351293  0.3314536463760833  0.6261578947339179
  0.8312372277641186  0.3314500224700282  0.6261638203792175
  0.8757491658962347  0.3856610631306276  0.6645551720791399
  0.9005441771874206  0.3714487041463074  0.6240882334540911
  0.9005310165391101  0.3427818190839539  0.6645777704518190
  0.8560237697223941  0.3456668819522397  0.6666235045730544
  0.8560377960866119  0.3743323218579458  0.6261335687142487
  0.8757434425256568  0.3570343780931053  0.6988425882207560
  0.9005440108481506  0.3999166774810228  0.6988123365557872
  0.9253363245858987  0.4084982111176218  0.6261578947339179
  0.8757554168148878  0.4084945872115668  0.6261638203792175
  0.9202673549470044  0.4627056278721658  0.6645551720791399
  0.9005419587731633  0.4227114466937780  0.6666235045730544
  0.9005559851373811  0.4513768865994844  0.6261335687142487
  0.9202736058656570  0.4855391519531052  0.6261638203792175
  0.0994077521344619  0.3202174612178256  0.5090834984431578
  0.1884094106945209  0.2175156644883930  0.4909138037209799
  0.1884010359436926  0.1661283317347487  0.5090834984431578
  0.1439247430791362  0.3460204383483930  0.4182350358794414
  0.2329072507052309  0.1917126873578255  0.5817622662846963
  0.1439522911960005  0.4490137329501332  0.2183684270770039
  0.1884309578406745  0.3716047939714700  0.4909138037209799
  0.2774386173714439  0.2178071623607006  0.2728775001963646
  0.2329539497560592  0.3463119362207007  0.2001987323548261
  0.3664666207221540  0.3205089590901333  0.2910471949185425
  0.2774278411883083  0.2175885408532102  0.4364047306016193
  0.3219448321329826  0.2433915179837776  0.3455562680379030
  0.2329311992836927  0.2946331055947486  0.4364047306016193
  0.3664522450006158  0.3202174612178256  0.5090834984431578
  0.3219556030960002  0.3972620259593641  0.5090834984431578
  0.3665025435898468  0.4748895864455180  0.0730108913939270
  0.2774972854913852  0.5775185068101335  0.1456896592354655
  0.6780711988252909  0.6544901951868545  0.2001987323548261
  0.3664881678683081  0.4745980885732101  0.2910471949185425
  0.4110039554867696  0.6028113645609027  0.4364047306016193
  0.5445369754929240  0.6798559293024410  0.4364047306016193
  0.6780364740636926  0.5513511554424410  0.5090834984431578
  0.4109369126160005  0.1917126873578255  0.5817622662846963
  0.3219065078329825  0.1401796018745469  0.7089501072455953
  0.2774098659283670  0.2172241666160853  0.7089501072455953
  0.2329287978513850  0.3458018168409026  0.5817622662846963
  0.3219280549791366  0.2942687313576238  0.7089501072455953
  0.4109668345129824  0.3971891495945469  0.5635925715625184
  0.4109464854729236  0.2943416077224409  0.6544410341262347
  0.3664498435683081  0.3713861724639794  0.6544410341262347
  0.3664222954514444  0.2683928778622393  0.8543076429286722
  0.4554407259452319  0.2684657542270563  0.7997985698093116
  0.4109440840406159  0.3455103189685949  0.7997985698093116
  0.4999553154575980  0.3454374426037776  0.8543076429286722
  0.5444459840436926  0.1658368338624410  0.7271198019677729
  0.6334883354637515  0.4224820073453160  0.8543076429286722
  0.3664701926083668  0.4742337143360852  0.5635925715625184
  0.2329479435652314  0.5510596575701333  0.7271198019677729
  0.3219496021252898  0.4483578608407007  0.7089501072455953
  0.3664594164252313  0.4740150928285947  0.7271198019677729
  0.4109883816591360  0.5512782790776238  0.5635925715625184
  0.4999912383252903  0.4998180699591621  0.6362713394040568
  0.4554706478422138  0.4739422164637778  0.7816288750871339
  0.5444890783360004  0.4740150928285947  0.7271198019677729
  0.4110015540544619  0.6539800758070562  0.5817622662846963
  0.3219508002313857  0.4995994484516718  0.7997985698093116
  0.5444830773652900  0.5251109277099315  0.9269864107702106
  0.4554802206991366  0.5765711368283930  0.8543076429286722
  0.5000020092883080  0.6536885779347485  0.7997985698093116
  0.5890156421375978  0.6024469903237776  0.7089501072455953
  0.5890168402436927  0.6536885779347485  0.7997985698093116
  0.5000535112037517  0.7059504043053160  0.1275199645132877
  0.4555580674052316  0.8342365566578255  0.2183684270770039
  0.4110279040652315  0.7057317827978257  0.2910471949185425
  0.5000642821667699  0.8598209122809025  0.2910471949185425
  0.3665168864390777  0.7824848496670562  0.5090834984431578
  0.4555305192883675  0.7312432620560854  0.4182350358794414
  0.4555317173944620  0.7824848496670562  0.5090834984431578
  0.6335745569206753  0.7315347599283929  0.2001987323548261
  0.5890659407268288  0.7571191155514699  0.2728775001963646
  0.5890551645436932  0.7569004940439796  0.4364047306016193
  0.5445549231006750  0.8338721824207006  0.4909138037209799
  0.6780699954990776  0.7569004940439796  0.4364047306016193
  0.5445668973899059  0.8853323915391621  0.4182350358794414
  0.5445680954960009  0.9365739791501332  0.5090834984431578
  0.6780915426452317  0.9109896235270564  0.4364047306016193
  0.2330018140406751  0.8594565380437775  0.5635925715625184
  0.5000259578667698  0.7566089961716717  0.6544410341262347
  0.5445309745222137  0.7309517641837778  0.6362713394040568
  0.5000463069068286  0.8594565380437775  0.5635925715625184
  0.5890288145329237  0.7051487870532103  0.7271198019677729
  0.6335793269129826  0.9365011027853158  0.5635925715625184
  0.5000103840391362  0.7050759106883930  0.7816288750871339
  0.6335314297560598  0.7306602663114700  0.8543076429286722
  0.6780675940667699  0.8080692052901334  0.5817622662846963
  0.5890252478668287  0.3977721453391622  0.1275199645132877
  0.6780317040713854  0.3463848125855181  0.1456896592354655
  0.6335135150206160  0.2693402478439795  0.1456896592354655
  0.4999529468975980  0.0893023885007007  0.3455562680379030
  0.6334775921529238  0.1149596204885947  0.3637259627600808
  0.5444507869083081  0.0634994113701332  0.4364047306016193
  0.6779718326252315  0.0890837669932102  0.5090834984431578
  0.7669986378698468  0.1405439761116718  0.4364047306016193
  0.4999685207252312  0.1408354739839794  0.2183684270770039
  0.5889809502483087  0.1920041852301333  0.3637259627600808
  0.6334991392990774  0.2690487499716718  0.3637259627600808
  0.7225115688221545  0.3202174612178256  0.5090834984431578
  0.7670297578729237  0.3972620259593641  0.5090834984431578
  0.5890132735775978  0.3463119362207007  0.2001987323548261
  0.6780293026390776  0.3975535238316717  0.2910471949185425
  0.8115443473852902  0.4742337143360852  0.5635925715625184
  0.8115599212129239  0.5257667998193638  0.4364047306016193
  0.6335015407313852  0.2178800387255179  0.2183684270770039
  0.6780161302437517  0.2948517271022392  0.2728775001963646
  0.8115587231068289  0.4745252122083929  0.3455562680379030
  0.9450929412190774  0.6028113645609027  0.4364047306016193
  0.8115252016714443  0.2689758736068544  0.4182350358794414
  0.9005615797729828  0.4230650030899313  0.4182350358794414
  0.9005807254868287  0.6283228438191621  0.5635925715625184
  0.7670285597668287  0.3460204383483930  0.4182350358794414
  0.9005627778790777  0.4743065907009026  0.5090834984431578
  0.8560805116960007  0.5516426533147487  0.2910471949185425
  0.8115407754990779  0.3205089590901333  0.2910471949185425
  0.9005496054837518  0.3716047939714700  0.4909138037209799
  0.8560888864468290  0.6030299860683930  0.2728775001963646
  0.7224756459544621  0.1658368338624410  0.7271198019677729
  0.7669926368991364  0.1916398109930084  0.6362713394040568
  0.8115108259499056  0.2686843757345468  0.6362713394040568
