Cl Mn O  P 
 1.0000000000000000
    65.0000000000000000    0.0000000000000000    0.0000000000000000
     0.0000000000000000   65.0000000000000000    0.0000000000000000
     0.0000000000000000    0.0000000000000000   65.0000000000000000
 Cl  Mn  O   P  
 331 3195 6287 110
Direct
  0.4331848291744273  0.1276169117635727  0.4849287986917979
  0.5221996601298119  0.1276169117635727  0.4849287986917979
  0.6360088568979321  0.1134036761874163  0.4444631888526615
  0.6557251593540302  0.0792377869277406  0.4444388628329924
  0.6754365291636528  0.0905665282004223  0.4828604661978838
  0.6754427800823055  0.1134000522813614  0.4444691144979612
  0.1019487225371460  0.2961198134923087  0.4101744907302596
  0.1216674599640697  0.3074878634407176  0.4423935275728348
  0.0968786995915362  0.3445337465059770  0.4444691144979612
  0.1216782478942203  0.3817413966152869  0.3375255288874855
  0.1413930391559605  0.3475760759204222  0.3375029305148068
  0.1661978063221196  0.4360866686020343  0.2668924951671827
  0.1859232024959607  0.4760808497804223  0.2648241626732683
  0.1859174791253826  0.4474541647429000  0.2991115788148843
  0.1464835559410093  0.4474577886489547  0.2991056531695845
  0.1464715816517779  0.3959975795304932  0.3717844210111231
  0.1661878841078762  0.3618316902708172  0.3717600949914539
  0.1464811545087011  0.4986264998951087  0.4444631888526615
  0.1464764844448384  0.4757932985984625  0.4828532585717980
  0.1661974569647994  0.4644606106354327  0.4444388628329924
  0.1859150776930746  0.4986228759890537  0.4444691144979612
  0.2551873193219126  0.3558655431199023  0.4828830645705625
  0.2354697682540689  0.3217041691153856  0.4828532585717980
  0.2997209041140300  0.4388762550123556  0.3717600949914539
  0.3194385248423056  0.4730385203659768  0.3717903466564228
  0.4777173939467350  0.2049529743774191  0.2668924951671827
  0.4974308158313449  0.1934869464373453  0.3375029305148068
  0.4580031435656242  0.2163240944243395  0.2991056531695845
  0.5222496093617224  0.3106629790246634  0.2264025593083770
  0.4974427901205760  0.2449471555558069  0.2648241626732683
  0.4580104477909922  0.2449511022461549  0.2648169550471827
  0.5025213326163939  0.2933686591658778  0.2991056531695845
  0.5222342136203740  0.3046968318737487  0.3375255288874855
  0.4134778830186845  0.1676150396323088  0.4828532585717980
  0.3441915453651966  0.2817060412466497  0.4849287986917979
  0.4777172109286850  0.2048589430761022  0.3697147597312962
  0.5222256607832608  0.2077425607877402  0.3717600949914539
  0.4529102253482684  0.1676110929419606  0.4828604661978838
  0.5024927139740691  0.1676150396323088  0.4828532585717980
  0.5025093583271627  0.2419084500474164  0.3717844210111231
  0.4332204026847990  0.3103714811523557  0.4444388628329924
  0.3245205220771460  0.4760847964707702  0.2648169550471827
  0.3245085477879153  0.4246245873523087  0.3374957228887212
  0.3442260988557586  0.4587859613568253  0.3375255288874855
  0.3442392595040697  0.4874528464191791  0.2970359918897578
  0.5025333069056241  0.3448288682843395  0.2264268853280461
  0.5025286368417614  0.3219956669876933  0.2648169550471827
  0.5222461879096050  0.3561570409922100  0.2648467610459472
  0.5222557607665279  0.4587859613568253  0.3375255288874855
  0.5222591822186458  0.4132918993892791  0.2990813271499155
  0.5025428797625473  0.4474577886489547  0.2991056531695845
  0.5025382096986846  0.4246245873523087  0.3374957228887212
  0.3639169415390375  0.3217002224250378  0.4828604661978838
  0.3244845992094539  0.3217041691153856  0.4828532585717980
  0.4332169812326818  0.3558655431199023  0.4828830645705625
  0.4135041002287015  0.3445373704120318  0.4444631888526615
  0.4134994301648382  0.3217041691153856  0.4828532585717980
  0.3887323136172971  0.4843703169799023  0.4102042967290241
  0.3442250668005812  0.4872553798481881  0.4122500308502596
  0.3442271188755685  0.4644606106354327  0.4444388628329924
  0.3639447396038444  0.4986228759890537  0.4444691144979612
  0.4529317724944222  0.3217002224250378  0.4828604661978838
  0.4529380234130750  0.3445337465059770  0.4444691144979612
  0.6112644403171069  0.3106629790246634  0.2264025593083770
  0.5419552558007671  0.2933650352598231  0.2991115788148843
  0.5419490048821145  0.2705315111788839  0.3375029305148068
  0.5419250563036528  0.1676110929419606  0.4828604661978838
  0.5419609791713454  0.3219917202973453  0.2648241626732683
  0.5915434677971459  0.3219956669876933  0.2648169550471827
  0.6112610188649897  0.3561570409922100  0.2648467610459472
  0.6309758101267298  0.3219917202973453  0.2648241626732683
  0.5864671939328839  0.3475760759204222  0.3375029305148068
  0.6112599868098116  0.3846264594835727  0.3395712630087211
  0.5419768029469207  0.4474541647429000  0.2991115788148843
  0.7002748177651965  0.3846264594835727  0.3395712630087211
  0.7200002139390375  0.4246206406619605  0.3375029305148068
  0.5667535890302234  0.3589480725591791  0.3697147597312962
  0.5915457364287011  0.3959975795304932  0.3717844210111231
  0.6805605673840857  0.3959975795304932  0.3717844210111231
  0.7199944905684598  0.3959939556244385  0.3717903466564228
  0.3244510777740691  0.1161548305138472  0.5555320264133365
  0.2996634341001836  0.1304064981738943  0.5897963985160694
  0.3441686288419126  0.1503162045183639  0.5555618324121010
  0.2996613820251967  0.1532012673866497  0.5576075665333365
  0.3193810548284594  0.1645687635275152  0.5898266501810381
  0.4134705787933167  0.1389880318104932  0.5171419566942000
  0.4331966204456080  0.1789830895807174  0.5150722954143732
  0.5222017122047992  0.1048221425508174  0.5171176306745308
  0.5419130820144222  0.1161508838234990  0.5555392340394222
  0.5024807396848380  0.1161548305138472  0.5555320264133365
  0.5221982907526818  0.1503162045183639  0.5555618324121010
  0.5222114514009926  0.1789830895807174  0.5150722954143732
  0.7199427439251915  0.1161508838234990  0.5555392340394222
  0.7002279526634508  0.1503162045183639  0.5555618324121010
  0.7250212864210087  0.1645723874335702  0.5898207245357385
  0.6557183044144271  0.2043699786328037  0.7029651022164133
  0.2799447302117782  0.2157410986797240  0.7351782602188154
  0.2996610326678763  0.1815752094200482  0.7351539341991460
  0.3193786533961519  0.2157374747736691  0.7351841858641148
  0.4579743921225473  0.2157410986797240  0.7351782602188154
  0.4579697220586844  0.1929078973830779  0.7735683299379519
  0.4776906945786452  0.1815752094200482  0.7351539341991460
  0.4974083153069208  0.2157374747736691  0.7351841858641148
  0.4974020643882684  0.1929039506927302  0.7735755375640375
  0.6360040540333164  0.2157410986797240  0.7351782602188154
  0.6754379772176901  0.2157374747736691  0.7351841858641148
  0.0968667253023057  0.2930735373875152  0.5171478823394997
  0.2551885056809926  0.3330722190637945  0.5150722954143732
  0.2303997453084594  0.3701181021290537  0.5171478823394997
  0.3244772949840856  0.2930771612935703  0.5171419566942000
  0.3442033366363771  0.3330722190637945  0.5150722954143732
  0.3639112181684596  0.2930735373875152  0.5171478823394997
  0.5667486198263380  0.4897534683862019  0.7351539341991460
  0.7250501377925299  0.3472885247384625  0.5555320264133365
  0.7250381635032996  0.2958283156200010  0.6282107942548749
  0.6360113582586842  0.2443681065015395  0.7008895620964134
  0.7199681405576902  0.3442422486336690  0.6625054180225765
  0.7002505198294144  0.3100799832800480  0.6624751663576077
  0.7002604420436582  0.3843349616112654  0.5576075665333365
  0.7199801148469209  0.3957024577521308  0.5898266501810381
  0.3886854364801840  0.2842041297846635  0.8078327020406846
  0.3689644639602228  0.2955368177476933  0.8462470977794903
  0.3886820150280662  0.3296981917522100  0.8462769037782548
  0.4084030572084597  0.3183663951382845  0.8078629537056534
  0.3886809829728890  0.3581676102435731  0.9210014057410287
  0.4528934481944222  0.2184883063158070  0.8462543054055759
  0.4776872731265279  0.2270692713875947  0.7735981359367161
  0.4579719906902396  0.2669098099258778  0.8805357959018921
  0.4776862410713503  0.2555386898789574  0.8483226378994904
  0.4331882297896051  0.3552825473752869  0.9189556716197931
  0.0772021210805815  0.6413445093312651  0.4122500308502596
  0.0969275172544223  0.6813386905096530  0.4101816983563452
  0.0969217938838441  0.6527120054721307  0.4444691144979612
  0.1910042463525308  0.6554667837046164  0.5555320264133365
  0.1909969421271626  0.6268397758828008  0.5898207245357385
  0.2107111925082736  0.6154686558358805  0.5576075665333365
  0.2107229837794539  0.6668348336530253  0.5877510632559118
  0.2304308653115365  0.6268361519767458  0.5898266501810381
  0.2304246143928837  0.6040026278958069  0.6282180018809608
  0.2997308263282736  0.5131312333435727  0.2668924951671827
  0.3442380731449897  0.5102461704752870  0.2648467610459472
  0.3194504991315363  0.5244987294844383  0.2991115788148843
  0.2997510040972972  0.6899196555814407  0.3375255288874855
  0.2800334530294540  0.6557582815769241  0.3374957228887212
  0.3194657953590374  0.6557543348865761  0.3375029305148068
  0.3194720462776902  0.6785878589675153  0.2991115788148843
  0.2997150812296048  0.5355390282260561  0.5555618324121010
  0.3194361234099981  0.5242072316121306  0.5171478823394997
  0.3194298724913453  0.5013737075311915  0.5555392340394222
  0.2799975301617615  0.5013776542215395  0.5555320264133365
  0.3690385783271626  0.6782999850012625  0.5171419566942000
  0.3690339082632997  0.6554667837046164  0.5555320264133365
  0.4580271920725304  0.5013776542215395  0.5555320264133365
  0.4777447431403739  0.5355390282260561  0.5555618324121010
  0.4332395483986454  0.5156293218815865  0.5897963985160694
  0.4777459294994541  0.5127457041699481  0.5877510632559118
  0.3887548807832607  0.6441340957415865  0.5171176306745308
  0.3887514593311432  0.6896281577091331  0.5555618324121010
  0.4084725015115365  0.6782963610952075  0.5171478823394997
  0.3442845888894145  0.7729303674738943  0.2264025593083770
  0.3639959586990376  0.7842591087465761  0.2648241626732683
  0.3245636163694537  0.7842630554369241  0.2648169550471827
  0.3442811674372973  0.8184244294414409  0.2648467610459472
  0.3442821874571068  0.8240990787200481  0.3717600949914539
  0.3442801353821202  0.8468938479328035  0.3395712630087211
  0.3639998081853824  0.8582613440736693  0.3717903466564228
  0.3887885685579160  0.8212154610084099  0.3697147597312962
  0.3888003765078760  0.9011436434615865  0.3717600949914539
  0.4332696483819125  0.7666727224506714  0.5555618324121010
  0.4777772325205816  0.7695577853189575  0.5576075665333365
  0.4529844396436532  0.7325074017558070  0.5555392340394222
  0.4332708347409926  0.7438793983945636  0.5877510632559118
  0.5667739498172971  0.5358305260983639  0.3375255288874855
  0.5864887410790378  0.5016652054034991  0.3375029305148068
  0.5667751361763773  0.5130372020422560  0.3697147597312962
  0.6112815339559656  0.5387155889666496  0.3395712630087211
  0.5915672835748550  0.5500867090135702  0.3717844210111231
  0.6558257236601840  0.6958858027323557  0.2264025593083770
  0.7003321047609927  0.6930021850207175  0.2243572240482194
  0.5025334068340691  0.5269620098446163  0.6282107942548749
  0.6557755914102232  0.5127457041699481  0.5877510632559118
  0.6557744050511428  0.5355390282260561  0.5555618324121010
  0.6754891963128837  0.5013737075311915  0.5555392340394222
  0.6805677388087011  0.5497952111412625  0.5898207245357385
  0.7002819891898121  0.5384240910943421  0.5576075665333365
  0.5668324398509531  0.8499749322154326  0.2264025593083770
  0.6755433443884595  0.7300480680859769  0.2264328109733457
  0.5223073958605813  0.8980625591789575  0.4849287986917979
  0.5420327920344226  0.9380567403573454  0.4828604661978838
  0.5026004497048383  0.9380606870476934  0.4828532585717980
  0.5025765011263766  0.8351402688107702  0.6282107942548749
  0.5420270686638442  0.9094300553198231  0.5171478823394997
  0.2107110094902232  0.6153746245345636  0.6604298310974501
  0.2552194593447992  0.6182582422462020  0.6624751663576077
  0.2552174072698123  0.6410530114589573  0.6302863343748750
  0.2355031568887013  0.6524241315058777  0.6624994923772769
  0.2107098231311430  0.6381679485906716  0.6282406002536393
  0.4777457631601841  0.5412136775046633  0.6624751663576077
  0.5222521442609929  0.5383300597930252  0.6604298310974501
  0.5222509579019124  0.5611233838491331  0.6282406002536393
  0.4974633838884597  0.5753759428582846  0.6625054180225765
  0.5470276473063768  0.5010861563492317  0.7735683299379519
  0.5470491944525306  0.6551752858323087  0.7735683299379519
  0.5419729205882686  0.6807556947650378  0.8462543054055759
  0.5025405782586846  0.6807596414553856  0.8462470977794903
  0.5222594987036583  0.6922217227051114  0.7756438700579519
  0.5419791715069210  0.7035892188459767  0.8078629537056534
  0.5419671972176905  0.6521290097275153  0.8805417215471918
  0.5222593156856082  0.6921276914037945  0.8784661346220656
  0.5864662405546133  0.5239157337398229  0.7351841858641148
  0.5864599896359607  0.5010822096588837  0.7735755375640375
  0.5864935110713453  0.7066315482604222  0.7008967697224990
  0.6112883560232608  0.7208871626108174  0.7351539341991460
  0.5667451983742207  0.5352475303537485  0.7735981359367161
  0.5667679318794543  0.6665433357807173  0.8057873667805271
  0.6557825964955686  0.6950113091154326  0.8805114698822230
  0.5470707415986847  0.8092644153153856  0.7735683299379519
  0.5222952385533004  0.8465083187591789  0.6604298310974501
  0.4777868053775046  0.8721867056835729  0.6302863343748750
  0.4975064781807673  0.8835542018244384  0.6625054180225765
  0.4332542406051967  0.7948506430697266  0.8483226378994904
  0.5222830979247994  0.8235160829754324  0.8078327020406846
  0.5222810458498124  0.8463108521881881  0.7756438700579519
  0.5667787198096050  0.7407968689552871  0.7009193680951779
  0.6112863039482738  0.7436819318235728  0.7029651022164133
  0.5915720535671627  0.7550530518704932  0.7351782602188154
  0.5667537391759661  0.6663458692097266  0.9210014057410287
  0.7447375888771069  0.1304064981738943  0.5897963985160694
  0.7892677522171067  0.2589112720338943  0.5171176306745308
  0.7695514497610091  0.2930771612935703  0.5171419566942000
  0.7447581160034510  0.2788209783783639  0.4828830645705625
  0.7892657001421198  0.2817060412466497  0.4849287986917979
  0.7644729072651912  0.2446556576834991  0.4828604661978838
  0.7447355368021192  0.1532012673866497  0.5576075665333365
  0.7892533764955680  0.2586197741615866  0.7351539341991460
  0.8089709972238439  0.2927820395152077  0.7351841858641148
  0.7695324039756075  0.2699524621246165  0.7735683299379519
  0.7892906807757588  0.3561570409922100  0.2648467610459472
  0.8140840145333169  0.3704132239074161  0.2991056531695845
  0.8338003169894146  0.3362473346477405  0.2990813271499155
  0.8337982649144273  0.3590421038604957  0.2668924951671827
  0.8141008916156077  0.5016691520938471  0.3374957228887212
  0.8140889173263768  0.4502089429753854  0.4101744907302596
  0.7448036117280664  0.5358305260983639  0.3375255288874855
  0.7645184029898071  0.5016652054034991  0.3375029305148068
  0.7448047980871466  0.5130372020422560  0.3697147597312962
  0.7695969454856245  0.5500867090135702  0.3717844210111231
  0.8090308686699981  0.5500830851075151  0.3717903466564228
  0.8338064683942203  0.4843703169799023  0.4102042967290241
  0.8338076547533004  0.4615769929237943  0.4423935275728348
  0.8338184426834512  0.5358305260983639  0.3375255288874855
  0.8338196290425314  0.5130372020422560  0.3697147597312962
  0.9030917739925306  0.3987487338569244  0.4828532585717980
  0.7447557145711432  0.3299896896245177  0.6282406002536393
  0.7447569009302234  0.3071963655684097  0.6604298310974501
  0.7447688752194539  0.3586565746868712  0.5877510632559118
  0.7893012736524921  0.4644606106354327  0.4444388628329924
  0.8585831577986845  0.4243330894800010  0.5555320264133365
  0.8535131348530749  0.4727470224936689  0.5898266501810381
  0.8337934620498113  0.4613795263528035  0.5576075665333365
  0.8337955141247996  0.4385847571400481  0.5897963985160694
  0.9227987201482729  0.3587506059881880  0.4849287986917979
  0.9425241163221149  0.3987447871665762  0.4828604661978838
  0.9425360906113454  0.4502049962850377  0.4101816983563452
  0.9228212993496047  0.4843703169799023  0.4102042967290241
  0.9228224857086853  0.4615769929237943  0.4423935275728348
  0.9476146331071628  0.4986264998951087  0.4444631888526615
  0.9228105114194544  0.4101167838053328  0.5150722954143732
  0.9425183929515365  0.3701181021290537  0.5171478823394997
  0.9228069236280664  0.4840788191075946  0.6282406002536393
  0.9228081099871466  0.4612854950514866  0.6604298310974501
  0.8337813047425309  0.4098252859330249  0.7331085989389885
  0.8140625673156077  0.3984572359846165  0.7008895620964134
  0.7892749236417221  0.4127089036446635  0.7351539341991460
  0.7892499550434511  0.3041138361291331  0.7735981359367161
  0.8089925443699976  0.4468711689982846  0.7351841858641148
  0.7892728715667358  0.4355036728574191  0.7029651022164133
  0.7695898739894530  0.5784222189630778  0.5555320264133365
  0.7448001782405811  0.6154686558358805  0.5576075665333365
  0.7448022303155689  0.5926738866231250  0.5897963985160694
  0.7893086114163776  0.5897902689114867  0.5877510632559118
  0.8535523796590379  0.7069230461327298  0.4828604661978838
  0.8338387747563774  0.7182950427714867  0.5150722954143732
  0.8783451725359656  0.7439734296958805  0.4849287986917979
  0.8586309221548557  0.7553445497428011  0.5171419566942000
  0.7645198510438442  0.6268361519767458  0.5898266501810381
  0.8783113017432610  0.5667980331277405  0.7351539341991460
  0.8783092496682742  0.5895928023404959  0.7029651022164133
  0.9030989454171461  0.5525463654676934  0.7008895620964134
  0.5223191871317622  0.9494287369961023  0.5150722954143732
  0.3193724024774991  0.1929039506927302  0.7735755375640375
  0.2107204488801839  0.4391677528846635  0.1537237914668385
  0.2304318186898067  0.4504964941573453  0.1921453948317297
  0.2304380696084593  0.4733300182382845  0.1537540431318070
  0.5025645597094537  0.4763762943430782  0.0467806515225673
  0.5915720864394705  0.4477492865212624  0.0810693496449690
  0.6112883888955686  0.4135833972615866  0.0810450236253001
  0.6310060096238440  0.4477456626152077  0.0810752752902689
  0.5915674163756076  0.4249160852246162  0.1194594193641056
  0.6112849674434507  0.4590774592291332  0.1194892253628699
  0.7695897740610091  0.3962890774028009  0.1537481174865073
  0.8090174463267300  0.3734519294158068  0.1921453948317297
  0.7893026550649898  0.4076172501106715  0.1921679932044087
  0.2355223354748550  0.5503782068858779  0.1537481174865073
  0.2552386379309531  0.5162123176262019  0.1537237914668385
  0.2749500077405759  0.5275410588988837  0.1921453948317297
  0.2749562586592285  0.5503745829798229  0.1537540431318070
  0.2552352164788357  0.5617063795937485  0.1921679932044087
  0.2749778058053828  0.7044637124629001  0.1537540431318070
  0.3887620850801835  0.4906279620031250  0.0810450236253001
  0.3690457826240854  0.5247938512628010  0.0810693496449690
  0.4777748639605809  0.5134227312158804  0.0488561916425670
  0.4084734548898067  0.5019567032758069  0.1194666269901914
  0.3690411125602225  0.5019606499661549  0.1194594193641056
  0.3887586636280665  0.5361220239706715  0.1194892253628699
  0.5222832971363774  0.4877443442914868  0.0789996883651423
  0.5222821107772972  0.5105376683475944  0.0468104575213315
  0.6310213058513451  0.5790012680173454  0.1194666269901914
  0.6113077009486849  0.5903732646561021  0.1516784562066809
  0.6805918201879151  0.5275450055892317  0.1921381872056442
  0.7200241625174993  0.5275410588988837  0.1921453948317297
  0.7200304134361524  0.5503745829798229  0.1537540431318070
  0.7003127927078765  0.5162123176262019  0.1537237914668385
  0.7003093712557587  0.5617063795937485  0.1921679932044087
  0.6113065145896048  0.6131665887122099  0.1194892253628699
  0.6360998483471625  0.6274227716274164  0.1537481174865073
  0.6558140987282732  0.6160516515804961  0.1215349594841058
  0.6806133673340692  0.6816341350723086  0.1921381872056442
  0.5420375948990376  0.8357193178650376  0.1921453948317297
  0.6558236715851966  0.7186805719451114  0.1942137273256442
  0.7003309184019127  0.7157955090768257  0.1921679932044087
  0.0994248885600003  0.3717867240123077  0.3546424643169232
  0.0994476564735010  0.5002908653151420  0.2819647112890201
  0.0771666311301087  0.3588515010720243  0.4273229953453694
  0.0994237078950396  0.3973704470782189  0.4273222469720970
  0.0549270659904240  0.4744150118197575  0.4273222469720970
  0.0994356821842700  0.4488306561966803  0.3546434791305585
  0.0994344614169233  0.4744156443769231  0.4273212321584616
  0.1884301466584619  0.2691578036476924  0.2819636964753848
  0.1661838635178010  0.3076827898258706  0.2819654596622925
  0.1884277452261542  0.3203265148938462  0.4273212321584616
  0.2774425761815385  0.3203265148938462  0.4273212321584616
  0.1884529145719623  0.3976619449505266  0.2092859434474816
  0.1884409402827316  0.3462017358320651  0.2819647112890201
  0.1439335047538468  0.3462023683892308  0.2819636964753848
  0.1216872216131857  0.3847273545674090  0.2819654596622925
  0.1216792485028031  0.3589945945528714  0.3183052941187436
  0.1884397195153851  0.3717867240123077  0.3546424643169232
  0.2106940794581878  0.3589945945528714  0.3183052941187436
  0.2107020525685702  0.3847273545674090  0.2819654596622925
  0.1439562726673470  0.4747065096920652  0.2092859434474816
  0.1662094118428032  0.4874993684128714  0.2456265262772051
  0.1439442983781163  0.4232463005736035  0.2819647112890201
  0.1661974375535723  0.4360391592944100  0.3183052941187436
  0.1884516938046158  0.4232469331307694  0.2819636964753848
  0.1439430776107698  0.4488312887538463  0.3546424643169232
  0.1884624874288855  0.5002908653151420  0.2819647112890201
  0.2997208847028031  0.4104548036713331  0.2456265262772051
  0.2774545504707694  0.3717867240123077  0.3546424643169232
  0.2997089104135724  0.3589945945528714  0.3183052941187436
  0.2107140268578012  0.4361875636858704  0.2092866918207541
  0.2774665247600004  0.4232469331307694  0.2819636964753848
  0.2552122685089571  0.4360391592944100  0.3183052941187436
  0.2552202416193395  0.4617719193089473  0.2819654596622925
  0.2774773183842701  0.5002908653151420  0.2819647112890201
  0.1439311033215386  0.3973710796353845  0.4273212321584616
  0.1216752473239550  0.3332671454489475  0.3546442275038310
  0.1661854632643416  0.3845789501759485  0.3909840619602820
  0.1661814620854931  0.3588515010720243  0.4273229953453694
  0.2106916780258803  0.4101633057990254  0.4636628298018206
  0.1884385388504241  0.3973704470782189  0.4273222469720970
  0.1216888213597263  0.4616235149174869  0.3909840619602820
  0.1661934363747242  0.4103117101904858  0.3546442275038310
  0.1216967944701089  0.4873562749320242  0.3546442275038310
  0.1884505131396548  0.4488306561966803  0.3546434791305585
  0.1884492923723081  0.4744156443769231  0.4273212321584616
  0.1439406761784618  0.5000000000000000  0.5000000000000000
  0.1884481117073471  0.4999993674428344  0.5000010148136353
  0.1884373180830774  0.4229554352584617  0.5000000000000000
  0.2106996511362627  0.4358960658135627  0.4273229953453694
  0.2329459342769236  0.3973710796353845  0.4273212321584616
  0.3219607652323079  0.3973710796353845  0.4273212321584616
  0.2551962930408778  0.3588515010720243  0.4273229953453694
  0.3219487909430770  0.3459108705169231  0.5000000000000000
  0.2107116254254934  0.4873562749320242  0.3546442275038310
  0.2997264563808780  0.4873562749320242  0.3546442275038310
  0.2774653440950394  0.4488306561966803  0.3546434791305585
  0.2997184832704953  0.4616235149174869  0.3909840619602820
  0.2329567279011933  0.4744150118197575  0.4273222469720970
  0.2329555071338466  0.5000000000000000  0.5000000000000000
  0.2329447536119624  0.4229548027012960  0.5000010148136353
  0.2552098670766496  0.4872078705405637  0.4636628298018206
  0.3219595845673470  0.4229548027012960  0.5000010148136353
  0.2774521490384619  0.4229554352584617  0.5000000000000000
  0.2774629426627316  0.4999993674428344  0.5000010148136353
  0.3219703380892311  0.5000000000000000  0.5000000000000000
  0.2997144820916471  0.4358960658135627  0.4273229953453694
  0.3219715588565783  0.4744150118197575  0.4273222469720970
  0.3664598085692310  0.2691578036476924  0.2819636964753848
  0.3442135254285704  0.3076827898258706  0.2819654596622925
  0.4332283563839551  0.3076827898258706  0.2819654596622925
  0.4109660233307693  0.2947421592707693  0.3546424643169232
  0.3442254997178013  0.3591429989443320  0.2092866918207541
  0.3664825764827316  0.3976619449505266  0.2092859434474816
  0.4109792183873470  0.3206173802089882  0.2092859434474816
  0.3664706021935007  0.3462017358320651  0.2819647112890201
  0.4109768169550395  0.3717860914551418  0.3546434791305585
  0.3442270994643416  0.4360391592944100  0.3183052941187436
  0.4554974074381164  0.3976619449505266  0.2092859434474816
  0.4332403306731860  0.3591429989443320  0.2092866918207541
  0.5222551616285703  0.3591429989443320  0.2092866918207541
  0.4554854331488855  0.3462017358320651  0.2819647112890201
  0.4777385723243417  0.3589945945528714  0.3183052941187436
  0.4777505466135724  0.4104548036713331  0.2456265262772051
  0.4554961866707697  0.4232469331307694  0.2819636964753848
  0.4332499035301088  0.4617719193089473  0.2819654596622925
  0.4554950060058087  0.4488306561966803  0.3546434791305585
  0.4555069802950392  0.5002908653151420  0.2819647112890201
  0.3442151251751109  0.3845789501759485  0.3909840619602820
  0.4332259549516474  0.3588515010720243  0.4273229953453694
  0.3887333142258801  0.4616235149174869  0.3909840619602820
  0.3887213399366494  0.4101633057990254  0.4636628298018206
  0.3664669799938465  0.4229554352584617  0.5000000000000000
  0.4109851690446157  0.5000000000000000  0.5000000000000000
  0.3664777736181162  0.4999993674428344  0.5000010148136353
  0.4999904271430773  0.3973710796353845  0.4273212321584616
  0.4999784528538463  0.3459108705169231  0.5000000000000000
  0.4332379292408781  0.4103117101904858  0.3546442275038310
  0.5222527601962627  0.4103117101904858  0.3546442275038310
  0.5000012207673472  0.4744150118197575  0.4273222469720970
  0.4332395289874186  0.4872078705405637  0.4636628298018206
  0.5000000000000000  0.5000000000000000  0.5000000000000000
  0.4999892464781163  0.4229548027012960  0.5000010148136353
  0.5667518035331857  0.2820984342027937  0.2092866918207541
  0.5890088802981163  0.3206173802089882  0.2092859434474816
  0.6335043014353852  0.2691578036476924  0.2819636964753848
  0.5444894704800005  0.2691578036476924  0.2819636964753848
  0.5889956852415387  0.2947421592707693  0.3546424643169232
  0.6557666344885705  0.2820984342027937  0.2092866918207541
  0.6780237112535010  0.3206173802089882  0.2092859434474816
  0.7225191323907697  0.2691578036476924  0.2819636964753848
  0.6780105161969234  0.2947421592707693  0.3546424643169232
  0.5444870690476926  0.3203265148938462  0.4273212321584616
  0.6335019000030772  0.3203265148938462  0.4273212321584616
  0.7225167309584619  0.3203265148938462  0.4273212321584616
  0.5445122383935012  0.3976619449505266  0.2092859434474816
  0.5667653775689572  0.4104548036713331  0.2456265262772051
  0.6112699925839551  0.3591429989443320  0.2092866918207541
  0.5445002641042703  0.3462017358320651  0.2819647112890201
  0.5667613763901089  0.3847273545674090  0.2819654596622925
  0.5667534032797265  0.3589945945528714  0.3183052941187436
  0.5444990433369236  0.3717867240123077  0.3546424643169232
  0.5445110176261545  0.4232469331307694  0.2819636964753848
  0.5667733506793398  0.4361875636858704  0.2092866918207541
  0.5445218112504238  0.5002908653151420  0.2819647112890201
  0.5890172323876925  0.4488312887538463  0.3546424643169232
  0.5890184531550395  0.4232463005736035  0.2819647112890201
  0.6112715923304957  0.4360391592944100  0.3183052941187436
  0.6780224904861544  0.3462023683892308  0.2819636964753848
  0.6335270693488855  0.3976619449505266  0.2092859434474816
  0.7002768504289570  0.3334102389297945  0.2456265262772051
  0.7225419003042703  0.3976619449505266  0.2092859434474816
  0.7002848235393400  0.3591429989443320  0.2092866918207541
  0.6335138742923085  0.3717867240123077  0.3546424643169232
  0.6335150950596549  0.3462017358320651  0.2819647112890201
  0.6557682342351108  0.3589945945528714  0.3183052941187436
  0.6557762073454935  0.3847273545674090  0.2819654596622925
  0.6557802085243422  0.4104548036713331  0.2456265262772051
  0.6780452583996548  0.4747065096920652  0.2092859434474816
  0.6557881816347242  0.4361875636858704  0.2092866918207541
  0.6335258485815390  0.4232469331307694  0.2819636964753848
  0.6780332841104241  0.4232463005736035  0.2819647112890201
  0.7002864232858801  0.4360391592944100  0.3183052941187436
  0.6780320633430773  0.4488312887538463  0.3546424643169232
  0.7225514731611933  0.5002908653151420  0.2819647112890201
  0.6335366422058087  0.5002908653151420  0.2819647112890201
  0.5444978626719628  0.3973704470782189  0.4273222469720970
  0.5667494021008780  0.3332671454489475  0.3546442275038310
  0.6112556168624163  0.3588515010720243  0.4273229953453694
  0.6112596180412648  0.3845789501759485  0.3909840619602820
  0.5667510018474186  0.4101633057990254  0.4636628298018206
  0.5889932838092311  0.3459108705169231  0.5000000000000000
  0.6112675911516474  0.4103117101904858  0.3546442275038310
  0.5445098369611935  0.4488306561966803  0.3546434791305585
  0.5667629761366495  0.4616235149174869  0.3909840619602820
  0.5667709492470321  0.4873562749320242  0.3546442275038310
  0.5890160517227320  0.4744150118197575  0.4273222469720970
  0.6112691908981880  0.4872078705405637  0.4636628298018206
  0.6557642330562627  0.3332671454489475  0.3546442275038310
  0.6780200890538464  0.3973710796353845  0.4273212321584616
  0.7002744489966494  0.3845789501759485  0.3909840619602820
  0.7002704478178006  0.3588515010720243  0.4273229953453694
  0.7225275245827318  0.3973704470782189  0.4273222469720970
  0.6335234471492308  0.4744156443769231  0.4273212321584616
  0.6335246679165780  0.4488306561966803  0.3546434791305585
  0.6557778070920338  0.4616235149174869  0.3909840619602820
  0.6557857802024166  0.4873562749320242  0.3546442275038310
  0.7225382781046156  0.4744156443769231  0.4273212321584616
  0.7225394988719626  0.4488306561966803  0.3546434791305585
  0.6557738059131857  0.4358960658135627  0.4273229953453694
  0.6335222664842702  0.4999993674428344  0.5000010148136353
  0.6335114728600003  0.4229554352584617  0.5000000000000000
  0.6780308826781165  0.4744150118197575  0.4273222469720970
  0.7002840218535727  0.4872078705405637  0.4636628298018206
  0.7225263038153849  0.4229554352584617  0.5000000000000000
  0.7225370974396550  0.4999993674428344  0.5000010148136353
  0.3219140888427316  0.1659452549812960  0.6453585504967123
  0.3441672280181879  0.1787381137021023  0.6816991333264358
  0.4109289197981160  0.1659452549812960  0.6453585504967123
  0.3886718430331856  0.1274263089751013  0.6453592988699848
  0.4109276990307690  0.1915302431615385  0.7180363035246153
  0.4331820589735726  0.1787381137021023  0.6816991333264358
  0.5444403926581158  0.0889006902397576  0.6453585504967123
  0.5444391718907694  0.1144856784200001  0.7180363035246153
  0.5666935318335721  0.1016935489605638  0.6816991333264358
  0.5222048630393394  0.2044708737166397  0.6453592988699848
  0.4999437507535008  0.1659452549812960  0.6453585504967123
  0.5221968899289570  0.1787381137021023  0.6816991333264358
  0.5889585817088852  0.1659452549812960  0.6453585504967123
  0.6334552236135007  0.0889006902397576  0.6453585504967123
  0.6112196939947240  0.2044708737166397  0.6453592988699848
  0.6112117208843413  0.1787381137021023  0.6816991333264358
  0.7002345249501085  0.2044708737166397  0.6453592988699848
  0.7002265518397260  0.1787381137021023  0.6816991333264358
  0.6779721918969231  0.1915302431615385  0.7180363035246153
  0.4109169455088853  0.1144850458628345  0.7180373183382507
  0.4331700846843415  0.1272779045836407  0.7543779011679742
  0.3441632268393396  0.1530106645981782  0.7180380667115233
  0.3886694416008781  0.1785950202212551  0.7907168345530617
  0.4999317764642698  0.1144850458628345  0.7180373183382507
  0.5221849156397258  0.1272779045836407  0.7543779011679742
  0.5221928887501087  0.1530106645981782  0.7180380667115233
  0.5444499655150391  0.1915296106043729  0.7180373183382507
  0.5889466074196544  0.1144850458628345  0.7180373183382507
  0.6112077197054933  0.1530106645981782  0.7180380667115233
  0.7002225506608778  0.1530106645981782  0.7180380667115233
  0.7224796274258084  0.1915296106043729  0.7180373183382507
  0.6557139344670317  0.1785950202212551  0.7907168345530617
  0.0771642296978012  0.4100202123181781  0.5726805310284465
  0.1216728458916473  0.3844358566951015  0.5000017631869079
  0.1661790606531858  0.4100202123181781  0.5726805310284465
  0.1661670863639551  0.3585600031997166  0.6453592988699848
  0.0771762039870321  0.4614804214366396  0.5000017631869079
  0.1661910349424165  0.4614804214366396  0.5000017631869079
  0.1661806603997261  0.4869163726682560  0.6816991333264358
  0.2106637282685700  0.2815154384581781  0.6453592988699848
  0.2551739442089574  0.3328272431851793  0.6816991333264358
  0.2329208050335006  0.3200343844643728  0.6453585504967123
  0.2551699430301089  0.3070997940812552  0.7180380667115233
  0.2329195842661541  0.3456193726446154  0.7180363035246153
  0.2106876768470320  0.3844358566951015  0.5000017631869079
  0.2552058658978013  0.4614804214366396  0.5000017631869079
  0.2551978927874184  0.4357476614221023  0.5363415976433590
  0.1884253437938465  0.3714952261400000  0.5726787678415386
  0.1884361374181162  0.4485391583243729  0.5726797826551739
  0.2106892765935726  0.4613320170451790  0.6090203654848974
  0.1884349166507694  0.4741241465046154  0.6453575356830770
  0.2329315585553847  0.3970795817630768  0.6453575356830770
  0.2329423521796547  0.4741235139474498  0.6453585504967123
  0.2106852754147243  0.4356045679412550  0.6453592988699848
  0.2551954913551111  0.4869163726682560  0.6816991333264358
  0.2106733011254934  0.3841443588227936  0.7180380667115233
  0.2329303778904240  0.4226633048289881  0.7180373183382507
  0.2551835170658802  0.4354561635497950  0.7543779011679742
  0.1884337359858084  0.4997078695705267  0.7180373183382507
  0.2996705861135723  0.2557826784436408  0.6816991333264358
  0.2774174469381161  0.2429898197228345  0.6453585504967123
  0.2774162261707696  0.2685748079030770  0.7180363035246153
  0.3219236616996546  0.2685741753459112  0.7180373183382507
  0.2996785592239550  0.2815154384581781  0.6453592988699848
  0.3219344152215384  0.3456193726446154  0.7180363035246153
  0.3441768008751108  0.2813670340667178  0.7543779011679742
  0.3886933901793397  0.2815154384581781  0.6453592988699848
  0.3886814158901088  0.2300552293397166  0.7180380667115233
  0.4331916318304952  0.2813670340667178  0.7543779011679742
  0.3441887751643415  0.3328272431851793  0.6816991333264358
  0.3219583638000000  0.4485397908815386  0.5726787678415386
  0.2774509683735009  0.4485391583243729  0.5726797826551739
  0.2997120806593397  0.4870647770597167  0.5726805310284465
  0.2997041075489569  0.4613320170451790  0.6090203654848974
  0.3442127237428029  0.4357476614221023  0.5363415976433590
  0.3442206968531856  0.4614804214366396  0.5000017631869079
  0.4109731947553848  0.4485397908815386  0.5726787678415386
  0.3887189385043415  0.4613320170451790  0.6090203654848974
  0.2997001063701089  0.4356045679412550  0.6453592988699848
  0.3219571831350395  0.4741235139474498  0.6453585504967123
  0.2774497476061542  0.4741241465046154  0.6453575356830770
  0.3664538250396546  0.3970789492059112  0.6453585504967123
  0.3887149373254934  0.4356045679412550  0.6453592988699848
  0.4109720140904238  0.4741235139474498  0.6453585504967123
  0.3442103223104956  0.4869163726682560  0.6816991333264358
  0.3219452088458083  0.4226633048289881  0.7180373183382507
  0.2996881320808781  0.3841443588227936  0.7180380667115233
  0.2774377733169235  0.4226639373861542  0.7180363035246153
  0.3441983480212645  0.4354561635497950  0.7543779011679742
  0.2774485669411932  0.4997078695705267  0.7180373183382507
  0.3664526042723080  0.4226639373861542  0.7180363035246153
  0.4109600398011931  0.4226633048289881  0.7180373183382507
  0.3887029630362627  0.3841443588227936  0.7180380667115233
  0.3442063211316473  0.4611889235643319  0.7180380667115233
  0.4109707933230777  0.4997085021276924  0.7180363035246153
  0.4777082211347243  0.2815154384581781  0.6453592988699848
  0.4554458880815382  0.2685748079030770  0.7180363035246153
  0.4332036061197263  0.3328272431851793  0.6816991333264358
  0.4554566817058086  0.3456187400874497  0.7180373183382507
  0.5444607190369233  0.2685748079030770  0.7180363035246153
  0.5222264101854935  0.3585600031997166  0.6453592988699848
  0.5444715126611936  0.3456187400874497  0.7180373183382507
  0.5222144358962628  0.3070997940812552  0.7180380667115233
  0.5667246518366494  0.3584115988082562  0.7543779011679742
  0.4777337694597262  0.4613320170451790  0.6090203654848974
  0.5222383844747244  0.4100202123181781  0.5726805310284465
  0.5222503587639551  0.4614804214366396  0.5000017631869079
  0.4554686559950393  0.3970789492059112  0.6453585504967123
  0.4777297682808782  0.4356045679412550  0.6453592988699848
  0.4554794095169233  0.4741241465046154  0.6453575356830770
  0.5667366261258803  0.4098718079267177  0.6816991333264358
  0.5444834869504237  0.3970789492059112  0.6453585504967123
  0.5667445992362627  0.4356045679412550  0.6453592988699848
  0.4999748707565779  0.4226633048289881  0.7180373183382507
  0.4332131789766493  0.4354561635497950  0.7543779011679742
  0.4332211520870322  0.4611889235643319  0.7180380667115233
  0.5444822661830772  0.4226639373861542  0.7180363035246153
  0.5222280099320341  0.4354561635497950  0.7543779011679742
  0.5444930598073471  0.4997078695705267  0.7180373183382507
  0.4999856242784618  0.4997085021276924  0.7180363035246153
  0.6557299099351109  0.2557826784436408  0.6816991333264358
  0.6334755499923076  0.2685748079030770  0.7180363035246153
  0.6112412411408779  0.3585600031997166  0.6453592988699848
  0.5889801288550390  0.3200343844643728  0.6453585504967123
  0.7224916017150391  0.2429898197228345  0.6453585504967123
  0.7224903809476924  0.2685748079030770  0.7180363035246153
  0.7002361246966491  0.2813670340667178  0.7543779011679742
  0.6779829855211931  0.2685741753459112  0.7180373183382507
  0.7002560720962624  0.3585600031997166  0.6453592988699848
  0.7225011745719625  0.3456187400874497  0.7180373183382507
  0.7002440978070317  0.3070997940812552  0.7180380667115233
  0.6557394827920340  0.3584115988082562  0.7543779011679742
  0.6557618316239547  0.3844358566951015  0.5000017631869079
  0.6112532154301090  0.4100202123181781  0.5726805310284465
  0.5890028566661539  0.4485397908815386  0.5726787678415386
  0.6335102921950394  0.4485391583243729  0.5726797826551739
  0.7002680463854936  0.4100202123181781  0.5726805310284465
  0.7002720475643416  0.4357476614221023  0.5363415976433590
  0.6780176876215387  0.4485397908815386  0.5726787678415386
  0.7225251231504242  0.4485391583243729  0.5726797826551739
  0.6557714044808785  0.4870647770597167  0.5726805310284465
  0.6557634313704955  0.4613320170451790  0.6090203654848974
  0.6335090714276926  0.4741241465046154  0.6453575356830770
  0.6112548151766497  0.4869163726682560  0.6816991333264358
  0.6557514570812646  0.4098718079267177  0.6816991333264358
  0.6780057133323080  0.3970795817630768  0.6453575356830770
  0.7225131488611930  0.3970789492059112  0.6453585504967123
  0.6780165069565777  0.4741235139474498  0.6453585504967123
  0.7225239023830772  0.4741241465046154  0.6453575356830770
  0.7002696461320345  0.4869163726682560  0.6816991333264358
  0.6334970971384615  0.4226639373861542  0.7180363035246153
  0.6335078907627318  0.4997078695705267  0.7180373183382507
  0.6780045326673465  0.4226633048289881  0.7180373183382507
  0.7002576718428034  0.4354561635497950  0.7543779011679742
  0.7002656449531860  0.4611889235643319  0.7180380667115233
  0.3664298764611931  0.2941585309689883  0.7907160861797893
  0.3219224409323079  0.2941591635261538  0.7907150713661539
  0.3664190828369234  0.2171145987846151  0.7907150713661539
  0.3441727996962626  0.2556395849627935  0.7907168345530617
  0.3664286556938466  0.3197435191492308  0.8633938392076923
  0.4109252975984615  0.2426989544076923  0.8633938392076923
  0.3886790144578011  0.2812239405858707  0.8633956023946001
  0.4109372718876927  0.2941591635261538  0.7907150713661539
  0.4109360912227317  0.3197428865920651  0.8633948540213277
  0.2996761577916472  0.3326841497043323  0.7907168345530617
  0.3219332345565778  0.3712030957105268  0.7907160861797893
  0.3441863737320338  0.3839959544313331  0.8270566690095128
  0.3886909887470320  0.3326841497043323  0.7907168345530617
  0.3664406299830771  0.3712037282676925  0.7907150713661539
  0.3441823725531857  0.3582685053274089  0.8633956023946001
  0.2106828739824166  0.4867732791874090  0.7907168345530617
  0.3219439880784620  0.4482482930092309  0.7907150713661539
  0.3219428074135010  0.4738320160751421  0.8633948540213277
  0.3887125358931859  0.4867732791874090  0.7907168345530617
  0.4109456640796550  0.4223718069566806  0.9360736218628661
  0.3887005616039549  0.4353130700689475  0.8633956023946001
  0.3664490221750393  0.4994163716982190  0.9360736218628661
  0.4331796575412647  0.2299068249482561  0.8270566690095128
  0.5221944884966493  0.2299068249482561  0.8270566690095128
  0.5222024616070319  0.2556395849627935  0.7907168345530617
  0.4331876306516473  0.2556395849627935  0.7907168345530617
  0.4554447074165777  0.2941585309689883  0.7907160861797893
  0.4776978465920339  0.3069513896897945  0.8270566690095128
  0.4776938454131858  0.2812239405858707  0.8633956023946001
  0.4554434866492310  0.3197435191492308  0.8633938392076923
  0.4999509221781164  0.3197428865920651  0.8633948540213277
  0.4332012046874184  0.3839959544313331  0.8270566690095128
  0.4554554609384619  0.3712037282676925  0.7907150713661539
  0.4554662545627318  0.4482476604520652  0.7907160861797893
  0.4109588190338468  0.4482482930092309  0.7907150713661539
  0.4777193937381876  0.4610405191728717  0.8270566690095128
  0.4777273668485704  0.4867732791874090  0.7907168345530617
  0.4109468447446156  0.3967880838907694  0.8633938392076923
  0.4554530595061539  0.4223724395138463  0.9360726070492309
  0.4999616757000002  0.3967880838907694  0.8633938392076923
  0.4999604950350392  0.4223718069566806  0.9360736218628661
  0.4332067763654935  0.4608974256920245  0.9360743702361385
  0.4109576383688853  0.4738320160751421  0.8633948540213277
  0.4554650337953848  0.4738326486323077  0.8633938392076923
  0.4777153925593395  0.4353130700689475  0.8633956023946001
  0.4999712485569236  0.4994170042553847  0.9360726070492309
  0.4999724693242701  0.4738320160751421  0.8633948540213277
  0.6112172925624164  0.2556395849627935  0.7907168345530617
  0.5444595383719625  0.2941585309689883  0.7907160861797893
  0.5667126775474183  0.3069513896897945  0.8270566690095128
  0.5889549595092308  0.2426989544076923  0.8633938392076923
  0.5222120344639550  0.3582685053274089  0.8633956023946001
  0.5889657531335007  0.3197428865920651  0.8633948540213277
  0.6112268654193396  0.3582685053274089  0.8633956023946001
  0.6334635757030773  0.2171145987846151  0.7907150713661539
  0.6779710112319621  0.2171139662274499  0.7907160861797893
  0.7002321235178010  0.2556395849627935  0.7907168345530617
  0.6334743693273466  0.2941585309689883  0.7907160861797893
  0.6557275085028030  0.3069513896897945  0.8270566690095128
  0.6779817647538467  0.2941591635261538  0.7907150713661539
  0.7224892002827316  0.2941585309689883  0.7907160861797893
  0.7002416963747241  0.3582685053274089  0.8633956023946001
  0.5222160356428032  0.3839959544313331  0.8270566690095128
  0.5222240087531858  0.4097287144458707  0.7907168345530617
  0.5444810855181161  0.4482476604520652  0.7907160861797893
  0.5667342246935724  0.4610405191728717  0.8270566690095128
  0.5444691112288856  0.3967874513336037  0.8633948540213277
  0.5889753259904239  0.4223718069566806  0.9360736218628661
  0.5667302235147242  0.4353130700689475  0.8633956023946001
  0.5222216073208779  0.4608974256920245  0.9360743702361385
  0.5444798647507696  0.4738326486323077  0.8633938392076923
  0.5889860795123080  0.4994170042553847  0.9360726070492309
  0.5889873002796548  0.4738320160751421  0.8633948540213277
  0.6112404394551106  0.4866248747959486  0.8997354368510512
  0.6779925583781160  0.3712030957105268  0.7907160861797893
  0.6334851228492316  0.3712037282676925  0.7907150713661539
  0.7002456975535725  0.3839959544313331  0.8270566690095128
  0.7002536706639546  0.4097287144458707  0.7907168345530617
  0.6557490556489571  0.4610405191728717  0.8270566690095128
  0.6334959164735009  0.4482476604520652  0.7907160861797893
  0.6557570287593397  0.4867732791874090  0.7907168345530617
  0.7225107474288852  0.4482476604520652  0.7907160861797893
  0.6779913376107692  0.3967880838907694  0.8633938392076923
  0.6780021312350392  0.4738320160751421  0.8633948540213277
  0.6334946957061539  0.4738326486323077  0.8633938392076923
  0.6557450544701088  0.4353130700689475  0.8633956023946001
  0.1217127699381879  0.5645439331544098  0.2456265262772051
  0.1217087687593396  0.5388164840504859  0.2819654596622925
  0.1217007956489570  0.5130837240359484  0.3183052941187436
  0.0772001525654938  0.5644008396735628  0.3546442275038310
  0.0994464357061540  0.5258758534953843  0.3546424643169232
  0.0994572293304239  0.6029197856797573  0.3546434791305585
  0.1884732409507697  0.5773360626138461  0.2819636964753848
  0.1439550519000005  0.5002914978723078  0.2819636964753848
  0.1884744617181162  0.5517510744336035  0.2092859434474816
  0.2107355740039548  0.5902766931689474  0.2092866918207541
  0.2107276008935724  0.5645439331544098  0.2456265262772051
  0.2329806764796547  0.5773354300566804  0.2819647112890201
  0.2107156266043415  0.5130837240359484  0.3183052941187436
  0.1884612666615388  0.5258758534953843  0.3546424643169232
  0.1439538712350392  0.5258752209382187  0.3546434791305585
  0.1662070104104955  0.5386680796590252  0.3909840619602820
  0.1662149835208781  0.5644008396735628  0.3546442275038310
  0.1884720602858087  0.6029197856797573  0.3546434791305585
  0.2329687021904238  0.5258752209382187  0.3546434791305585
  0.2552218413658800  0.5386680796590252  0.3909840619602820
  0.2329794557123082  0.6029204182369232  0.3546424643169232
  0.1662269578101088  0.6158610487920243  0.2819654596622925
  0.1662309589889569  0.6415884978959484  0.2456265262772051
  0.2329926507688854  0.6287956391751421  0.2092859434474816
  0.1884840345750392  0.6543799947982187  0.2819647112890201
  0.2329914300015389  0.6543806273553847  0.2819636964753848
  0.2107451468608780  0.6929056135335628  0.2819654596622925
  0.2107371737504956  0.6671728535190256  0.3183052941187436
  0.2107251994612647  0.6157126444005638  0.3909840619602820
  0.2329902493365777  0.6799643504212957  0.3546434791305585
  0.0771881782762624  0.5129406305551011  0.4273229953453694
  0.1216943930378011  0.5385249861781782  0.5000017631869079
  0.1439514698027315  0.5770439321843727  0.5000010148136353
  0.1439526504676923  0.5514602091184615  0.4273212321584616
  0.1884600859965780  0.5514595765612959  0.4273222469720970
  0.1884588652292310  0.5770445647415386  0.5000000000000000
  0.2107092239931857  0.5385249861781782  0.5000017631869079
  0.2329674814230771  0.5514602091184615  0.4273212321584616
  0.2107132251720340  0.5642524352821021  0.4636628298018206
  0.2329663007581163  0.5770439321843727  0.5000010148136353
  0.2107211982824164  0.5899851952966397  0.4273229953453694
  0.1439394955135008  0.5255837230659113  0.5726797826551739
  0.1662006077993399  0.5641093418012553  0.5726805310284465
  0.2107012508828028  0.5127922261636408  0.5363415976433590
  0.2552194399335720  0.5898367909051793  0.5363415976433590
  0.2329650799907693  0.6026289203646155  0.5726787678415386
  0.2329543264688854  0.5255837230659113  0.5726797826551739
  0.2552154387547244  0.5641093418012553  0.5726805310284465
  0.2552074656443418  0.5383765817867175  0.6090203654848974
  0.1662125820885706  0.6155695509197165  0.5000017631869079
  0.1662245563778008  0.6670297600381780  0.4273229953453694
  0.2552274130439549  0.6155695509197165  0.5000017631869079
  0.2329770542800003  0.6540891294830770  0.5000000000000000
  0.2329758736150393  0.6796728525489882  0.5726797826551739
  0.2330022236258086  0.7314245595397574  0.2819647112890201
  0.1662365306670320  0.7184899691566398  0.3546442275038310
  0.2329878479042700  0.7311330616674498  0.5000010148136353
  0.2329998221935013  0.7825932707859111  0.4273222469720970
  0.2997304575597260  0.5130837240359484  0.3183052941187436
  0.2552338156551107  0.5901282887774869  0.3183052941187436
  0.2774880719061547  0.5773360626138461  0.2819636964753848
  0.3442470468639551  0.5132321284274091  0.2092866918207541
  0.3442486466104955  0.5901282887774869  0.3183052941187436
  0.2774760976169233  0.5258758534953843  0.3546424643169232
  0.3442366723212646  0.5386680796590252  0.3909840619602820
  0.2552298144762626  0.5644008396735628  0.3546442275038310
  0.2774868912411932  0.6029197856797573  0.3546434791305585
  0.3219942866676925  0.6029204182369232  0.3546424643169232
  0.2552417887654936  0.6158610487920243  0.2819654596622925
  0.2774988655304240  0.6543799947982187  0.2819647112890201
  0.2552457899443417  0.6415884978959484  0.2456265262772051
  0.2997599778162628  0.6929056135335628  0.2819654596622925
  0.2997639789951109  0.7186330626374867  0.2456265262772051
  0.3220062609569235  0.6543806273553847  0.2819636964753848
  0.2774976447630768  0.6799649829784615  0.3546424643169232
  0.2997480035270318  0.6414454044151011  0.3546442275038310
  0.2552513616224165  0.7184899691566398  0.3546442275038310
  0.2552433885120333  0.6927572091421021  0.3909840619602820
  0.3442661925778011  0.7184899691566398  0.3546442275038310
  0.3887572628043415  0.5645439331544098  0.2456265262772051
  0.4332618778193395  0.5132321284274091  0.2092866918207541
  0.4555177338169233  0.5773360626138461  0.2819636964753848
  0.4777720937597261  0.5645439331544098  0.2456265262772051
  0.3887452885151108  0.5130837240359484  0.3183052941187436
  0.4110091176230771  0.6029204182369232  0.3546424643169232
  0.4332515032766494  0.5386680796590252  0.3909840619602820
  0.4555057595276925  0.5258758534953843  0.3546424643169232
  0.4555165531519624  0.6029197856797573  0.3546434791305585
  0.4110223126796548  0.6287956391751421  0.2092859434474816
  0.3887788099504952  0.7186330626374867  0.2456265262772051
  0.4332714506762627  0.6158610487920243  0.2819654596622925
  0.4332834249654934  0.6673212579104858  0.2092866918207541
  0.4555405017304240  0.7058402039166805  0.2092859434474816
  0.3887668356612647  0.6671728535190256  0.3183052941187436
  0.2774736961846154  0.5770445647415386  0.5000000000000000
  0.2997240549485705  0.5385249861781782  0.5000017631869079
  0.2997360292378012  0.5899851952966397  0.4273229953453694
  0.3219823123784619  0.5514602091184615  0.4273212321584616
  0.2774617218953851  0.5255843556230769  0.5726787678415386
  0.3442222965997264  0.5383765817867175  0.6090203654848974
  0.3442342708889566  0.5898367909051793  0.5363415976433590
  0.2774725155196544  0.6026282878074498  0.5726797826551739
  0.2774844898088857  0.6540884969259113  0.5000010148136353
  0.2552314142228032  0.6412970000236407  0.4636628298018206
  0.2997496032735726  0.7183415647651793  0.4636628298018206
  0.2774964640981165  0.7055487060443728  0.4273222469720970
  0.3219931060027318  0.6285041413028344  0.4273222469720970
  0.3442462451781882  0.6412970000236407  0.4636628298018206
  0.3220038595246153  0.7055493386015385  0.4273212321584616
  0.3665112950535010  0.7055487060443728  0.4273222469720970
  0.2997376289843415  0.6668813556467176  0.5363415976433590
  0.2774832690415386  0.6796734851061541  0.5726787678415386
  0.2997336278054937  0.6411539065427935  0.5726805310284465
  0.2552369859008783  0.7181984712843320  0.5726805310284465
  0.3219907045704241  0.6796728525489882  0.5726797826551739
  0.3442438437458802  0.6924657112697943  0.6090203654848974
  0.3887388859039550  0.5385249861781782  0.5000017631869079
  0.4109959626688854  0.5770439321843727  0.5000010148136353
  0.4777656911485703  0.5899851952966397  0.4273229953453694
  0.4777537168593396  0.5385249861781782  0.5000017631869079
  0.4777457437489572  0.5127922261636408  0.5363415976433590
  0.3887309127935724  0.5127922261636408  0.5363415976433590
  0.4109839883796551  0.5255837230659113  0.5726797826551739
  0.4332371275551107  0.5383765817867175  0.6090203654848974
  0.4109947419015385  0.6026289203646155  0.5726787678415386
  0.4332491018443416  0.5898367909051793  0.5363415976433590
  0.4555021774304241  0.6026282878074498  0.5726797826551739
  0.4332451006654938  0.5641093418012553  0.5726805310284465
  0.4110186904800003  0.7055493386015385  0.4273212321584616
  0.4332610761335723  0.6412970000236407  0.4636628298018206
  0.4110067161907693  0.6540891294830770  0.5000000000000000
  0.3887644342289572  0.7183415647651793  0.4636628298018206
  0.4777792651843419  0.7183415647651793  0.4636628298018206
  0.4110055355258086  0.6796728525489882  0.5726797826551739
  0.4555129309523081  0.6796734851061541  0.5726787678415386
  0.4777672908951108  0.6668813556467176  0.5363415976433590
  0.3887484587608784  0.6411539065427935  0.5726805310284465
  0.4332586747012648  0.6924657112697943  0.6090203654848974
  0.4332666478116476  0.7181984712843320  0.5726805310284465
  0.4777553166058799  0.6154211465282556  0.6090203654848974
  0.3220170545811932  0.7314245595397574  0.2819647112890201
  0.2552553628012646  0.7442174182605639  0.3183052941187436
  0.4555381002981167  0.7570089151628341  0.3546434791305585
  0.3887764085181875  0.7698017738836408  0.3909840619602820
  0.2997575763839548  0.7440743247797166  0.4273229953453694
  0.2552489601901088  0.7696586804027937  0.5000017631869079
  0.3220146531488857  0.7825932707859111  0.4273222469720970
  0.3442677923243416  0.7953861295067176  0.4636628298018206
  0.3442637911454933  0.7696586804027937  0.5000017631869079
  0.3665100742861538  0.7311336942246154  0.5000000000000000
  0.3220026788596549  0.7311330616674498  0.5000010148136353
  0.3442558180351112  0.7439259203882562  0.5363415976433590
  0.3220014580923078  0.7567180498476922  0.5726787678415386
  0.3220122517165777  0.8337619820320651  0.5726797826551739
  0.4555249052415386  0.7311336942246154  0.5000000000000000
  0.3887724073393396  0.7440743247797166  0.4273229953453694
  0.4110294841042702  0.7825932707859111  0.4273222469720970
  0.4332826232797264  0.7953861295067176  0.4636628298018206
  0.4555356988658089  0.8081776264089880  0.5000010148136353
  0.3887620327966492  0.7695102760113328  0.6090203654848974
  0.3887700059070321  0.7952430360258707  0.5726805310284465
  0.4110162890476926  0.7567180498476922  0.5726787678415386
  0.4777848368624166  0.7952430360258707  0.5726805310284465
  0.4777768637520340  0.7695102760113328  0.6090203654848974
  0.4110270826719620  0.8337619820320651  0.5726797826551739
  0.4332802218474184  0.8465548407528715  0.6090203654848974
  0.5445325647723082  0.5773360626138461  0.2819636964753848
  0.5445337855396548  0.5517510744336035  0.2092859434474816
  0.5667829235362628  0.5388164840504859  0.2819654596622925
  0.6112915397301089  0.5132321284274091  0.2092866918207541
  0.5667869247151108  0.5645439331544098  0.2456265262772051
  0.5222743073424165  0.5644008396735628  0.3546442275038310
  0.5445313841073474  0.6029197856797573  0.3546434791305585
  0.6112811651874185  0.5386680796590252  0.3909840619602820
  0.5222862816316475  0.6158610487920243  0.2819654596622925
  0.5222982559208782  0.6673212579104858  0.2092866918207541
  0.5000371436350395  0.6287956391751421  0.2092859434474816
  0.5445433583965781  0.6543799947982187  0.2819647112890201
  0.5668084718612649  0.7186330626374867  0.2456265262772051
  0.5890519745904241  0.6287956391751421  0.2092859434474816
  0.5667845232828029  0.6157126444005638  0.3909840619602820
  0.5445421376292311  0.6799649829784615  0.3546424643169232
  0.5667964975720338  0.6671728535190256  0.3183052941187436
  0.5222958544885704  0.7184899691566398  0.3546442275038310
  0.6335486164950395  0.5517510744336035  0.2092859434474816
  0.6557977544916473  0.5388164840504859  0.2819654596622925
  0.6780548312565780  0.5773354300566804  0.2819647112890201
  0.7003063706854934  0.5132321284274091  0.2092866918207541
  0.7225634474504240  0.5517510744336035  0.2092859434474816
  0.6335354214384618  0.5258758534953843  0.3546424643169232
  0.7002959961428032  0.5386680796590252  0.3909840619602820
  0.6335462150627317  0.6029197856797573  0.3546434791305585
  0.6780536104892312  0.6029204182369232  0.3546424643169232
  0.6557993542381877  0.6157126444005638  0.3909840619602820
  0.7003079704320340  0.5901282887774869  0.3183052941187436
  0.6113130868762627  0.6673212579104858  0.2092866918207541
  0.6558233028166492  0.7186330626374867  0.2456265262772051
  0.7003199447212646  0.6415884978959484  0.2456265262772051
  0.6780655847784617  0.6543806273553847  0.2819636964753848
  0.6780668055458087  0.6287956391751421  0.2092859434474816
  0.7003279178316471  0.6673212579104858  0.2092866918207541
  0.6335569685846156  0.6799649829784615  0.3546424643169232
  0.6558113285274189  0.6671728535190256  0.3183052941187436
  0.6113106854439549  0.7184899691566398  0.3546442275038310
  0.7003255163993397  0.7184899691566398  0.3546442275038310
  0.7225717995399999  0.6799649829784615  0.3546424643169232
  0.6112771640085701  0.5129406305551011  0.4273229953453694
  0.5445194098181164  0.5514595765612959  0.4273222469720970
  0.5222623330531856  0.5129406305551011  0.4273229953453694
  0.5445181890507697  0.5770445647415386  0.5000000000000000
  0.4999988193350395  0.5255837230659113  0.5726797826551739
  0.5222519585104954  0.5383765817867175  0.6090203654848974
  0.5445062147615387  0.5255843556230769  0.5726787678415386
  0.5222599316208781  0.5641093418012553  0.5726805310284465
  0.5667701475612649  0.6154211465282556  0.6090203654848974
  0.6112747625762629  0.5641093418012553  0.5726805310284465
  0.6557953530593393  0.5899851952966397  0.4273229953453694
  0.6335342407735010  0.5514595765612959  0.4273222469720970
  0.6557873799489570  0.5642524352821021  0.4636628298018206
  0.6557833787701088  0.5385249861781782  0.5000017631869079
  0.6335330200061537  0.5770445647415386  0.5000000000000000
  0.7225490717288857  0.5514595765612959  0.4273222469720970
  0.7225478509615386  0.5770445647415386  0.5000000000000000
  0.6335210457169231  0.5255843556230769  0.5726787678415386
  0.7225358766723079  0.5255843556230769  0.5726787678415386
  0.6557849785166492  0.6154211465282556  0.6090203654848974
  0.6335318393411933  0.6026282878074498  0.5726797826551739
  0.5445301633400004  0.6285047738600000  0.4273212321584616
  0.5445289826750394  0.6540884969259113  0.5000010148136353
  0.5222838801993395  0.6670297600381780  0.4273229953453694
  0.5445409569642705  0.7055487060443728  0.4273222469720970
  0.5222719059101087  0.6155695509197165  0.5000017631869079
  0.6112867368654935  0.6155695509197165  0.5000017631869079
  0.5222735056566491  0.6924657112697943  0.6090203654848974
  0.6335449942953847  0.6285047738600000  0.4273212321584616
  0.6780512090569233  0.6540891294830770  0.5000000000000000
  0.7225598252507694  0.6285047738600000  0.4273212321584616
  0.6112987111547242  0.6670297600381780  0.4273229953453694
  0.6558089270951111  0.7183415647651793  0.4636628298018206
  0.6780631833461537  0.7055493386015385  0.4273212321584616
  0.7003135421101083  0.6670297600381780  0.4273229953453694
  0.7225706188750396  0.7055487060443728  0.4273222469720970
  0.6557969528058801  0.6668813556467176  0.5363415976433590
  0.7225586445858088  0.6540884969259113  0.5000010148136353
  0.6112963097224168  0.7181984712843320  0.5726805310284465
  0.6780500283919627  0.6796728525489882  0.5726797826551739
  0.7003111406778015  0.7181984712843320  0.5726805310284465
  0.5445529312535010  0.7570089151628341  0.3546434791305585
  0.6780763784027314  0.7314245595397574  0.2819647112890201
  0.6558209013843416  0.7698017738836408  0.3909840619602820
  0.7225825931642703  0.7570089151628341  0.3546434791305585
  0.5222974542351108  0.7953861295067176  0.4636628298018206
  0.6113082840116473  0.7696586804027937  0.5000017631869079
  0.5890471717258086  0.7311330616674498  0.5000010148136353
  0.5000311200030774  0.7567180498476922  0.5726787678415386
  0.5668036689966492  0.8209704851297945  0.5363415976433590
  0.5667916947074185  0.7695102760113328  0.6090203654848974
  0.5222950528028028  0.8465548407528715  0.6090203654848974
  0.6780620026811934  0.7311330616674498  0.5000010148136353
  0.7003231149670320  0.7696586804027937  0.5000017631869079
  0.6780739769704240  0.7825932707859111  0.4273222469720970
  0.6780607819138464  0.7567180498476922  0.5726787678415386
  0.6780715755381161  0.8337619820320651  0.5726797826551739
  0.0771738025547244  0.5126491326827937  0.6453592988699848
  0.0994308793196546  0.5511680786889881  0.6453585504967123
  0.1884457102750391  0.5511680786889881  0.6453585504967123
  0.1884444895076924  0.5767530668692309  0.7180363035246153
  0.1216919916054934  0.5896936974243320  0.6453592988699848
  0.1662022075458802  0.6410055021513330  0.6816991333264358
  0.1216800173162627  0.5382334883058703  0.7180380667115233
  0.1661902332566491  0.5895452930328715  0.7543779011679742
  0.1884325152184619  0.5252928577507692  0.7907150713661539
  0.1884433088427318  0.6023367899351422  0.7907160861797893
  0.1884552831319623  0.6537969990536036  0.7180373183382507
  0.1884672574211928  0.7052572081720651  0.6453585504967123
  0.1884660366538463  0.7308421963523081  0.7180363035246153
  0.2774605412304239  0.5511680786889881  0.6453585504967123
  0.2106948482716475  0.5382334883058703  0.7180380667115233
  0.2774593204630774  0.5767530668692309  0.7180363035246153
  0.2552050642120339  0.5895452930328715  0.7543779011679742
  0.2552130373224167  0.6152780530474089  0.7180380667115233
  0.3664753721858089  0.5511680786889881  0.6453585504967123
  0.3442182954208781  0.5126491326827937  0.6453592988699848
  0.2997216535162627  0.5896936974243320  0.6453592988699848
  0.3219679366569234  0.5511687112461539  0.6453575356830770
  0.2997136804058803  0.5639609374097946  0.6816991333264358
  0.2997096792270320  0.5382334883058703  0.7180380667115233
  0.3219667559919624  0.5767524343120652  0.7180373183382507
  0.3442278682778011  0.6152780530474089  0.7180380667115233
  0.2552170385012643  0.6410055021513330  0.6816991333264358
  0.2552250116116476  0.6667382621658704  0.6453592988699848
  0.2774712947523076  0.6282132759876922  0.6453575356830770
  0.2774701140873471  0.6537969990536036  0.7180373183382507
  0.2107163954178007  0.6923226177889474  0.7180380667115233
  0.3442318694566493  0.6410055021513330  0.6816991333264358
  0.3219787302811931  0.6282126434305267  0.6453585504967123
  0.3664861257076924  0.6282132759876922  0.6453575356830770
  0.3442398425670319  0.6667382621658704  0.6453592988699848
  0.2997352275520337  0.7180500668928713  0.6816991333264358
  0.3219894838030771  0.7052578407292307  0.6453575356830770
  0.3219775095138466  0.6537976316107695  0.7180363035246153
  0.2997232532628029  0.6665898577744099  0.7543779011679742
  0.2551930899228029  0.5380850839144100  0.8270566690095128
  0.2774473461738465  0.5252928577507692  0.7907150713661539
  0.2774581397981164  0.6023367899351422  0.7907160861797893
  0.3442079208781877  0.5380850839144100  0.8270566690095128
  0.3442158939885706  0.5638178439289474  0.7907168345530617
  0.3219535609353850  0.5508772133738463  0.8633938392076923
  0.2997072777947245  0.5894021995520243  0.8633956023946001
  0.2107044211285702  0.6408624086704859  0.7907168345530617
  0.2774688933200001  0.6793819872338461  0.7907150713661539
  0.2552226101793394  0.7179069734120244  0.7907168345530617
  0.2997192520839550  0.6408624086704859  0.7907168345530617
  0.3442294680243411  0.6921742133974867  0.8270566690095128
  0.3664717499861542  0.6279217781153847  0.8633938392076923
  0.3664825436104239  0.7049657102997574  0.8633948540213277
  0.2552465587578013  0.8208273916489475  0.6453592988699848
  0.2774808676092306  0.7308421963523081  0.7180363035246153
  0.2552345844685703  0.7693671825304856  0.7180380667115233
  0.2774916612335009  0.8078861285366803  0.7180373183382507
  0.2997432006624166  0.7437828269074089  0.6453592988699848
  0.3664956985646156  0.7308421963523081  0.7180363035246153
  0.3665064921888853  0.8078861285366803  0.7180373183382507
  0.2997448004089567  0.8206789872574868  0.7543779011679742
  0.2775036355227317  0.8593463376551420  0.6453585504967123
  0.3665184664781160  0.8593463376551420  0.6453585504967123
  0.3442613897131858  0.8208273916489475  0.6453592988699848
  0.2997567746981879  0.8721391963759485  0.6816991333264358
  0.2774796869442701  0.7564259194182189  0.7907160861797893
  0.3664945178996548  0.7564259194182189  0.7907160861797893
  0.3887285113612649  0.5639609374097946  0.6816991333264358
  0.4554902031411930  0.5511680786889881  0.6453585504967123
  0.4332331263762628  0.5126491326827937  0.6453592988699848
  0.3887364844716473  0.5896936974243320  0.6453592988699848
  0.4109815869473472  0.5767524343120652  0.7180373183382507
  0.4554889823738465  0.5767530668692309  0.7180363035246153
  0.4332426992331858  0.6152780530474089  0.7180380667115233
  0.4332347261228032  0.5895452930328715  0.7543779011679742
  0.5445050340965778  0.5511680786889881  0.6453585504967123
  0.4777433423166499  0.5639609374097946  0.6816991333264358
  0.4777513154270320  0.5896936974243320  0.6453592988699848
  0.4777313680274185  0.5125007282913330  0.7543779011679742
  0.4777393411378011  0.5382334883058703  0.7180380667115233
  0.4999964179027317  0.5767524343120652  0.7180373183382507
  0.5222495570781878  0.5895452930328715  0.7543779011679742
  0.5445038133292310  0.5767530668692309  0.7180363035246153
  0.4109935612365777  0.6282126434305267  0.6453585504967123
  0.4332467004120341  0.6410055021513330  0.6816991333264358
  0.4332546735224165  0.6667382621658704  0.6453592988699848
  0.4555117502873471  0.7052572081720651  0.6453585504967123
  0.3887500585074189  0.7180500668928713  0.6816991333264358
  0.4109923404692312  0.6537976316107695  0.7180363035246153
  0.4554997759981162  0.6537969990536036  0.7180373183382507
  0.3887460573285705  0.6923226177889474  0.7180380667115233
  0.5445265812427317  0.7052572081720651  0.6453585504967123
  0.5000191457138464  0.7052578407292307  0.6453575356830770
  0.5222615313674188  0.6410055021513330  0.6816991333264358
  0.4777648894628033  0.7180500668928713  0.6816991333264358
  0.4777608882839550  0.6923226177889474  0.7180380667115233
  0.4332227518335725  0.5380850839144100  0.8270566690095128
  0.4109696126581163  0.5252922251936035  0.7907160861797893
  0.4554770080846162  0.5252928577507692  0.7907150713661539
  0.4332307249439551  0.5638178439289474  0.7907168345530617
  0.4109803661800007  0.6023374224923078  0.7907150713661539
  0.3887261099289571  0.6151296486559484  0.8270566690095128
  0.4554878017088855  0.6023367899351422  0.7907160861797893
  0.4332187506547244  0.5123576348104859  0.8633956023946001
  0.4109683918907697  0.5508772133738463  0.8633938392076923
  0.4554758274196552  0.5508765808166802  0.8633948540213277
  0.3887221087501088  0.5894021995520243  0.8633956023946001
  0.4999844436135010  0.5252922251936035  0.7907160861797893
  0.5222375827889568  0.5380850839144100  0.8270566690095128
  0.5444918390400003  0.5252928577507692  0.7907150713661539
  0.5445026326642702  0.6023367899351422  0.7907160861797893
  0.5222455558993396  0.5638178439289474  0.7907168345530617
  0.4999951971353852  0.6023374224923078  0.7907150713661539
  0.4777409408843417  0.6151296486559484  0.8270566690095128
  0.5444906583750393  0.5508765808166802  0.8633948540213277
  0.4777369397054936  0.5894021995520243  0.8633956023946001
  0.4109911598042701  0.6793813546766805  0.7907160861797893
  0.4332522720901090  0.7179069734120244  0.7907168345530617
  0.4332323246904957  0.6407140042790253  0.8997354368510512
  0.4554865809415389  0.6279217781153847  0.8633938392076923
  0.4109791855150394  0.6279211455582188  0.8633948540213277
  0.4332402978008781  0.6664467642935629  0.8633956023946001
  0.4554973745658087  0.7049657102997574  0.8633948540213277
  0.4777489139947243  0.6408624086704859  0.7907168345530617
  0.5000059907596547  0.6793813546766805  0.7907160861797893
  0.5222671030454935  0.7179069734120244  0.7907168345530617
  0.4999940164704244  0.6279211455582188  0.8633948540213277
  0.5445014118969232  0.6279217781153847  0.8633938392076923
  0.5222471556458800  0.6407140042790253  0.8997354368510512
  0.5000047699923081  0.7049663428569231  0.8633938392076923
  0.4777505137412646  0.7177585690205639  0.8997354368510512
  0.6335198650519628  0.5511680786889881  0.6453585504967123
  0.5667661463824166  0.5896936974243320  0.6453592988699848
  0.5667541720931859  0.5382334883058703  0.7180380667115233
  0.6335186442846158  0.5767530668692309  0.7180363035246153
  0.6112643880335725  0.5895452930328715  0.7543779011679742
  0.7002776192424169  0.5126491326827937  0.6453592988699848
  0.6557809773378014  0.5896936974243320  0.6453592988699848
  0.6557690030485704  0.5382334883058703  0.7180380667115233
  0.7225334752400003  0.5767530668692309  0.7180363035246153
  0.7002792189889573  0.5895452930328715  0.7543779011679742
  0.6112763623228032  0.6410055021513330  0.6816991333264358
  0.6335306185738463  0.6282132759876922  0.6453575356830770
  0.6335414121981162  0.7052572081720651  0.6453585504967123
  0.6335294379088855  0.6537969990536036  0.7180373183382507
  0.5667677461289568  0.6665898577744099  0.7543779011679742
  0.5667757192393396  0.6923226177889474  0.7180380667115233
  0.7225454495292308  0.6282132759876922  0.6453575356830770
  0.6780488076246157  0.7052578407292307  0.6453575356830770
  0.7225562431535010  0.7052572081720651  0.6453585504967123
  0.7002991663885706  0.6667382621658704  0.6453592988699848
  0.7002911932781880  0.6410055021513330  0.6816991333264358
  0.7225442688642703  0.6537969990536036  0.7180373183382507
  0.6557905501947243  0.6923226177889474  0.7180380667115233
  0.6112524137443416  0.5380850839144100  0.8270566690095128
  0.6335066699953853  0.5252928577507692  0.7907150713661539
  0.6335174636196550  0.6023367899351422  0.7907160861797893
  0.5667557718397263  0.6151296486559484  0.8270566690095128
  0.6335054893304241  0.5508765808166802  0.8633948540213277
  0.7002672446997263  0.5380850839144100  0.8270566690095128
  0.7225215009507701  0.5252928577507692  0.7907150713661539
  0.7225322945750393  0.6023367899351422  0.7907160861797893
  0.7225203202858090  0.5508765808166802  0.8633948540213277
  0.6557666016162628  0.5894021995520243  0.8633956023946001
  0.5667637449501088  0.6408624086704859  0.7907168345530617
  0.5890208217150394  0.6793813546766805  0.7907160861797893
  0.6112819340008780  0.7179069734120244  0.7907168345530617
  0.6112619866012647  0.6407140042790253  0.8997354368510512
  0.6112699597116474  0.6664467642935629  0.8633956023946001
  0.5667653446966494  0.7177585690205639  0.8997354368510512
  0.5890196009476925  0.7049663428569231  0.8633938392076923
  0.6335270364765778  0.7049657102997574  0.8633948540213277
  0.6557785759054934  0.6408624086704859  0.7907168345530617
  0.7225430480969235  0.6793819872338461  0.7907150713661539
  0.7002887918458800  0.6921742133974867  0.8270566690095128
  0.7225310738076927  0.6279217781153847  0.8633938392076923
  0.4555225038092306  0.7823024054707691  0.6453575356830770
  0.4110151083827318  0.7823017729136037  0.6453585504967123
  0.4332682475581882  0.7950946316344100  0.6816991333264358
  0.4110031340935011  0.7308415637951420  0.7180373183382507
  0.4555105295200004  0.7308421963523081  0.7180363035246153
  0.4555213231442701  0.8078861285366803  0.7180373183382507
  0.5000299393381163  0.7823017729136037  0.6453585504967123
  0.5222910516239552  0.8208273916489475  0.6453592988699848
  0.5222830785135725  0.7950946316344100  0.6816991333264358
  0.5445253604753851  0.7308421963523081  0.7180363035246153
  0.5222711042243419  0.7436344225159482  0.7543779011679742
  0.5000287185707696  0.8078867610938463  0.7180363035246153
  0.4777744623197263  0.8206789872574868  0.7543779011679742
  0.4332762206685704  0.8208273916489475  0.6453592988699848
  0.4555332974335008  0.8593463376551420  0.6453585504967123
  0.3887716056535724  0.8721391963759485  0.6816991333264358
  0.3887676044747244  0.8464117472720242  0.7180380667115233
  0.4555320766661540  0.8849313258353846  0.7180363035246153
  0.5445481283888853  0.8593463376551420  0.6453585504967123
  0.5000514864842702  0.9363909023966807  0.6453585504967123
  0.4777864366089574  0.8721391963759485  0.6816991333264358
  0.4777824354301087  0.8464117472720242  0.7180380667115233
  0.5445469076215388  0.8849313258353846  0.7180363035246153
  0.3887476570751106  0.7692187781390252  0.8270566690095128
  0.3887556301854934  0.7949515381535627  0.7907168345530617
  0.4555201023769238  0.8334711167169231  0.7907150713661539
  0.3887436558962630  0.7434913290351012  0.8633956023946001
  0.5000167442815391  0.7564265519753848  0.7907150713661539
  0.5445241798104239  0.7564259194182189  0.7907160861797893
  0.4777584868516473  0.7434913290351012  0.8633956023946001
  0.5000155636165778  0.7820102750412959  0.8633948540213277
  0.5667876935285705  0.7437828269074089  0.6453592988699848
  0.6112979094689573  0.7950946316344100  0.6816991333264358
  0.6112859351797262  0.7436344225159482  0.7543779011679742
  0.5667892932751111  0.8206789872574868  0.7543779011679742
  0.6335509850550396  0.8078861285366803  0.7180373183382507
  0.6558025244839550  0.7437828269074089  0.6453592988699848
  0.7003127404243417  0.7950946316344100  0.6816991333264358
  0.7003007661351109  0.7436344225159482  0.7543779011679742
  0.7225658160104239  0.8078861285366803  0.7180373183382507
  0.6335629593442699  0.8593463376551420  0.6453585504967123
  0.5668012675643418  0.8721391963759485  0.6816991333264358
  0.5668092406747244  0.8978719563904859  0.6453592988699848
  0.5667972663854934  0.8464117472720242  0.7180380667115233
  0.5890543431504243  0.8849306932782187  0.7180373183382507
  0.6558160985197263  0.8721391963759485  0.6816991333264358
  0.6558240716301087  0.8978719563904859  0.6453592988699848
  0.7225777902996546  0.8593463376551420  0.6453585504967123
  0.5890315752369236  0.7564265519753848  0.7907150713661539
  0.6335390107658087  0.7564259194182189  0.7907160861797893
  0.5667773189858801  0.7692187781390252  0.8270566690095128
  0.5667852920962627  0.7949515381535627  0.7907168345530617
  0.5890423688611933  0.8334704841597574  0.7907160861797893
  0.7225538417211936  0.7564259194182189  0.7907160861797893
  0.4109672112258085  0.5764609364397575  0.9360736218628661
  0.3887101344608779  0.5379419904335628  0.9360743702361385
  0.4777249654162627  0.5379419904335628  0.9360743702361385
  0.5444894376076929  0.5764615689969232  0.9360726070492309
  0.4999820421811933  0.5764609364397575  0.9360736218628661
  0.5222431544670320  0.6149865551751011  0.9360743702361385
  0.5889968731365777  0.5764609364397575  0.9360736218628661
  0.8115339633461540  0.2691578036476924  0.2819636964753848
  0.7669882436196545  0.1659452549812960  0.6453585504967123
  0.7447447408904951  0.2557826784436408  0.6816991333264358
  0.7447527140008779  0.2815154384581781  0.6453592988699848
  0.7669978164765776  0.2685741753459112  0.7180373183382507
  0.7447407397116470  0.2300552293397166  0.7180380667115233
  0.8337595718458799  0.2557826784436408  0.6816991333264358
  0.7669965957092311  0.2941591635261538  0.7907150713661539
  0.7447950394797269  0.4104548036713331  0.2456265262772051
  0.7892916813843416  0.3334102389297945  0.2456265262772051
  0.7892876802054936  0.3076827898258706  0.2819654596622925
  0.7670373214415389  0.3462023683892308  0.2819636964753848
  0.7447830651904956  0.3589945945528714  0.3183052941187436
  0.8338098704351108  0.4104548036713331  0.2456265262772051
  0.8337978961458800  0.3589945945528714  0.3183052941187436
  0.7670253471523080  0.2947421592707693  0.3546424643169232
  0.8115315619138462  0.3203265148938462  0.4273212321584616
  0.7447790640116475  0.3332671454489475  0.3546442275038310
  0.7892852787731853  0.3588515010720243  0.4273229953453694
  0.8115435362030776  0.3717867240123077  0.3546424643169232
  0.7670361407765777  0.3717860914551418  0.3546434791305585
  0.8115423555381164  0.3973704470782189  0.4273222469720970
  0.8337938949670318  0.3332671454489475  0.3546442275038310
  0.9005463928692310  0.3203265148938462  0.4273212321584616
  0.8783001097285705  0.3588515010720243  0.4273229953453694
  0.8560509717319624  0.3717860914551418  0.3546434791305585
  0.9005583671584619  0.3717867240123077  0.3546424643169232
  0.9005571864935011  0.3973704470782189  0.4273222469720970
  0.7448030125901089  0.4361875636858704  0.2092866918207541
  0.7670588685876926  0.5002914978723078  0.2819636964753848
  0.8115555104923081  0.4232469331307694  0.2819636964753848
  0.8115663041165778  0.5002908653151420  0.2819647112890201
  0.7448125854470321  0.5388164840504859  0.2819654596622925
  0.7448046123366493  0.5130837240359484  0.3183052941187436
  0.8338178435454937  0.4361875636858704  0.2092866918207541
  0.8783240583070320  0.4617719193089473  0.2819654596622925
  0.9005811350719626  0.5002908653151420  0.2819647112890201
  0.8338274164024164  0.5388164840504859  0.2819654596622925
  0.8338194432920345  0.5130837240359484  0.3183052941187436
  0.8115543298273469  0.4488306561966803  0.3546434791305585
  0.7670468942984621  0.4488312887538463  0.3546424643169232
  0.7447926380474184  0.4616235149174869  0.3909840619602820
  0.7670457136335008  0.4744150118197575  0.4273222469720970
  0.7447886368685702  0.4358960658135627  0.4273229953453694
  0.7448006111578012  0.4873562749320242  0.3546442275038310
  0.7893108270981876  0.5386680796590252  0.3909840619602820
  0.7893068259193394  0.5129406305551011  0.4273229953453694
  0.8115639026842700  0.5514595765612959  0.4273222469720970
  0.9005691607827316  0.4488306561966803  0.3546434791305585
  0.8560617252538464  0.4488312887538463  0.3546424643169232
  0.8338074690028031  0.4616235149174869  0.3909840619602820
  0.8560605445888856  0.4744150118197575  0.4273222469720970
  0.8338154421131859  0.4873562749320242  0.3546442275038310
  0.8560712981107695  0.5514602091184615  0.4273212321584616
  0.8783216568747243  0.5129406305551011  0.4273229953453694
  0.7447766625793397  0.3844358566951015  0.5000017631869079
  0.8337914935347246  0.3844358566951015  0.5000017631869079
  0.8560377766753851  0.3459108705169231  0.5000000000000000
  0.9005439914369233  0.3714952261400000  0.5726787678415386
  0.7670097907658086  0.3200343844643728  0.6453585504967123
  0.7892828773408781  0.4100202123181781  0.5726805310284465
  0.7892709030516472  0.3585600031997166  0.6453592988699848
  0.7670205442876925  0.3970795817630768  0.6453575356830770
  0.8115279798165778  0.3970789492059112  0.6453585504967123
  0.8560246217211929  0.3200343844643728  0.6453585504967123
  0.8782857340070319  0.3585600031997166  0.6453592988699848
  0.8782977082962629  0.4100202123181781  0.5726805310284465
  0.8560353752430773  0.3970795817630768  0.6453575356830770
  0.7670337393442700  0.4229548027012960  0.5000010148136353
  0.7892868785197261  0.4357476614221023  0.5363415976433590
  0.7892988528089575  0.4872078705405637  0.4636628298018206
  0.8115519283950400  0.4999993674428344  0.5000010148136353
  0.7447982097254935  0.5385249861781782  0.5000017631869079
  0.9005559657261543  0.4229554352584617  0.5000000000000000
  0.8560485702996552  0.4229548027012960  0.5000010148136353
  0.8783096825854934  0.4614804214366396  0.5000017631869079
  0.8783017094751104  0.4357476614221023  0.5363415976433590
  0.8783136837643423  0.4872078705405637  0.4636628298018206
  0.8560593238215387  0.5000000000000000  0.5000000000000000
  0.9005667593504244  0.4999993674428344  0.5000010148136353
  0.8338130406808782  0.5385249861781782  0.5000017631869079
  0.8338050675704958  0.5127922261636408  0.5363415976433590
  0.7670325185769234  0.4485397908815386  0.5726787678415386
  0.7447782623258801  0.4613320170451790  0.6090203654848974
  0.7670313379119627  0.4741235139474498  0.6453585504967123
  0.8115387333384617  0.4741241465046154  0.6453575356830770
  0.7447742611470320  0.4356045679412550  0.6453592988699848
  0.7447862354362625  0.4870647770597167  0.5726805310284465
  0.8115507076276927  0.5255843556230769  0.5726787678415386
  0.7892924501978013  0.5126491326827937  0.6453592988699848
  0.9005547850611930  0.4485391583243729  0.5726797826551739
  0.9005535642938465  0.4741241465046154  0.6453575356830770
  0.8560461688673470  0.4741235139474498  0.6453585504967123
  0.8337890921024168  0.4356045679412550  0.6453592988699848
  0.8338010663916473  0.4870647770597167  0.5726805310284465
  0.8560581431565779  0.5255837230659113  0.5726797826551739
  0.9005655385830770  0.5255843556230769  0.5726787678415386
  0.8560569223892309  0.5511687112461539  0.6453575356830770
  0.9005643579181162  0.5511680786889881  0.6453585504967123
  0.8783072811531860  0.5126491326827937  0.6453592988699848
  0.9228302730685702  0.4873562749320242  0.3546442275038310
  0.9228222999581879  0.4616235149174869  0.3909840619602820
  0.9228198985258805  0.5127922261636408  0.5363415976433590
  0.9228158973470321  0.4870647770597167  0.5726805310284465
  0.9450729741119627  0.5255837230659113  0.5726797826551739
  0.9228079242366493  0.4613320170451790  0.6090203654848974
  0.8337691447028031  0.3584115988082562  0.7543779011679742
  0.7447543137474183  0.3584115988082562  0.7543779011679742
  0.8560234009538463  0.3456193726446154  0.7180363035246153
  0.7670085699984616  0.3456193726446154  0.7180363035246153
  0.7892589287624162  0.3070997940812552  0.7180380667115233
  0.7447662880366492  0.4098718079267177  0.6816991333264358
  0.8337811189920340  0.4098718079267177  0.6816991333264358
  0.7670193636227317  0.4226633048289881  0.7180373183382507
  0.7447423394581874  0.3069513896897945  0.8270566690095128
  0.7447503125685702  0.3326841497043323  0.7907168345530617
  0.7892605285089570  0.3839959544313331  0.8270566690095128
  0.8115147847599998  0.3712037282676925  0.7907150713661539
  0.7892804759085703  0.4611889235643319  0.7180380667115233
  0.7892725027981879  0.4354561635497950  0.7543779011679742
  0.7892844770874189  0.4869163726682560  0.6816991333264358
  0.8115375526735009  0.4997078695705267  0.7180373183382507
  0.7670301171446157  0.4997085021276924  0.7180363035246153
  0.8560449481000009  0.4997085021276924  0.7180363035246153
  0.7447638866043415  0.4610405191728717  0.8270566690095128
  0.7670181428553852  0.4482482930092309  0.7907150713661539
  0.8115255783842700  0.4482476604520652  0.7907160861797893
  0.7892820756551115  0.5380850839144100  0.8270566690095128
  0.7670289364796549  0.5252922251936035  0.7907160861797893
  0.8337866906701090  0.4867732791874090  0.7907168345530617
  0.8560437674350392  0.5252922251936035  0.7907160861797893
  0.8782993080428037  0.4869163726682560  0.6816991333264358
  0.8782953068639551  0.4611889235643319  0.7180380667115233
  0.9005523836288857  0.4997078695705267  0.7180373183382507
  0.7893307744978013  0.6158610487920243  0.2819654596622925
  0.7670696622119627  0.5773354300566804  0.2819647112890201
  0.8115770576384618  0.5773360626138461  0.2819636964753848
  0.8115782784058092  0.5517510744336035  0.2092859434474816
  0.8783456054531861  0.6158610487920243  0.2819654596622925
  0.8115878512627319  0.6543799947982187  0.2819647112890201
  0.7893427487870318  0.6673212579104858  0.2092866918207541
  0.7670804157338471  0.6543806273553847  0.2819636964753848
  0.7448381337720342  0.7186330626374867  0.2456265262772051
  0.7893228013874185  0.5901282887774869  0.3183052941187436
  0.7448221583039548  0.6414454044151011  0.3546442275038310
  0.7670684414446157  0.6029204182369232  0.3546424643169232
  0.7893188002085704  0.5644008396735628  0.3546442275038310
  0.8115758769735010  0.6029197856797573  0.3546434791305585
  0.8338369892593396  0.6414454044151011  0.3546442275038310
  0.8783336311639551  0.5644008396735628  0.3546442275038310
  0.7448261594828038  0.6671728535190256  0.3183052941187436
  0.7670792350688854  0.6799643504212957  0.3546434791305585
  0.8338409904381882  0.6671728535190256  0.3183052941187436
  0.8560940660242702  0.6799643504212957  0.3546434791305585
  0.8115866304953845  0.6799649829784615  0.3546424643169232
  0.9005907079288857  0.6029197856797573  0.3546434791305585
  0.9228438471043415  0.6157126444005638  0.3909840619602820
  0.7670672607796549  0.6285041413028344  0.4273222469720970
  0.8115746562061540  0.6285047738600000  0.4273212321584616
  0.7893203999551107  0.6412970000236407  0.4636628298018206
  0.8338170418597267  0.5642524352821021  0.4636628298018206
  0.8338250149701087  0.5899851952966397  0.4273229953453694
  0.7893163987762627  0.6155695509197165  0.5000017631869079
  0.7893084256658798  0.5898367909051793  0.5363415976433590
  0.7448077825824166  0.6411539065427935  0.5726805310284465
  0.8783232566212645  0.5898367909051793  0.5363415976433590
  0.8115615012519624  0.6026282878074498  0.5726797826551739
  0.8338226135378010  0.6411539065427935  0.5726805310284465
  0.7670660400123080  0.6540891294830770  0.5000000000000000
  0.7893283730654932  0.6670297600381780  0.4273229953453694
  0.7670780143015384  0.7055493386015385  0.4273212321584616
  0.7448237580504952  0.7183415647651793  0.4636628298018206
  0.8560808709676928  0.6540891294830770  0.5000000000000000
  0.8338465621162624  0.7440743247797166  0.4273229953453694
  0.8338385890058799  0.7183415647651793  0.4636628298018206
  0.8115842290630768  0.7311336942246154  0.5000000000000000
  0.7670648593473472  0.6796728525489882  0.5726797826551739
  0.7448117837612647  0.6668813556467176  0.5363415976433590
  0.7448197568716471  0.6926141156612552  0.5000017631869079
  0.8115734755411933  0.6540884969259113  0.5000010148136353
  0.8338345878270319  0.6926141156612552  0.5000017631869079
  0.8338266147166494  0.6668813556467176  0.5363415976433590
  0.8115722547738463  0.6796734851061541  0.5726787678415386
  0.8560796903027316  0.6796728525489882  0.5726797826551739
  0.9228318728151110  0.5642524352821021  0.4636628298018206
  0.9005894871615389  0.6285047738600000  0.4273212321584616
  0.9005775128723075  0.5770445647415386  0.5000000000000000
  0.9228374444931857  0.6411539065427935  0.5726805310284465
  0.9005883064965781  0.6540884969259113  0.5000010148136353
  0.9006002807858086  0.7055487060443728  0.4273222469720970
  0.8783432040208780  0.6670297600381780  0.4273229953453694
  0.8783448037674191  0.7439259203882562  0.5363415976433590
  0.9228414456720339  0.6668813556467176  0.5363415976433590
  0.9005870857292311  0.6796734851061541  0.5726787678415386
  0.8783408025885702  0.7181984712843320  0.5726805310284465
  0.7448357323397257  0.7698017738836408  0.3909840619602820
  0.8115974241196546  0.7570089151628341  0.3546434791305585
  0.8338505632951104  0.7698017738836408  0.3909840619602820
  0.8561036388811935  0.7825932707859111  0.4273222469720970
  0.8115950226873474  0.8081776264089880  0.5000010148136353
  0.7893379459224164  0.7696586804027937  0.5000017631869079
  0.7448333309074183  0.8209704851297945  0.5363415976433590
  0.7670756128692312  0.7567180498476922  0.5726787678415386
  0.8115830483981160  0.7567174172905268  0.5726797826551739
  0.7670864064935009  0.8337619820320651  0.5726797826551739
  0.8115602804846158  0.6282132759876922  0.6453575356830770
  0.8560677160135011  0.6282126434305267  0.6453585504967123
  0.8338026661381881  0.5639609374097946  0.6816991333264358
  0.7893060242335725  0.6410055021513330  0.6816991333264358
  0.7448093823289574  0.7180500668928713  0.6816991333264358
  0.7893139973439554  0.6667382621658704  0.6453592988699848
  0.8560784695353846  0.7052578407292307  0.6453575356830770
  0.8115710741088855  0.7052572081720651  0.6453585504967123
  0.8783288282993397  0.6667382621658704  0.6453592988699848
  0.8783208551889569  0.6410055021513330  0.6816991333264358
  0.7893020230547244  0.6152780530474089  0.7180380667115233
  0.7670409107688858  0.5767524343120652  0.7180373183382507
  0.8783168540101092  0.6152780530474089  0.7180380667115233
  0.8560664952461536  0.6537976316107695  0.7180363035246153
  0.7670516642907689  0.6537976316107695  0.7180363035246153
  0.7448053811501084  0.6923226177889474  0.7180380667115233
  0.7893155970904953  0.7436344225159482  0.7543779011679742
  0.8115698533415385  0.7308421963523081  0.7180363035246153
  0.9228254702039548  0.5896936974243320  0.6453592988699848
  0.9005751114400001  0.6282132759876922  0.6453575356830770
  0.9228294713828034  0.6154211465282556  0.6090203654848974
  0.8783328294781878  0.6924657112697943  0.6090203654848974
  0.7448213566181879  0.7695102760113328  0.6090203654848974
  0.7448173554393398  0.7437828269074089  0.6453592988699848
  0.7893275713797262  0.7950946316344100  0.6816991333264358
  0.8338361875735727  0.7695102760113328  0.6090203654848974
  0.7447814325716475  0.5894021995520243  0.8633956023946001
  0.7892900487654935  0.5638178439289474  0.7907168345530617
  0.7447934068608779  0.6408624086704859  0.7907168345530617
  0.1438964012211933  0.2174054640997576  0.5726797826551739
  0.1661495403966493  0.2301983228205637  0.6090203654848974
  0.1884026159827313  0.2429898197228345  0.6453585504967123
  0.1884013952153848  0.2685748079030770  0.7180363035246153
  0.2328992578873469  0.1659452549812960  0.6453585504967123
  0.2106557551581880  0.2557826784436408  0.6816991333264358
  0.2551523970628031  0.1787381137021023  0.6816991333264358
  0.2329088307442699  0.2685741753459112  0.7180373183382507
  0.2774054726488854  0.1915296106043729  0.7180373183382507
  0.2106517539793395  0.2300552293397166  0.7180380667115233
  0.2551579687408780  0.2556395849627935  0.7907168345530617
  0.3441648265858799  0.2299068249482561  0.8270566690095128
  0.3219116874104239  0.2171139662274499  0.7907160861797893
  0.0993997593165777  0.2944500288412960  0.5726797826551739
  0.1216528984920339  0.3072428875621024  0.6090203654848974
  0.0771562565874188  0.3842874523036406  0.6090203654848974
  0.1216488973131856  0.2815154384581781  0.6453592988699848
  0.1439059740781158  0.3200343844643728  0.6453585504967123
  0.1439047533107693  0.3456193726446154  0.7180363035246153
  0.1661591132535724  0.3328272431851793  0.6816991333264358
  0.1884121888396545  0.3456187400874497  0.7180373183382507
  0.0994093321735007  0.3970789492059112  0.6453585504967123
  0.1216624713489569  0.4098718079267177  0.6816991333264358
  0.1439155469350392  0.4226633048289881  0.7180373183382507
  0.0771658294443418  0.4869163726682560  0.6816991333264358
  0.0994189050304239  0.4997078695705267  0.7180373183382507
  0.1661551120747242  0.3070997940812552  0.7180380667115233
  0.2106613268362625  0.3326841497043323  0.7907168345530617
  0.2996681846812646  0.3069513896897945  0.8270566690095128
  0.2329076099769236  0.2941591635261538  0.7907150713661539
  0.2551619699197261  0.2813670340667178  0.7543779011679742
  0.2774150455058084  0.2941585309689883  0.7907160861797893
  0.1216584701701090  0.3841443588227936  0.7180380667115233
  0.1661686861104954  0.4354561635497950  0.7543779011679742
  0.1661646849316475  0.4097287144458707  0.7907168345530617
  0.2329184036011933  0.3712030957105268  0.7907160861797893
  0.1884217616965775  0.4482476604520652  0.7907160861797893
  0.1884109680723080  0.3712037282676925  0.7907150713661539
  0.2551715427766488  0.3839959544313331  0.8270566690095128
  0.2106749008720337  0.4610405191728717  0.8270566690095128
  0.2106653280151107  0.3584115988082562  0.7543779011679742
  0.2329279764581160  0.4738320160751421  0.8633948540213277
  0.3219212602673469  0.3197428865920651  0.8633948540213277
  0.3441743994428031  0.3325357453128714  0.8997354368510512
  0.2551675415978012  0.3582685053274089  0.8633956023946001
  0.2774246183627320  0.3967874513336037  0.8633948540213277
  0.2996777575381878  0.4095803100544100  0.8997354368510512
  0.1216720442058799  0.5125007282913330  0.7543779011679742
  0.1439251197919624  0.5252922251936035  0.7907160861797893
  0.3219535938076923  0.2435734480246153  0.2092849286338461
  0.3442079537504959  0.2307813185651792  0.1729477584356663
  0.2552146699412648  0.3848704480482562  0.1729477584356663
  0.2329722842876925  0.4491227866261540  0.1366061607923078
  0.2552226430516472  0.4106032080627935  0.1366079239792157
  0.2329603099984616  0.3976625775076922  0.2092849286338461
  0.1884636680938456  0.4747071422492306  0.2092849286338461
  0.3219655680969232  0.2950336571430770  0.1366061607923078
  0.3664837571476924  0.3720782218846154  0.1366061607923078
  0.2774689261923077  0.3720782218846154  0.1366061607923078
  0.2774569519030772  0.3206180127661539  0.2092849286338461
  0.2997113118458799  0.3078258833067176  0.1729477584356663
  0.2997192849562623  0.3335586433212552  0.1366079239792157
  0.3219763617211929  0.3720775893274497  0.1366071756059429
  0.3664717828584615  0.3206180127661539  0.2092849286338461
  0.3664730036258085  0.2950330245859114  0.1366071756059429
  0.2774797198165778  0.4491221540689883  0.1366071756059429
  0.2997408321024160  0.4876477728043319  0.1366079239792157
  0.3219871152430769  0.4491227866261540  0.1366061607923078
  0.3442374740070315  0.4106032080627935  0.1366079239792157
  0.3442414751858801  0.4363306571667177  0.1002689905941281
  0.3664945507719621  0.4491221540689883  0.1366071756059429
  0.3219751409538464  0.3976625775076922  0.2092849286338461
  0.3442295008966491  0.3848704480482562  0.1729477584356663
  0.2774784990492308  0.4747071422492306  0.2092849286338461
  0.2997328589920336  0.4619150127897944  0.1729477584356663
  0.3664933300046156  0.4747071422492306  0.2092849286338461
  0.4554650666676922  0.1665288832830769  0.2092849286338461
  0.4332347589951107  0.2822415276836407  0.1002689905941281
  0.4332227847058798  0.2307813185651792  0.1729477584356663
  0.4109684247630770  0.2435734480246153  0.2092849286338461
  0.4332307578162626  0.2565140785797168  0.1366079239792157
  0.4554878345811928  0.2950330245859114  0.1366071756059429
  0.5444798976230769  0.1665288832830769  0.2092849286338461
  0.4999952300076927  0.2950336571430770  0.1366061607923078
  0.5222495899504955  0.2822415276836407  0.1002689905941281
  0.5890100609630771  0.2950336571430770  0.1366061607923078
  0.4999844764858083  0.2179884598443727  0.1366071756059429
  0.4999832557184618  0.2435734480246153  0.2092849286338461
  0.5222376156612641  0.2307813185651792  0.1729477584356663
  0.5222455887716474  0.2565140785797168  0.1366079239792157
  0.5445026655365776  0.2950330245859114  0.1366071756059429
  0.5889980866738461  0.2435734480246153  0.2092849286338461
  0.4110031669658086  0.4235377984459114  0.0639284077644045
  0.4555105623923077  0.4235384310030771  0.0639273929507692
  0.5445253933476925  0.4235384310030771  0.0639273929507692
  0.5000179979211929  0.4235377984459114  0.0639284077644045
  0.5890328288765777  0.4235377984459114  0.0639284077644045
  0.4109911926765777  0.3720775893274497  0.1366071756059429
  0.4109803990523080  0.2950336571430770  0.1366061607923078
  0.3887381170904952  0.3592860924251793  0.1002689905941281
  0.4554985881030772  0.3720782218846154  0.1366061607923078
  0.4777529480458799  0.3592860924251793  0.1002689905941281
  0.3887341159116471  0.3335586433212552  0.1366079239792157
  0.3887261428012651  0.3078258833067176  0.1729477584356663
  0.4554866138138463  0.3206180127661539  0.2092849286338461
  0.4777409737566494  0.3078258833067176  0.1729477584356663
  0.4777489468670318  0.3335586433212552  0.1366079239792157
  0.4332642792516472  0.4620634171812550  0.0639291561376769
  0.4777609211562628  0.3850188524397167  0.0639291561376769
  0.4332563061412639  0.4363306571667177  0.1002689905941281
  0.4555093817273465  0.4491221540689883  0.1366071756059429
  0.4110019461984612  0.4491227866261540  0.1366061607923078
  0.4332523049624163  0.4106032080627935  0.1366079239792157
  0.4109899719092308  0.3976625775076922  0.2092849286338461
  0.3887476899474183  0.4619150127897944  0.1729477584356663
  0.4332443318520339  0.3848704480482562  0.1729477584356663
  0.4555081609600000  0.4747071422492306  0.2092849286338461
  0.5445134190584620  0.3720782218846154  0.1366061607923078
  0.5667677790012647  0.3592860924251793  0.1002689905941281
  0.5667757521116471  0.3850188524397167  0.0639291561376769
  0.5445014447692310  0.3206180127661539  0.2092849286338461
  0.5667558047120338  0.3078258833067176  0.1729477584356663
  0.5667637778224166  0.3335586433212552  0.1366079239792157
  0.5000060236319624  0.3720775893274497  0.1366071756059429
  0.5222591628074187  0.3848704480482562  0.1729477584356663
  0.5890208545873468  0.3720775893274497  0.1366071756059429
  0.5000167771538460  0.4491227866261540  0.1366061607923078
  0.5222711370966487  0.4363306571667177  0.1002689905941281
  0.5222671359178011  0.4106032080627935  0.1366079239792157
  0.5222791102070320  0.4620634171812550  0.0639291561376769
  0.5445242126827317  0.4491221540689883  0.1366071756059429
  0.5890316081092307  0.4491227866261540  0.1366061607923078
  0.4777625209028031  0.4619150127897944  0.1729477584356663
  0.5000048028646155  0.3976625775076922  0.2092849286338461
  0.5445229919153847  0.4747071422492306  0.2092849286338461
  0.5667773518581879  0.4619150127897944  0.1729477584356663
  0.5890196338200002  0.3976625775076922  0.2092849286338461
  0.6112524466166489  0.2307813185651792  0.1729477584356663
  0.6112604197270317  0.2565140785797168  0.1366079239792157
  0.6780129176292309  0.2435734480246153  0.2092849286338461
  0.6557826099566495  0.3592860924251793  0.1002689905941281
  0.6557706356674186  0.3078258833067176  0.1729477584356663
  0.6335174964919623  0.2950330245859114  0.1366071756059429
  0.6335162757246154  0.3206180127661539  0.2092849286338461
  0.6335282500138463  0.3720782218846154  0.1366061607923078
  0.6557786087778014  0.3335586433212552  0.1366079239792157
  0.6112739937628030  0.3848704480482562  0.1729477584356663
  0.6780248919184618  0.2950336571430770  0.1366061607923078
  0.7225311066800002  0.3206180127661539  0.2092849286338461
  0.6780356855427315  0.3720775893274497  0.1366071756059429
  0.7225430809692310  0.3720782218846154  0.1366061607923078
  0.7002888247181878  0.3848704480482562  0.1729477584356663
  0.6112939411624163  0.4620634171812550  0.0639291561376769
  0.7003007990074187  0.4363306571667177  0.1002689905941281
  0.6112819668731858  0.4106032080627935  0.1366079239792157
  0.6335390436381160  0.4491221540689883  0.1366071756059429
  0.6557921828135727  0.4619150127897944  0.1729477584356663
  0.6335378228707695  0.4747071422492306  0.2092849286338461
  0.7002967978285706  0.4106032080627935  0.1366079239792157
  0.6780344647753846  0.3976625775076922  0.2092849286338461
  0.7225538745935007  0.4491221540689883  0.1366071756059429
  0.6780464390646150  0.4491227866261540  0.1366061607923078
  0.7225526538261539  0.4747071422492306  0.2092849286338461
  0.7447854666228029  0.3078258833067176  0.1729477584356663
  0.7670492957307694  0.3976625775076922  0.2092849286338461
  0.7448070137689570  0.4619150127897944  0.1729477584356663
  0.7670612700200002  0.4491227866261540  0.1366061607923078
  0.8115674847815386  0.4747071422492306  0.2092849286338461
  0.2329830779119622  0.5261667188105267  0.1366071756059429
  0.2329818571446157  0.5517517069907693  0.2092849286338461
  0.1884852152399993  0.6287962717323076  0.2092849286338461
  0.2107395751828029  0.6160041422728715  0.1729477584356663
  0.2330034042907694  0.7058408364738461  0.2092849286338461
  0.3665065250611931  0.5005823631874500  0.0639284077644045
  0.2774904733384618  0.5261673513676925  0.1366061607923078
  0.2997448332812645  0.5133752219082560  0.1002689905941281
  0.2552441901978013  0.5646923375458704  0.1366079239792157
  0.2775012669627315  0.6032112835520652  0.1366071756059429
  0.3219979088673470  0.5261667188105267  0.1366071756059429
  0.3665053042938461  0.5261673513676925  0.1366061607923078
  0.3442630223320337  0.5904197866497947  0.1002689905941281
  0.3442590211531856  0.5646923375458704  0.1366079239792157
  0.3442510480428028  0.5389595775313329  0.1729477584356663
  0.3219966881000000  0.5517517069907693  0.2092849286338461
  0.3220086623892310  0.6032119161092306  0.1366061607923078
  0.2997623792485705  0.6417369022874091  0.1366079239792157
  0.3220194560135007  0.6802558482936036  0.1366071756059429
  0.2775000461953849  0.6287962717323076  0.2092849286338461
  0.2552577642335721  0.6930487070144099  0.1729477584356663
  0.2997544061381877  0.6160041422728715  0.1729477584356663
  0.3665148771507693  0.6287962717323076  0.2092849286338461
  0.3442725951889569  0.6930487070144099  0.1729477584356663
  0.4110139204876921  0.5005829957446154  0.0639273929507692
  0.3887676373470321  0.5391079819227936  0.0639291561376769
  0.4110247141119627  0.5776269279289885  0.0639284077644045
  0.4555213560165778  0.5005823631874500  0.0639284077644045
  0.4777824683024164  0.5391079819227936  0.0639291561376769
  0.4332858263978013  0.6161525466643322  0.0639291561376769
  0.4555321095384613  0.5776275604861538  0.0639273929507692
  0.4110127398227313  0.5261667188105267  0.1366071756059429
  0.3887556630578007  0.4876477728043319  0.1366079239792157
  0.4332658789981876  0.5389595775313329  0.1729477584356663
  0.4555201352492309  0.5261673513676925  0.1366061607923078
  0.4777704940131855  0.4876477728043319  0.1366079239792157
  0.4777744951920336  0.5133752219082560  0.1002689905941281
  0.4110115190553849  0.5517517069907693  0.2092849286338461
  0.3665160979181162  0.6032112835520652  0.1366071756059429
  0.4110234933446153  0.6032119161092306  0.1366061607923078
  0.4332738521085704  0.5646923375458704  0.1366079239792157
  0.4332778532874185  0.5904197866497947  0.1002689905941281
  0.4555309288735010  0.6032112835520652  0.1366071756059429
  0.3887692370935725  0.6160041422728715  0.1729477584356663
  0.3887772102039548  0.6417369022874091  0.1366079239792157
  0.3887812113828029  0.6674643513913330  0.1002689905941281
  0.4110342869688854  0.6802558482936036  0.1366071756059429
  0.3665268514400002  0.6802564808507693  0.1366061607923078
  0.4777960423381877  0.6674643513913330  0.1002689905941281
  0.4555416823953850  0.6802564808507693  0.1366061607923078
  0.4777920411593397  0.6417369022874091  0.1366079239792157
  0.4777840680489568  0.6160041422728715  0.1729477584356663
  0.4555297081061541  0.6287962717323076  0.2092849286338461
  0.4332874261443412  0.6930487070144099  0.1729477584356663
  0.3442805682993397  0.7187814670289474  0.1366079239792157
  0.3220182352461544  0.7058408364738461  0.2092849286338461
  0.4110450404907694  0.7573010455923078  0.1366061607923078
  0.4332953992547243  0.7187814670289474  0.1366079239792157
  0.4555524760196545  0.7573004130351422  0.1366071756059429
  0.3665364242969234  0.7828854012153847  0.2092849286338461
  0.3887907842397264  0.7700932717559484  0.1729477584356663
  0.4110330662015387  0.7058408364738461  0.2092849286338461
  0.4555512552523079  0.7828854012153847  0.2092849286338461
  0.4778056151951111  0.7700932717559484  0.1729477584356663
  0.5445361869719622  0.5005823631874500  0.0639284077644045
  0.5445469404938461  0.5776275604861538  0.0639273929507692
  0.5000395450673470  0.5776269279289885  0.0639284077644045
  0.5890435823984617  0.5005829957446154  0.0639273929507692
  0.5667972992578012  0.5391079819227936  0.0639291561376769
  0.5890543760227318  0.5776269279289885  0.0639284077644045
  0.5000275707781161  0.5261667188105267  0.1366071756059429
  0.5222926842428028  0.5904197866497947  0.1002689905941281
  0.5222886830639547  0.5646923375458704  0.1366079239792157
  0.5445349662046156  0.5261673513676925  0.1366061607923078
  0.5667853249685703  0.4876477728043319  0.1366079239792157
  0.5890424017335009  0.5261667188105267  0.1366071756059429
  0.5667893261474184  0.5133752219082560  0.1002689905941281
  0.5000263500107696  0.5517517069907693  0.2092849286338461
  0.5222807099535728  0.5389595775313329  0.1729477584356663
  0.6112955409089571  0.5389595775313329  0.1729477584356663
  0.5890411809661540  0.5517517069907693  0.2092849286338461
  0.5223006573531852  0.6161525466643322  0.0639291561376769
  0.5668108732935716  0.6674643513913330  0.1002689905941281
  0.5000383242999996  0.6032119161092306  0.1366061607923078
  0.5445457598288853  0.6032112835520652  0.1366071756059429
  0.5445445390615384  0.6287962717323076  0.2092849286338461
  0.5667988990043415  0.6160041422728715  0.1729477584356663
  0.5668068721147239  0.6417369022874091  0.1366079239792157
  0.5890531552553844  0.6032119161092306  0.1366061607923078
  0.5000478971569233  0.7058408364738461  0.2092849286338461
  0.5000491179242702  0.6802558482936036  0.1366071756059429
  0.5223022570997260  0.6930487070144099  0.1729477584356663
  0.5445565133507695  0.6802564808507693  0.1366061607923078
  0.5890627281123081  0.7058408364738461  0.2092849286338461
  0.5890639488796541  0.6802558482936036  0.1366071756059429
  0.6335510179273469  0.5005823631874500  0.0639284077644045
  0.6113075151981876  0.5904197866497947  0.1002689905941281
  0.6335497971600004  0.5261673513676925  0.1366061607923078
  0.6558041571028032  0.5133752219082560  0.1002689905941281
  0.7003223461535724  0.5904197866497947  0.1002689905941281
  0.6780572326888856  0.5261667188105267  0.1366071756059429
  0.7225646281153847  0.5261673513676925  0.1366061607923078
  0.7225754217396548  0.6032112835520652  0.1366071756059429
  0.6113035140193395  0.5646923375458704  0.1366079239792157
  0.6558001559239550  0.4876477728043319  0.1366079239792157
  0.6780560119215387  0.5517517069907693  0.2092849286338461
  0.7003183449747243  0.5646923375458704  0.1366079239792157
  0.6558137299597263  0.6160041422728715  0.1729477584356663
  0.6335593700169228  0.6287962717323076  0.2092849286338461
  0.6558217030701088  0.6417369022874091  0.1366079239792157
  0.6335713443061538  0.6802564808507693  0.1366061607923078
  0.6113170880551108  0.6930487070144099  0.1729477584356663
  0.6780679862107692  0.6032119161092306  0.1366061607923078
  0.6558257042489564  0.6674643513913330  0.1002689905941281
  0.6780787798350393  0.6802558482936036  0.1366071756059429
  0.7225742009723071  0.6287962717323076  0.2092849286338461
  0.7003319190104955  0.6930487070144099  0.1729477584356663
  0.5445673069750394  0.7573004130351422  0.1366071756059429
  0.5890747024015383  0.7573010455923078  0.1366061607923078
  0.5000598714461542  0.7573010455923078  0.1366061607923078
  0.5223102302101088  0.7187814670289474  0.1366079239792157
  0.5668204461504954  0.7700932717559484  0.1729477584356663
  0.5445660862076928  0.7828854012153847  0.2092849286338461
  0.6113250611654935  0.7187814670289474  0.1366079239792157
  0.6558352771058800  0.7700932717559484  0.1729477584356663
  0.6335809171630773  0.7828854012153847  0.2092849286338461
  0.7448149868793399  0.4876477728043319  0.1366079239792157
  0.7670720636442704  0.5261667188105267  0.1366071756059429
  0.7893252028197262  0.5389595775313329  0.1729477584356663
  0.7670708428769235  0.5517517069907693  0.2092849286338461
  0.7448285609151106  0.6160041422728715  0.1729477584356663
  0.7448365340254935  0.6417369022874091  0.1366079239792157
  0.8115890319276927  0.6287962717323076  0.2092849286338461
  0.7670923900230772  0.7058408364738461  0.2092849286338461
  0.2329986014261539  0.8081782589661539  0.5000000000000000
  0.2775048161876927  0.8337626145892308  0.5726787678415386
  0.3887835799428029  0.9235994054944100  0.6090203654848974
  0.2552585330470318  0.8722876007674092  0.5726805310284465
  0.3220110309492309  0.8593469702123077  0.6453575356830770
  0.2330105757153846  0.8596384680846156  0.4273212321584616
  0.2997711504197261  0.8724306942482563  0.4636628298018206
  0.3220230052384619  0.9108071793307694  0.5726787678415386
  0.2330117964827318  0.8340534799043728  0.3546434791305585
  0.2775072176200000  0.7825939033430770  0.4273212321584616
  0.2775180112442701  0.8596378355274498  0.4273222469720970
  0.2552609344793397  0.8211188895212552  0.4273229953453694
  0.3220134323815387  0.8081782589661539  0.5000000000000000
  0.6558328756735723  0.8212619830021022  0.3183052941187436
  0.5890603266800003  0.7570095477200002  0.3546424643169232
  0.5890711203042704  0.8340534799043728  0.3546434791305585
  0.6335665414415381  0.7825939033430770  0.4273212321584616
  0.7448453051966493  0.8724306942482563  0.4636628298018206
  0.6113202583008781  0.8211188895212552  0.4273229953453694
  0.6780835498273471  0.8852221911505266  0.5000010148136353
  0.7003326878239552  0.8722876007674092  0.5726805310284465
  0.5890723009692312  0.8084697568384619  0.2819636964753848
  0.6335893093550397  0.9110980446459114  0.3546434791305585
  0.6113322325901086  0.8725790986397167  0.3546442275038310
  0.6780847304923078  0.8596384680846156  0.4273212321584616
  0.5890735217365778  0.7828847686582191  0.2092859434474816
  0.7448477066289571  0.8212619830021022  0.3183052941187436
  0.6113226597331859  0.7699501782751013  0.2819654596622925
  0.6780751576353851  0.7570095477200002  0.3546424643169232
  0.6780859512596548  0.8340534799043728  0.3546434791305585
  0.7225813723969233  0.7825939033430770  0.4273212321584616
  0.7003350892562625  0.8211188895212552  0.4273229953453694
  0.6113346340224168  0.8214103873935629  0.2092866918207541
  0.6780871319246156  0.8084697568384619  0.2819636964753848
  0.7003470635454938  0.8725790986397167  0.3546442275038310
  0.7670995614476926  0.8596384680846156  0.4273212321584616
  0.3887859813751109  0.8724306942482563  0.4636628298018206
  0.3665196471430770  0.8337626145892308  0.5726787678415386
  0.3442733640024165  0.8722876007674092  0.5726805310284465
  0.4110258619046155  0.8593469702123077  0.6453575356830770
  0.4333041704258801  0.9494752589897946  0.4636628298018206
  0.3665316214323079  0.8852228237076926  0.5000000000000000
  0.3442853382916475  0.9237478098858707  0.5000017631869079
  0.4110378361938464  0.9108071793307694  0.5726787678415386
  0.2552633359116472  0.7699501782751013  0.2819654596622925
  0.3220266274381161  0.8340534799043728  0.3546434791305585
  0.4332945975689569  0.8468463386251791  0.3909840619602820
  0.4778008123304954  0.8724306942482563  0.4636628298018206
  0.4332881949578013  0.8722876007674092  0.5726805310284465
  0.4110402376261542  0.8596384680846156  0.4273212321584616
  0.5223190013812646  0.9494752589897946  0.4636628298018206
  0.4110522119153849  0.9110986772030771  0.3546424643169232
  0.4555584266769231  0.9366830328261539  0.4273212321584616
  0.4778032137628032  0.8212619830021022  0.3183052941187436
  0.3442781668670320  0.7699501782751013  0.2819654596622925
  0.4110306647692312  0.7570095477200002  0.3546424643169232
  0.5668156432858802  0.8724306942482563  0.4636628298018206
  0.4332905963901090  0.8211188895212552  0.4273229953453694
  0.4777968111516473  0.8467032451443322  0.5000017631869079
  0.5445493090538466  0.8337626145892308  0.5726787678415386
  0.5890555238153848  0.8593469702123077  0.6453575356830770
  0.5223214028135724  0.8983065477436408  0.3183052941187436
  0.4555488538200004  0.8340541124615387  0.3546424643169232
  0.5000550685815387  0.8596384680846156  0.4273212321584616
  0.4778087854408781  0.8981634542627935  0.4273229953453694
  0.5445612833430774  0.8852228237076926  0.5000000000000000
  0.5890674981046158  0.9108071793307694  0.5726787678415386
  0.5668212149639553  0.9493321655089476  0.5726805310284465
  0.4555608281092309  0.8855143215800002  0.2819636964753848
  0.3887867830608780  0.7443658226520243  0.2092866918207541
  0.4555392809630772  0.7314251920969232  0.2819636964753848
  0.4555500745873471  0.8084691242812959  0.2819647112890201
  0.5668180447181880  0.8212619830021022  0.3183052941187436
  0.4332929978224165  0.7699501782751013  0.2819654596622925
  0.5000562893488857  0.8340534799043728  0.3546434791305585
  0.6558304742412649  0.8724306942482563  0.4636628298018206
  0.5223054273454936  0.8211188895212552  0.4273229953453694
  0.6335749336335010  0.9108065467736037  0.5726797826551739
  0.6780703547707696  0.8593469702123077  0.6453575356830770
  0.5223174016347243  0.8725790986397167  0.3546442275038310
  0.5890698995369235  0.8596384680846156  0.4273212321584616
  0.5890806931611932  0.9366824002689883  0.4273222469720970
  0.5668236163962626  0.8981634542627935  0.4273229953453694
  0.6780823290600005  0.9108071793307694  0.5726787678415386
  0.6780883526919625  0.7828847686582191  0.2092859434474816
  0.6558312759270319  0.7443658226520243  0.2092866918207541
  0.7003374906885707  0.7699501782751013  0.2819654596622925
  0.7670899885907694  0.7570095477200002  0.3546424643169232
  0.7671007822150395  0.8340534799043728  0.3546434791305585
  0.7893499202116473  0.8211188895212552  0.4273229953453694
  0.7448461068824167  0.7443658226520243  0.2092866918207541
  0.7893523216439550  0.7699501782751013  0.2819654596622925
  0.2551667727843417  0.1790296115744099  0.4636628298018206
  0.1884050174150393  0.1918211084766806  0.5000010148136353
  0.2329004385523079  0.1403615319153846  0.5726787678415386
  0.2329112321765778  0.2174054640997576  0.5726797826551739
  0.2106541554116474  0.1788865180935628  0.5726805310284465
  0.2106725323120339  0.2049054650697947  0.3183052941187436
  0.2551787470735725  0.2304898206928715  0.3909840619602820
  0.1884169917042705  0.2432813175951423  0.4273222469720970
  0.1661599149393394  0.2047623715889474  0.4273229953453694
  0.3441911765966493  0.2816585319390255  0.5363415976433590
  0.2106661297008779  0.2303467272120243  0.5000017631869079
  0.2774186276030771  0.2174060966569232  0.5726787678415386
  0.2774294212273470  0.2944500288412960  0.5726797826551739
  0.2551723444624167  0.2559310828351012  0.5726805310284465
  0.3219248423646157  0.2429904522800000  0.6453575356830770
  0.2106845066012646  0.2563656741882561  0.2456265262772051
  0.1884181723692310  0.2176975945292309  0.3546424643169232
  0.1884289659935009  0.2947415267136037  0.3546434791305585
  0.2996969361243417  0.3075343854344099  0.3909840619602820
  0.1661718892285703  0.2562225807074089  0.3546442275038310
  0.3442031508858802  0.3331187410574870  0.4636628298018206
  0.2774413955165778  0.3459102379597574  0.5000010148136353
  0.3219476102781162  0.3714945935828343  0.5726797826551739
  0.4332155804089570  0.3842874523036406  0.6090203654848974
  0.2996905335131861  0.3329756475766400  0.5726805310284465
  0.3441696294504954  0.1275694024559485  0.5363415976433590
  0.2774078740811932  0.1403608993582191  0.5726797826551739
  0.3441816037397261  0.1790296115744099  0.4636628298018206
  0.2774090547461541  0.1147771762923078  0.5000000000000000
  0.2774198483704240  0.1918211084766806  0.5000010148136353
  0.4331940332628029  0.2301983228205637  0.6090203654848974
  0.2996689863670320  0.1788865180935628  0.5726805310284465
  0.3441935780289568  0.2304898206928715  0.3909840619602820
  0.2774210290353848  0.1662373854107692  0.4273212321584616
  0.2774318226596550  0.2432813175951423  0.4273222469720970
  0.3219380374211933  0.2688656732182190  0.5000010148136353
  0.4332060075520338  0.2816585319390255  0.5363415976433590
  0.2996809606562627  0.2303467272120243  0.5000017631869079
  0.3664334585584619  0.2174060966569232  0.5726787678415386
  0.3664442521827318  0.2944500288412960  0.5726797826551739
  0.3441871754178012  0.2559310828351012  0.5726805310284465
  0.4109396733200002  0.2429904522800000  0.6453575356830770
  0.2329375821873469  0.2691571710905266  0.2819647112890201
  0.2774330033246158  0.2176975945292309  0.3546424643169232
  0.2774437969488855  0.2947415267136037  0.3546434791305585
  0.2551867201839549  0.2562225807074089  0.3546442275038310
  0.2996929349454934  0.2818069363304860  0.4273229953453694
  0.3664454328476924  0.2688663057753847  0.5000000000000000
  0.3664562264719625  0.3459102379597574  0.5000010148136353
  0.4109516476092305  0.2944506613984616  0.5726787678415386
  0.5222304113643413  0.3842874523036406  0.6090203654848974
  0.4331724861166493  0.0761091933374869  0.6090203654848974
  0.4331844604058799  0.1275694024559485  0.5363415976433590
  0.4109181261738465  0.0889013227969232  0.6453575356830770
  0.2774222498027316  0.1406523972305267  0.3546434791305585
  0.3219176709400000  0.0891928206692309  0.4273212321584616
  0.4331964346951109  0.1790296115744099  0.4636628298018206
  0.2996713877993393  0.1277178068474089  0.4273229953453694
  0.3664238857015387  0.1147771762923078  0.5000000000000000
  0.3664346793258086  0.1918211084766806  0.5000010148136353
  0.4777026494566491  0.2046139671974871  0.5363415976433590
  0.4109301004630770  0.1403615319153846  0.5726787678415386
  0.4109408940873469  0.2174054640997576  0.5726797826551739
  0.3886838173224165  0.1788865180935628  0.5726805310284465
  0.4554363152246151  0.1659458875384615  0.6453575356830770
  0.3441959794612647  0.1793211094467177  0.2456265262772051
  0.2774342240919625  0.1921126063489883  0.2819647112890201
  0.4332084089843418  0.2304898206928715  0.3909840619602820
  0.3664358599907692  0.1662373854107692  0.4273212321584616
  0.3664466536150398  0.2432813175951423  0.4273222469720970
  0.4109420747523077  0.1918217410338462  0.5000000000000000
  0.3886957916116475  0.2303467272120243  0.5000017631869079
  0.4554482895138462  0.2174060966569232  0.5726787678415386
  0.4999545042753850  0.2429904522800000  0.6453575356830770
  0.2774461983811932  0.2435728154674496  0.2092859434474816
  0.3887141685120338  0.2563656741882561  0.2456265262772051
  0.4332203832735725  0.2819500298113332  0.3183052941187436
  0.2996953363778013  0.2306382250843321  0.2819654596622925
  0.3664478342800003  0.2176975945292309  0.3546424643169232
  0.3664586279042700  0.2947415267136037  0.3546434791305585
  0.3442015511393396  0.2562225807074089  0.3546442275038310
  0.4109648426658087  0.3203258823366805  0.4273222469720970
  0.5222328127966493  0.3331187410574870  0.4636628298018206
  0.3887077659008777  0.2818069363304860  0.4273229953453694
  0.4554710574273471  0.3459102379597574  0.5000010148136353
  0.4332139806624167  0.3073912919535629  0.5000017631869079
  0.4999664785646155  0.2944506613984616  0.5726787678415386
  0.4777201954239552  0.3329756475766400  0.5726805310284465
  0.2996833620885704  0.1791780159658704  0.3546442275038310
  0.0771586580197263  0.3331187410574870  0.4636628298018206
  0.1216552999243419  0.2560741763159484  0.4636628298018206
  0.1216672742135722  0.3075343854344099  0.3909840619602820
  0.1661734889751111  0.3331187410574870  0.4636628298018206
  0.0994117336058086  0.3459102379597574  0.5000010148136353
  0.1439071547430772  0.2944506613984616  0.5726787678415386
  0.2106701308797262  0.2560741763159484  0.4636628298018206
  0.1661575135070321  0.2559310828351012  0.5726805310284465
  0.2329100114092313  0.2429904522800000  0.6453575356830770
  0.2106821051689569  0.3075343854344099  0.3909840619602820
  0.2551883199304955  0.3331187410574870  0.4636628298018206
  0.3442007494535723  0.3842874523036406  0.6090203654848974
  0.2774282004600003  0.3200350170215385  0.6453575356830770
  0.2551547984951106  0.1275694024559485  0.5363415976433590
  0.5889753588627317  0.1150680416074496  0.2819647112890201
  0.7447495437551106  0.1534452559513330  0.3909840619602820
  0.6112244968593392  0.1021334512243319  0.3546442275038310
  0.7224832095230771  0.1147771762923078  0.5000000000000000
  0.8337619732781876  0.2046139671974871  0.5363415976433590
  0.7669894242846157  0.1403615319153846  0.5726787678415386
  0.7447431411439548  0.1788865180935628  0.5726805310284465
  0.5889873331519622  0.1665282507259113  0.2092859434474816
  0.7447615180443414  0.2049054650697947  0.3183052941187436
  0.6779889690507698  0.1406530297876923  0.3546424643169232
  0.6779997626750393  0.2176969619720651  0.3546434791305585
  0.7224951838123078  0.1662373854107692  0.4273212321584616
  0.8337739475674185  0.2560741763159484  0.4636628298018206
  0.7002489006716471  0.2047623715889474  0.4273229953453694
  0.7670013985738461  0.1918217410338462  0.5000000000000000
  0.8115076133353849  0.2174060966569232  0.5726787678415386
  0.7447734923335724  0.2563656741882561  0.2456265262772051
  0.6112484454378010  0.2050538694612552  0.2092866918207541
  0.6780009433400003  0.1921132389061541  0.2819636964753848
  0.8337859218566495  0.3075343854344099  0.3909840619602820
  0.7670133728630770  0.2432819501523078  0.4273212321584616
  0.8115195876246154  0.2688663057753847  0.5000000000000000
  0.8115303812488854  0.3459102379597574  0.5000010148136353
  0.9227983513797260  0.3587030966805639  0.5363415976433590
  0.7892733044839549  0.3073912919535629  0.5000017631869079
  0.8560258023861541  0.2944506613984616  0.5726787678415386
  0.8560365960104234  0.3714945935828343  0.5726797826551739
  0.7670026193411931  0.1662367528536037  0.4273222469720970
  0.7892517573378016  0.1533021624704861  0.5000017631869079
  0.7002513021039549  0.1535936603427938  0.2819654596622925
  0.7670145936304240  0.2176969619720651  0.3546434791305585
  0.7892637316270321  0.2047623715889474  0.4273229953453694
  0.8560270231535014  0.2688656732182190  0.5000010148136353
  0.8782761611501088  0.2559310828351012  0.5726805310284465
  0.7002632763931856  0.2050538694612552  0.2092866918207541
  0.7892757059162626  0.2562225807074089  0.3546442275038310
  0.8560282038184613  0.2432819501523078  0.4273212321584616
  0.9005452122042703  0.3459102379597574  0.5000010148136353
  0.8782881354393393  0.3073912919535629  0.5000017631869079
  0.6779769947615386  0.0891928206692309  0.4273212321584616
  0.6112364711485702  0.1535936603427938  0.2819654596622925
  0.8115327826811932  0.2947415267136037  0.3546434791305585
  0.4776811023104950  0.0505248377144100  0.5363415976433590
  0.4109193469411930  0.0633163346166807  0.5726797826551739
  0.4331868618381874  0.0764006912097946  0.3909840619602820
  0.4776930765997260  0.1019850468328715  0.4636628298018206
  0.4554267423676923  0.0633169671738463  0.5726787678415386
  0.5667055061228030  0.1531537580790254  0.6090203654848974
  0.4331804592270321  0.1018419533520245  0.5726805310284465
  0.4999329571292309  0.0889013227969232  0.6453575356830770
  0.4331988361274182  0.1278609003282561  0.3183052941187436
  0.3441800039931858  0.1021334512243319  0.3546442275038310
  0.4109325018953847  0.0891928206692309  0.4273212321584616
  0.5222112656504957  0.1790296115744099  0.4636628298018206
  0.3886862187547240  0.1277178068474089  0.4273229953453694
  0.4999449314184617  0.1403615319153846  0.5726787678415386
  0.4999557250427315  0.2174054640997576  0.5726797826551739
  0.6112236951735720  0.2301983228205637  0.6090203654848974
  0.5444511461799999  0.1659458875384615  0.6453575356830770
  0.4777170251781876  0.2049054650697947  0.3183052941187436
  0.3441919782824163  0.1535936603427938  0.2819654596622925
  0.5222232399397261  0.2304898206928715  0.3909840619602820
  0.5667294547012651  0.2560741763159484  0.4636628298018206
  0.4999569057076925  0.1918217410338462  0.5000000000000000
  0.4999676993319626  0.2688656732182190  0.5000010148136353
  0.5444631204692310  0.2174060966569232  0.5726787678415386
  0.5222168373285705  0.2559310828351012  0.5726805310284465
  0.5889693352307693  0.2429904522800000  0.6453575356830770
  0.3664610293365773  0.2435728154674496  0.2092859434474816
  0.4777289994674185  0.2563656741882561  0.2456265262772051
  0.3442039525716472  0.2050538694612552  0.2092866918207541
  0.4109672440981159  0.2691571710905266  0.2819647112890201
  0.4999688799969232  0.2432819501523078  0.4273212321584616
  0.4777225968562625  0.2818069363304860  0.4273229953453694
  0.5444858883827312  0.3459102379597574  0.5000010148136353
  0.6557538585135722  0.3587030966805639  0.5363415976433590
  0.5222288116178010  0.3073912919535629  0.5000017631869079
  0.5889813095200002  0.2944506613984616  0.5726787678415386
  0.5889921031442696  0.3714945935828343  0.5726797826551739
  0.6334875242815385  0.3200350170215385  0.6453575356830770
  0.5666959332658796  0.0505248377144100  0.5363415976433590
  0.4331828606593396  0.0506732421058706  0.4273229953453694
  0.4776890754208781  0.0762575977289475  0.5000017631869079
  0.5221952901824166  0.1018419533520245  0.5726805310284465
  0.4109456969519624  0.1150680416074496  0.2819647112890201
  0.5222136670828029  0.1278609003282561  0.3183052941187436
  0.4331948349485701  0.1021334512243319  0.3546442275038310
  0.4999581264750395  0.1662367528536037  0.4273222469720970
  0.4777010497101084  0.1277178068474089  0.4273229953453694
  0.5889705559981164  0.2174054640997576  0.5726797826551739
  0.7002385261289568  0.2301983228205637  0.6090203654848974
  0.6557442856566494  0.2560741763159484  0.4636628298018206
  0.5889825302873472  0.2688656732182190  0.5000010148136353
  0.6112316682839550  0.2559310828351012  0.5726805310284465
  0.6779841661861541  0.2429904522800000  0.6453575356830770
  0.5667438304228031  0.2563656741882561  0.2456265262772051
  0.5889837109523079  0.2432819501523078  0.4273212321584616
  0.5889945045765781  0.3203258823366805  0.4273222469720970
  0.5667374278116473  0.2818069363304860  0.4273229953453694
  0.6335007193381161  0.3459102379597574  0.5000010148136353
  0.7447686894689569  0.3587030966805639  0.5363415976433590
  0.6112436425731858  0.3073912919535629  0.5000017631869079
  0.5889490088519621  0.0633163346166807  0.5726797826551739
  0.5444547683796548  0.0891921881120653  0.4273222469720970
  0.5221976916147240  0.0506732421058706  0.4273229953453694
  0.7002289532720338  0.1275694024559485  0.5363415976433590
  0.6334671979027318  0.1403608993582191  0.5726797826551739
  0.6112101211378012  0.1018419533520245  0.5726805310284465
  0.6557347127997263  0.1534452559513330  0.3909840619602820
  0.5222096659039549  0.1021334512243319  0.3546442275038310
  0.5889729574304240  0.1662367528536037  0.4273222469720970
  0.5667158806654932  0.1277178068474089  0.4273229953453694
  0.6779853869535007  0.2174054640997576  0.5726797826551739
  0.7892533570843415  0.2301983228205637  0.6090203654848974
  0.6557283101885704  0.1788865180935628  0.5726805310284465
  0.5444679233338466  0.1150686741646156  0.2819636964753848
  0.6557466870889571  0.2049054650697947  0.3183052941187436
  0.5889741380953850  0.1406530297876923  0.3546424643169232
  0.5889849317196549  0.2176969619720651  0.3546434791305585
  0.5667278549547241  0.1791780159658704  0.3546442275038310
  0.6334911464811934  0.2432813175951423  0.4273222469720970
  0.7447591166120342  0.2560741763159484  0.4636628298018206
  0.6112340697162624  0.2047623715889474  0.4273229953453694
  0.6779973612427317  0.2688656732182190  0.5000010148136353
  0.6557402844778011  0.2303467272120243  0.5000017631869079
  0.8337715461351107  0.3072428875621024  0.6090203654848974
  0.6557586613781876  0.2563656741882561  0.2456265262772051
  0.5222336144824165  0.2050538694612552  0.2092866918207541
  0.5889861123846160  0.1921132389061541  0.2819636964753848
  0.5889969060088854  0.2691571710905266  0.2819647112890201
  0.6335031207704239  0.2947415267136037  0.3546434791305585
  0.6112460440054933  0.2562225807074089  0.3546442275038310
  0.7225155502935007  0.3459102379597574  0.5000010148136353
  0.8337835204243412  0.3587030966805639  0.5363415976433590
  0.7002584735285703  0.3073912919535629  0.5000017631869079
  0.7670217650550391  0.3714945935828343  0.5726797826551739
  0.8115171861923081  0.3200350170215385  0.6453575356830770
  0.1216959927843415  0.6154211465282556  0.6090203654848974
  0.0772017523120337  0.6412970000236407  0.4636628298018206
  0.0994416328415385  0.6282132759876922  0.6453575356830770
  0.0994536071307695  0.6796734851061541  0.5726787678415386
  0.2107443451751106  0.8209704851297945  0.5363415976433590
  0.1439717961815385  0.7567180498476922  0.5726787678415386
  0.1884780109430770  0.7823024054707691  0.6453575356830770
  0.1216744456381876  0.4613320170451790  0.6090203654848974
  0.1216864199274185  0.5127922261636408  0.5363415976433590
  0.0994200856953849  0.4741241465046154  0.6453575356830770
  0.1216983942166490  0.5642524352821021  0.4636628298018206
  0.0549258452230771  0.5000000000000000  0.5000000000000000
  0.0549366388473472  0.5770439321843727  0.5000010148136353
  0.0994320599846154  0.5255843556230769  0.5726787678415386
  0.0994428536088855  0.6026282878074498  0.5726797826551739
  0.0771857768439551  0.5641093418012553  0.5726805310284465
  0.0549378195123078  0.5514602091184615  0.4273212321584616
  0.1662165832674184  0.6412970000236407  0.4636628298018206
  0.0771977511331858  0.6155695509197165  0.5000017631869079
  0.2552290127904953  0.6924657112697943  0.6090203654848974
  0.1217039658947245  0.6411539065427935  0.5726805310284465
  0.1884564637969231  0.6282132759876922  0.6453575356830770
  0.0994560085630770  0.6285047738600000  0.4273212321584616
  0.0994668021873471  0.7055487060443728  0.4273222469720970
  0.2552409870797261  0.7439259203882562  0.5363415976433590
  0.1884792317104239  0.7567174172905268  0.5726797826551739
  0.2997472018412647  0.7695102760113328  0.6090203654848974
  0.1662405318458798  0.7442174182605639  0.3183052941187436
  0.1439741976138462  0.7055493386015385  0.4273212321584616
  0.1439849912381163  0.7825932707859111  0.4273222469720970
  0.1662341292347242  0.7696586804027937  0.5000017631869079
  0.2107403439962630  0.7952430360258707  0.5726805310284465
  0.2774928418984617  0.7823024054707691  0.6453575356830770
  0.1217199413628033  0.7183415647651793  0.4636628298018206
  0.1217103685058799  0.6157126444005638  0.3909840619602820
  0.2997591761304952  0.8209704851297945  0.5363415976433590
  0.1216768470704955  0.4101633057990254  0.4636628298018206
  0.1661830618320339  0.4357476614221023  0.5363415976433590
  0.2774892926735010  0.5517510744336035  0.2092859434474816
  0.2552322159085704  0.5132321284274091  0.2092866918207541
  0.4332634775658799  0.5901282887774869  0.3183052941187436
  0.2997384306701089  0.5388164840504859  0.2819654596622925
  0.3665017221965780  0.6029197856797573  0.3546434791305585
  0.3442446454316474  0.5644008396735628  0.3546442275038310
  0.5222759070889571  0.6412970000236407  0.4636628298018206
  0.6112883366120339  0.6924657112697943  0.6090203654848974
  0.4332754518551107  0.6415884978959484  0.2456265262772051
  0.2997504049593396  0.5902766931689474  0.2092866918207541
  0.3665136964858085  0.6543799947982187  0.2819647112890201
  0.4110199112473472  0.6799643504212957  0.3546434791305585
  0.5222878813781878  0.6927572091421021  0.3909840619602820
  0.3887628344824167  0.6414454044151011  0.3546442275038310
  0.4555153323846156  0.6285047738600000  0.4273212321584616
  0.4555261260088858  0.7055487060443728  0.4273222469720970
  0.4332690492439547  0.6670297600381780  0.4273229953453694
  0.5000215471461541  0.6540891294830770  0.5000000000000000
  0.6113003109012648  0.7439259203882562  0.5363415976433590
  0.4777752640054935  0.6926141156612552  0.5000017631869079
  0.5445385555319626  0.7567174172905268  0.5726797826551739
  0.4110318855365777  0.7314245595397574  0.2819647112890201
  0.3887748087716473  0.6929056135335628  0.2819654596622925
  0.5000335214353848  0.7055493386015385  0.4273212321584616
  0.6113122851904955  0.7953861295067176  0.4636628298018206
  0.4777872382947239  0.7440743247797166  0.4273229953453694
  0.5445397361969233  0.7311336942246154  0.5000000000000000
  0.5445505298211930  0.8081776264089880  0.5000010148136353
  0.5222934530562624  0.7696586804027937  0.5000017631869079
  0.5667996678178014  0.7952430360258707  0.5726805310284465
  0.6335521657200004  0.7823024054707691  0.6453575356830770
  0.2329495564765777  0.3206173802089882  0.2092859434474816
  0.3442175266074189  0.3334102389297945  0.2456265262772051
  0.3219511923753848  0.2947421592707693  0.3546424643169232
  0.3219619859996549  0.3717860914551418  0.3546434791305585
  0.4332299561304950  0.3845789501759485  0.3909840619602820
  0.2997049092347241  0.3332671454489475  0.3546442275038310
  0.3664574071369233  0.3203265148938462  0.4273212321584616
  0.5222423856535723  0.4357476614221023  0.5363415976433590
  0.3887173387578011  0.3844358566951015  0.5000017631869079
  0.4554698366600003  0.3714952261400000  0.5726787678415386
  0.4554806302842700  0.4485391583243729  0.5726797826551739
  0.4999760514215386  0.3970795817630768  0.6453575356830770
  0.2774677455273471  0.3976619449505266  0.2092859434474816
  0.2552106687624165  0.3591429989443320  0.2092866918207541
  0.3219631666646157  0.3462023683892308  0.2819636964753848
  0.4332419304197261  0.4360391592944100  0.3183052941187436
  0.2997168835239550  0.3847273545674090  0.2819654596622925
  0.3664693814261544  0.3717867240123077  0.3546424643169232
  0.5222543599428037  0.4872078705405637  0.4636628298018206
  0.4554818109492312  0.4229554352584617  0.5000000000000000
  0.6112667894658798  0.5383765817867175  0.6090203654848974
  0.4777417425701091  0.4870647770597167  0.5726805310284465
  0.3219859345781163  0.4747065096920652  0.2092859434474816
  0.4332539047089571  0.4874993684128714  0.2456265262772051
  0.2997288578131857  0.4361875636858704  0.2092866918207541
  0.3664921493396548  0.5002908653151420  0.2819647112890201
  0.4109875704769234  0.4488312887538463  0.3546424643169232
  0.4109983641011931  0.5258752209382187  0.3546434791305585
  0.5222663342320339  0.5386680796590252  0.3909840619602820
  0.3887412873362627  0.4873562749320242  0.3546442275038310
  0.4554937852384620  0.4744156443769231  0.4273212321584616
  0.4555045788627321  0.5514595765612959  0.4273222469720970
  0.4332475020978011  0.5129406305551011  0.4273229953453694
  0.5000107936242701  0.5770439321843727  0.5000010148136353
  0.6112787637551107  0.5898367909051793  0.5363415976433590
  0.5445170083858085  0.6026282878074498  0.5726797826551739
  0.5890124295230773  0.5511687112461539  0.6453575356830770
  0.3665041236288855  0.5517510744336035  0.2092859434474816
  0.4109995447661541  0.5002914978723078  0.2819636964753848
  0.4110103383904241  0.5773354300566804  0.2819647112890201
  0.5222783085212648  0.5901282887774869  0.3183052941187436
  0.3887532616254935  0.5388164840504859  0.2819654596622925
  0.4332594763870320  0.5644008396735628  0.3546442275038310
  0.5000119742892309  0.5514602091184615  0.4273212321584616
  0.5000227679135015  0.6285041413028344  0.4273222469720970
  0.6112907380443414  0.6412970000236407  0.4636628298018206
  0.5890244038123080  0.6026289203646155  0.5726787678415386
  0.5890351974365777  0.6796728525489882  0.5726797826551739
  0.7003031675674183  0.6924657112697943  0.6090203654848974
  0.5667781206716473  0.6411539065427935  0.5726805310284465
  0.5222902828104955  0.6415884978959484  0.2456265262772051
  0.3887652359147244  0.5902766931689474  0.2092866918207541
  0.4555285274411933  0.6543799947982187  0.2819647112890201
  0.5000239485784619  0.6029204182369232  0.3546424643169232
  0.5000347422027316  0.6799643504212957  0.3546434791305585
  0.6113027123335724  0.6927572091421021  0.3909840619602820
  0.4777776654378012  0.6414454044151011  0.3546442275038310
  0.5890363781015384  0.6540891294830770  0.5000000000000000
  0.7003151418566491  0.7439259203882562  0.5363415976433590
  0.5667900949608780  0.6926141156612552  0.5000017631869079
  0.6335425928630772  0.6796734851061541  0.5726787678415386
  0.6335533864873469  0.7567174172905268  0.5726797826551739
  0.5000359228676926  0.6543806273553847  0.2819636964753848
  0.5000467164919625  0.7314245595397574  0.2819647112890201
  0.6113146866228031  0.7442174182605639  0.3183052941187436
  0.4777896397270319  0.6929056135335628  0.2819654596622925
  0.5890483523907694  0.7055493386015385  0.4273212321584616
  0.5890591460150397  0.7825932707859111  0.4273222469720970
  0.7003271161458803  0.7953861295067176  0.4636628298018206
  0.5668020692501087  0.7440743247797166  0.4273229953453694
  0.6335545671523077  0.7311336942246154  0.5000000000000000
  0.6335653607765779  0.8081776264089880  0.5000010148136353
  0.6558144987731858  0.7952430360258707  0.5726805310284465
  0.7225669966753847  0.7823024054707691  0.6453575356830770
  0.3219643874319624  0.3206173802089882  0.2092859434474816
  0.4332323575628032  0.3334102389297945  0.2456265262772051
  0.2997073106670318  0.2820984342027937  0.2092866918207541
  0.5222447870858800  0.3845789501759485  0.3909840619602820
  0.3887197401901089  0.3332671454489475  0.3546442275038310
  0.4554722380923076  0.3203265148938462  0.4273212321584616
  0.4554830317165780  0.3973704470782189  0.4273222469720970
  0.6112572166089570  0.4357476614221023  0.5363415976433590
  0.4777321697131859  0.3844358566951015  0.5000017631869079
  0.5444846676153846  0.3714952261400000  0.5726787678415386
  0.5444954612396548  0.4485391583243729  0.5726797826551739
  0.5889908823769232  0.3970795817630768  0.6453575356830770
  0.4109779976200005  0.3462023683892308  0.2819636964753848
  0.4109887912442700  0.4232463005736035  0.2819647112890201
  0.3887317144793396  0.3847273545674090  0.2819654596622925
  0.4554842123815387  0.3717867240123077  0.3546424643169232
  0.4777441440024166  0.4358960658135627  0.4273229953453694
  0.5444966419046156  0.4229554352584617  0.5000000000000000
  0.5445074355288859  0.4999993674428344  0.5000010148136353
  0.6557754056597265  0.5127922261636408  0.5363415976433590
  0.7002816204212647  0.5383765817867175  0.6090203654848974
  0.5667565735254937  0.4870647770597167  0.5726805310284465
  0.4110007655335008  0.4747065096920652  0.2092859434474816
  0.5222687356643414  0.4874993684128714  0.2456265262772051
  0.3887436887685703  0.4361875636858704  0.2092866918207541
  0.5000024014323078  0.4488312887538463  0.3546424643169232
  0.5000131950565779  0.5258752209382187  0.3546434791305585
  0.4777561182916473  0.4873562749320242  0.3546442275038310
  0.5445086161938465  0.4744156443769231  0.4273212321584616
  0.5890148309553848  0.5000000000000000  0.5000000000000000
  0.5890256245796549  0.5770439321843727  0.5000010148136353
  0.7002935947104955  0.5898367909051793  0.5363415976433590
  0.5667685478147243  0.5385249861781782  0.5000017631869079
  0.7447998094720338  0.6154211465282556  0.6090203654848974
  0.6780272604784618  0.5511687112461539  0.6453575356830770
  0.4555189545842703  0.5517510744336035  0.2092859434474816
  0.5000143757215390  0.5002914978723078  0.2819636964753848
  0.5000251693458087  0.5773354300566804  0.2819647112890201
  0.6112931394766492  0.5901282887774869  0.3183052941187436
  0.4777680925808778  0.5388164840504859  0.2819654596622925
  0.5445205904830770  0.5258758534953843  0.3546424643169232
  0.5890268052446155  0.5514602091184615  0.4273212321584616
  0.5890375988688858  0.6285041413028344  0.4273222469720970
  0.7003055689997262  0.6412970000236407  0.4636628298018206
  0.5667805221039550  0.5899851952966397  0.4273229953453694
  0.6335438136304241  0.6540884969259113  0.5000010148136353
  0.6780392347676921  0.6026289203646155  0.5726787678415386
  0.6557929516270321  0.6411539065427935  0.5726805310284465
  0.6113051137658798  0.6415884978959484  0.2456265262772051
  0.4777800668701089  0.5902766931689474  0.2092866918207541
  0.5890495731581163  0.6799643504212957  0.3546434791305585
  0.7003175432889569  0.6927572091421021  0.3909840619602820
  0.5667924963931857  0.6414454044151011  0.3546442275038310
  0.6335557879196548  0.7055487060443728  0.4273222469720970
  0.7893299728120343  0.7439259203882562  0.5363415976433590
  0.6558049259162628  0.6926141156612552  0.5000017631869079
  0.7225574238184620  0.6796734851061541  0.5726787678415386
  0.7225682174427319  0.7567174172905268  0.5726797826551739
  0.7670636385800003  0.7052578407292307  0.6453575356830770
  0.5445553326858086  0.7058402039166805  0.2092859434474816
  0.5890507538230774  0.6543806273553847  0.2819636964753848
  0.5890615474473473  0.7314245595397574  0.2819647112890201
  0.5668044706824167  0.6929056135335628  0.2819654596622925
  0.6335677622088856  0.7570089151628341  0.3546434791305585
  0.7893419471012644  0.7953861295067176  0.4636628298018206
  0.6558169002054934  0.7440743247797166  0.4273229953453694
  0.7225693981076923  0.7311336942246154  0.5000000000000000
  0.8115818276307695  0.7823024054707691  0.6453575356830770
  0.5222998556674184  0.7442174182605639  0.3183052941187436
  0.7003247147135724  0.8465548407528715  0.6090203654848974
  0.4109755961876925  0.3973710796353845  0.4273212321584616
  0.5890136502904241  0.5255837230659113  0.5726797826551739
  0.5667749504258799  0.5130837240359484  0.3183052941187436
  0.7893179985228030  0.6924657112697943  0.6090203654848974
  0.5890387795338469  0.6029204182369232  0.3546424643169232
  0.7003295175781878  0.7442174182605639  0.3183052941187436
  0.7225801917319629  0.8081776264089880  0.5000010148136353
  0.7448293297285703  0.7952430360258707  0.5726805310284465
  0.0994105128384617  0.3714952261400000  0.5726787678415386
  0.0994213064627314  0.4485391583243729  0.5726797826551739
  0.1439167276000002  0.3970795817630768  0.6453575356830770
  0.0994224871276926  0.4229554352584617  0.5000000000000000
  0.0994332807519627  0.4999993674428344  0.5000010148136353
  0.1439287018892309  0.4485397908815386  0.5726787678415386
  0.1216824187485709  0.4870647770597167  0.5726805310284465
  0.0994452550411934  0.5514595765612959  0.4273222469720970
  0.1884468909400001  0.5255843556230769  0.5726787678415386
  0.1884576845642700  0.6026282878074498  0.5726797826551739
  0.2997256546951108  0.6154211465282556  0.6090203654848974
  0.2329531057015388  0.5511687112461539  0.6453575356830770
  0.1662189846997262  0.5901282887774869  0.3183052941187436
  0.1439634440919627  0.6285041413028344  0.4273222469720970
  0.1217063673270316  0.5899851952966397  0.4273229953453694
  0.1884696588535009  0.6540884969259113  0.5000010148136353
  0.1439646247569235  0.6029204182369232  0.3546424643169232
  0.1439754183811929  0.6799643504212957  0.3546434791305585
  0.1217183416162625  0.6414454044151011  0.3546442275038310
  0.1884708395184617  0.6285047738600000  0.4273212321584616
  0.1884816331427317  0.7055487060443728  0.4273222469720970
  0.2107307711393396  0.6926141156612552  0.5000017631869079
  0.2774940626658085  0.7567174172905268  0.5726797826551739
  0.2107491480397263  0.7186330626374867  0.2456265262772051
  0.1439765990461541  0.6543806273553847  0.2819636964753848
  0.1884828138076924  0.6799649829784615  0.3546424643169232
  0.1884936074319624  0.7570089151628341  0.3546434791305585
  0.2997615775628031  0.7698017738836408  0.3909840619602820
  0.2329890285692310  0.7055493386015385  0.4273212321584616
  0.2107427454285700  0.7440743247797166  0.4273229953453694
  0.2774952433307695  0.7311336942246154  0.5000000000000000
  0.2775060369550392  0.8081776264089880  0.5000010148136353
  0.3887740070858802  0.8209704851297945  0.5363415976433590
  0.2997551749516476  0.7952430360258707  0.5726805310284465
  0.3665076728538465  0.7823024054707691  0.6453575356830770
  0.1439191290323079  0.3459108705169231  0.5000000000000000
  0.1439299226565779  0.4229548027012960  0.5000010148136353
  0.2107036523151108  0.4616235149174869  0.3909840619602820
  0.0771786054193397  0.4103117101904858  0.3546442275038310
  0.1439418969458086  0.4744150118197575  0.4273222469720970
  0.1216848201808780  0.4358960658135627  0.4273229953453694
  0.2329435328446159  0.4485397908815386  0.5726787678415386
  0.2106972497039552  0.4870647770597167  0.5726805310284465
  0.2997280561274188  0.5642524352821021  0.4636628298018206
  0.1662030092316472  0.5129406305551011  0.4273229953453694
  0.3887404856504958  0.6154211465282556  0.6090203654848974
  0.1439658455242704  0.5773354300566804  0.2819647112890201
  0.2997400304166493  0.6157126444005638  0.3909840619602820
  0.2329782750473474  0.6285041413028344  0.4273222469720970
  0.3219799109461541  0.6026289203646155  0.5726787678415386
  0.3442582194674185  0.6927572091421021  0.3909840619602820
  0.2107331725716471  0.6414454044151011  0.3546442275038310
  0.2774856704738465  0.6285047738600000  0.4273212321584616
  0.2552393873331856  0.6670297600381780  0.4273229953453694
  0.3219918852353850  0.6540891294830770  0.5000000000000000
  0.4332706489904953  0.7439259203882562  0.5363415976433590
  0.2997456020947241  0.6926141156612552  0.5000017631869079
  0.3664980999969233  0.6796734851061541  0.5726787678415386
  0.3665088936211933  0.7567174172905268  0.5726797826551739
  0.3442518168562627  0.7181984712843320  0.5726805310284465
  0.4110043147584618  0.7052578407292307  0.6453575356830770
  0.3442701937566490  0.7442174182605639  0.3183052941187436
  0.2775084383873469  0.7570089151628341  0.3546434791305585
  0.3665208679104239  0.8081776264089880  0.5000010148136353
  0.4777888380412643  0.8209704851297945  0.5363415976433590
  0.1661878646966493  0.3334102389297945  0.2456265262772051
  0.1439215304646157  0.2947421592707693  0.3546424643169232
  0.2552002942197261  0.3845789501759485  0.3909840619602820
  0.2997065089812647  0.4101633057990254  0.4636628298018206
  0.2774401747492308  0.3714952261400000  0.5726787678415386
  0.2551938916085705  0.4100202123181781  0.5726805310284465
  0.3219463895107695  0.3970795817630768  0.6453575356830770
  0.2107060537474185  0.4104548036713331  0.2456265262772051
  0.3442246980320339  0.4872078705405637  0.4636628298018206
  0.3219691574242701  0.5255837230659113  0.5726797826551739
  0.3664645785615387  0.4741241465046154  0.6453575356830770
  0.2552242427981876  0.4874993684128714  0.2456265262772051
  0.2329579085661541  0.4488312887538463  0.3546424643169232
  0.2774641233276926  0.4744156443769231  0.4273212321584616
  0.2774749169519623  0.5514595765612959  0.4273222469720970
  0.3887428870828031  0.5642524352821021  0.4636628298018206
  0.2552178401870320  0.5129406305551011  0.4273229953453694
  0.3219811317135006  0.5770439321843727  0.5000010148136353
  0.3664765528507692  0.5255843556230769  0.5726787678415386
  0.3664873464750394  0.6026282878074498  0.5726797826551739
  0.3442302697101090  0.5641093418012553  0.5726805310284465
  0.4109827676123080  0.5511687112461539  0.6453575356830770
  0.2997424318489570  0.5645439331544098  0.2456265262772051
  0.1662173849531854  0.5132321284274091  0.2092866918207541
  0.2329698828553850  0.5002914978723078  0.2819636964753848
  0.2107235997147241  0.5388164840504859  0.2819654596622925
  0.3887548613720338  0.6157126444005638  0.3909840619602820
  0.3664885271400001  0.5770445647415386  0.5000000000000000
  0.3664993207642701  0.6540884969259113  0.5000010148136353
  0.3442422439993397  0.6155695509197165  0.5000017631869079
  0.4555009566630772  0.6282132759876922  0.6453575356830770
  0.3442606208997262  0.6415884978959484  0.2456265262772051
  0.3220050802919625  0.6799643504212957  0.3546434791305585
  0.4332730504228030  0.6927572091421021  0.3909840619602820
  0.3665005014292311  0.6285047738600000  0.4273212321584616
  0.3442542182885704  0.6670297600381780  0.4273229953453694
  0.4110175098150395  0.7311330616674498  0.5000010148136353
  0.5222854799458800  0.7439259203882562  0.5363415976433590
  0.3887604330501091  0.6926141156612552  0.5000017631869079
  0.2775108398196546  0.7058402039166805  0.2092859434474816
  0.2552537630547241  0.6673212579104858  0.2092866918207541
  0.4332850247120340  0.7442174182605639  0.3183052941187436
  0.3665124757184617  0.6799649829784615  0.3546424643169232
  0.3665232693427317  0.7570089151628341  0.3546434791305585
  0.4777912394735722  0.7698017738836408  0.3909840619602820
  0.4332786221008781  0.7696586804027937  0.5000017631869079
  0.5000419136273471  0.8337619820320651  0.5726797826551739
  0.6113098837581877  0.8465548407528715  0.6090203654848974
  0.5445373347646156  0.7823024054707691  0.6453575356830770
  0.2552026956520339  0.3334102389297945  0.2456265262772051
  0.2329363614200002  0.2947421592707693  0.3546424643169232
  0.2329471550442701  0.3717860914551418  0.3546434791305585
  0.2106900782793396  0.3332671454489475  0.3546442275038310
  0.2774533698058091  0.3973704470782189  0.4273222469720970
  0.4332275546981877  0.4357476614221023  0.5363415976433590
  0.2997025078024166  0.3844358566951015  0.5000017631869079
  0.3664550057046155  0.3714952261400000  0.5726787678415386
  0.3664657993288855  0.4485391583243729  0.5726797826551739
  0.3442087225639551  0.4100202123181781  0.5726805310284465
  0.4109612204661541  0.3970795817630768  0.6453575356830770
  0.2329483357092312  0.3462023683892308  0.2819636964753848
  0.2329591293335009  0.4232463005736035  0.2819647112890201
  0.2552082673301088  0.4103117101904858  0.3546442275038310
  0.3887269116147246  0.4870647770597167  0.5726805310284465
  0.2329711036227315  0.4747065096920652  0.2092859434474816
  0.3442390737535723  0.4874993684128714  0.2456265262772051
  0.3219835331458086  0.5258752209382187  0.3546434791305585
  0.3664897479073473  0.5514595765612959  0.4273222469720970
  0.4777577180381878  0.5642524352821021  0.4636628298018206
  0.3442326711424163  0.5129406305551011  0.4273229953453694
  0.5222639327997262  0.5898367909051793  0.5363415976433590
  0.3887221416224166  0.2820984342027937  0.2092866918207541
  0.4554746395246158  0.2691578036476924  0.2819636964753848
  0.4999808542861541  0.2947421592707693  0.3546424643169232
  0.4999916479104242  0.3717860914551418  0.3546434791305585
  0.4777345711454932  0.3332671454489475  0.3546442275038310
  0.6557658328028033  0.4101633057990254  0.4636628298018206
  0.5222407859070315  0.3588515010720243  0.4273229953453694
  0.5890040774335008  0.4229548027012960  0.5000010148136353
  0.7893212016408782  0.5132321284274091  0.2092866918207541
  0.8560736995430773  0.5002914978723078  0.2819636964753848
  0.8560844931673475  0.5773354300566804  0.2819647112890201
  0.9005799143046156  0.5258758534953843  0.3546424643169232
  0.9450861290661540  0.5514602091184615  0.4273212321584616
  0.9228398459254935  0.5899851952966397  0.4273229953453694
  0.8338393906916474  0.5902766931689474  0.2092866918207541
  0.7670385422088855  0.3206173802089882  0.2092859434474816
  0.7447814654439553  0.2820984342027937  0.2092866918207541
  0.8560401781076923  0.2947421592707693  0.3546424643169232
  0.9450634012550395  0.4229548027012960  0.5000010148136353
  0.8115567312596547  0.3976619449505266  0.2092859434474816
  0.7892996544947245  0.3591429989443320  0.2092866918207541
  0.8560521523969232  0.3462023683892308  0.2819636964753848
  0.8560629460211934  0.4232463005736035  0.2819647112890201
  0.8338058692562632  0.3847273545674090  0.2819654596622925
  0.8783120840178015  0.4103117101904858  0.3546442275038310
  0.9228182987793402  0.4358960658135627  0.4273229953453694
  0.8560749203104239  0.4747065096920652  0.2092859434474816
  0.5667470006685704  0.3844358566951015  0.5000017631869079
  0.6334994985707695  0.3714952261400000  0.5726787678415386
  0.4999928285753852  0.3462023683892308  0.2819636964753848
  0.5000036221996549  0.4232463005736035  0.2819647112890201
  0.4777465454347243  0.3847273545674090  0.2819654596622925
  0.5890052580984620  0.3973710796353845  0.4273212321584616
  0.5667589749578009  0.4358960658135627  0.4273229953453694
  0.7447902366151110  0.5127922261636408  0.5363415976433590
  0.6112651897193396  0.4614804214366396  0.5000017631869079
  0.7892964513766494  0.5383765817867175  0.6090203654848974
  0.5000155964888856  0.4747065096920652  0.2092859434474816
  0.6112835666197262  0.4874993684128714  0.2456265262772051
  0.4777585197239551  0.4361875636858704  0.2092866918207541
  0.6557897813812646  0.5130837240359484  0.3183052941187436
  0.5222647344854936  0.4617719193089473  0.2819654596622925
  0.7448022109043415  0.5642524352821021  0.4636628298018206
  0.6780296619107695  0.5000000000000000  0.5000000000000000
  0.6780404555350392  0.5770439321843727  0.5000010148136353
  0.7225466702965776  0.6026282878074498  0.5726797826551739
  0.8338146404274186  0.6154211465282556  0.6090203654848974
  0.7002895935316477  0.5641093418012553  0.5726805310284465
  0.7670420914338466  0.5511687112461539  0.6453575356830770
  0.6558017556704956  0.5645439331544098  0.2456265262772051
  0.5222767087747242  0.5132321284274091  0.2092866918207541
  0.5890292066769237  0.5002914978723078  0.2819636964753848
  0.5890400003011932  0.5773354300566804  0.2819647112890201
  0.7448141851935725  0.6157126444005638  0.3909840619602820
  0.6112891382978013  0.5644008396735628  0.3546442275038310
  0.6780416362000002  0.5514602091184615  0.4273212321584616
  0.6780524298242704  0.6285041413028344  0.4273222469720970
  0.7003015678208782  0.6155695509197165  0.5000017631869079
  0.5667948978254937  0.5902766931689474  0.2092866918207541
  0.6335473957276929  0.5773360626138461  0.2819636964753848
  0.6335581893519624  0.6543799947982187  0.2819647112890201
  0.6113011125870320  0.6158610487920243  0.2819654596622925
  0.6780644041135009  0.6799643504212957  0.3546434791305585
  0.7893323742443412  0.6927572091421021  0.3909840619602820
  0.6558073273485701  0.6414454044151011  0.3546442275038310
  0.7670768336365777  0.7311330616674498  0.5000010148136353
  0.7893259716331859  0.7181984712843320  0.5726805310284465
  0.6335701636411933  0.7058402039166805  0.2092859434474816
  0.7893443485335726  0.7442174182605639  0.3183052941187436
  0.6558193016378012  0.6929056135335628  0.2819654596622925
  0.7670888079258086  0.7825932707859111  0.4273222469720970
  0.7448317311608776  0.7440743247797166  0.4273229953453694
  0.8560904438246155  0.7567180498476922  0.5726787678415386
  0.8338441606839551  0.7952430360258707  0.5726805310284465
  0.4999940493427317  0.3206173802089882  0.2092859434474816
  0.4777369725778010  0.2820984342027937  0.2092866918207541
  0.5222431873393395  0.3076827898258706  0.2819654596622925
  0.6335126936273475  0.3973704470782189  0.4273222469720970
  0.7447806637581879  0.4101633057990254  0.4636628298018206
  0.6780081147646156  0.3459108705169231  0.5000000000000000
  0.6780189083888856  0.4229548027012960  0.5000010148136353
  0.8337930932812645  0.4613320170451790  0.6090203654848974
  0.5890076595307703  0.3462023683892308  0.2819636964753848
  0.7002800206747243  0.4614804214366396  0.5000017631869079
  0.7670433122011932  0.5255837230659113  0.5726797826551739
  0.8783112823320346  0.5383765817867175  0.6090203654848974
  0.5890304274442701  0.4747065096920652  0.2092859434474816
  0.7002983975751111  0.4874993684128714  0.2456265262772051
  0.6112795654408781  0.4617719193089473  0.2819654596622925
  0.6780428569673470  0.5258752209382187  0.3546434791305585
  0.7002919949639549  0.5129406305551011  0.4273229953453694
  0.7670444928661544  0.5000000000000000  0.5000000000000000
  0.7670552864904241  0.5770439321843727  0.5000010148136353
  0.7893044244870322  0.5641093418012553  0.5726805310284465
  0.7448165866258806  0.5645439331544098  0.2456265262772051
  0.6780440376323082  0.5002914978723078  0.2819636964753848
  0.7225502523938467  0.5258758534953843  0.3546424643169232
  0.7225610460181164  0.6029197856797573  0.3546434791305585
  0.8338290161489568  0.6157126444005638  0.3909840619602820
  0.7003039692531858  0.5644008396735628  0.3546442275038310
  0.7670564671553848  0.5514602091184615  0.4273212321584616
  0.8783352309104955  0.6412970000236407  0.4636628298018206
  0.7448101840147243  0.5899851952966397  0.4273229953453694
  0.8115626819169232  0.5770445647415386  0.5000000000000000
  0.8560688966784619  0.6026289203646155  0.5726787678415386
  0.7893347756766494  0.6415884978959484  0.2456265262772051
  0.6558097287808781  0.5902766931689474  0.2092866918207541
  0.7225622266830779  0.5773360626138461  0.2819636964753848
  0.7225730203073472  0.6543799947982187  0.2819647112890201
  0.7003159435424163  0.6158610487920243  0.2819654596622925
  0.8783472051997260  0.6927572091421021  0.3909840619602820
  0.8115854498304241  0.7055487060443728  0.4273222469720970
  0.7225849945965779  0.7058402039166805  0.2092859434474816
  0.7670912093581164  0.7314245595397574  0.2819647112890201
  0.7448341325931853  0.6929056135335628  0.2819654596622925
  0.7893403473547240  0.7184899691566398  0.3546442275038310
  0.8560928452569233  0.7055493386015385  0.4273212321584616
  0.6112580182947243  0.3076827898258706  0.2819654596622925
  0.6780213098211934  0.3717860914551418  0.3546434791305585
  0.7892892799520339  0.3845789501759485  0.3909840619602820
  0.8337954947135726  0.4101633057990254  0.4636628298018206
  0.7670229457200002  0.3459108705169231  0.5000000000000000
  0.8115291604815386  0.3714952261400000  0.5726787678415386
  0.8115399541058087  0.4485391583243729  0.5726797826551739
  0.7893012542412648  0.4360391592944100  0.3183052941187436
  0.7225287052476926  0.3717867240123077  0.3546424643169232
  0.7670349200092311  0.3973710796353845  0.4273212321584616
  0.8115411347707695  0.4229554352584617  0.5000000000000000
  0.7892948516301090  0.4614804214366396  0.5000017631869079
  0.7893132285304957  0.4874993684128714  0.2456265262772051
  0.7225406795369236  0.4232469331307694  0.2819636964753848
  0.7002943963962627  0.4617719193089473  0.2819654596622925
  0.8783256580535723  0.5386680796590252  0.3909840619602820
  0.8560701174458089  0.5770439321843727  0.5000010148136353
  0.9005763322073471  0.6026282878074498  0.5726797826551739
  0.8783192554424165  0.5641093418012553  0.5726805310284465
  0.8338314175812650  0.5645439331544098  0.2456265262772051
  0.8783376323428037  0.5901282887774869  0.3183052941187436
  0.8560820917350394  0.6285041413028344  0.4273222469720970
  0.8783312297316475  0.6155695509197165  0.5000017631869079
  0.7670816365011932  0.6287956391751421  0.2092859434474816
  0.7448245597362626  0.5902766931689474  0.2092866918207541
  0.8560832724000000  0.6029204182369232  0.3546424643169232
  0.8560952466892310  0.6543806273553847  0.2819636964753848
  0.8338489635485705  0.6929056135335628  0.2819654596622925
  0.8783551783101088  0.7184899691566398  0.3546442275038310
  0.7225299260150396  0.3462017358320651  0.2819647112890201
  0.7002728492501086  0.3076827898258706  0.2819654596622925
  0.8783041109074187  0.3845789501759485  0.3909840619602820
  0.9228103256689569  0.4101633057990254  0.4636628298018206
  0.7670481150658091  0.4232463005736035  0.2819647112890201
  0.8783160851966492  0.4360391592944100  0.3183052941187436
  0.7447910383008780  0.3847273545674090  0.2819654596622925
  0.7892972530624167  0.4103117101904858  0.3546442275038310
  0.8560497509646154  0.3973710796353845  0.4273212321584616
  0.8338034678239550  0.4358960658135627  0.4273229953453694
  0.9450621804876925  0.4485397908815386  0.5726787678415386
  0.7670600893550396  0.4747065096920652  0.2092859434474816
  0.8783280594858801  0.4874993684128714  0.2456265262772051
  0.9228342742474184  0.5130837240359484  0.3183052941187436
  0.7893092273516472  0.4617719193089473  0.2819654596622925
  0.8560725188781161  0.5258752209382187  0.3546434791305585
  0.9005679400153848  0.4744156443769231  0.4273212321584616
  0.9005787336396548  0.5514595765612959  0.4273222469720970
  0.9450741547769235  0.5000000000000000  0.5000000000000000
  0.9450849484011932  0.5770439321843727  0.5000010148136353
  0.9228278716362630  0.5385249861781782  0.5000017631869079
  0.3887795787639550  0.8978719563904859  0.6453592988699848
  0.4777944097193396  0.8978719563904859  0.6453592988699848
  0.3886854170689571  0.2557826784436408  0.6816991333264358
  0.2551603701731857  0.2044708737166397  0.6453592988699848
  0.3219128680753847  0.1915302431615385  0.7180363035246153
  0.2996665849347240  0.2300552293397166  0.7180380667115233
  0.5222040613535722  0.3325357453128714  0.8997354368510512
  0.3219356359888854  0.3200343844643728  0.6453585504967123
  0.3664310571261541  0.2685748079030770  0.7180363035246153
  0.3664418507504238  0.3456187400874497  0.7180373183382507
  0.4777098208812644  0.3584115988082562  0.7543779011679742
  0.3441847739854935  0.3070997940812552  0.7180380667115233
  0.4109480655119626  0.3712030957105268  0.7907160861797893
  0.4554542802735011  0.3967874513336037  0.8633948540213277
  0.5667222504043417  0.4095803100544100  0.8997354368510512
  0.4331972035085703  0.3582685053274089  0.8633956023946001
  0.4777034182701088  0.3838528609504859  0.9360743702361385
  0.4777217951704955  0.4098718079267177  0.6816991333264358
  0.3441967482747242  0.3585600031997166  0.6453592988699848
  0.4109492461769234  0.3456193726446154  0.7180363035246153
  0.4332091777978012  0.4097287144458707  0.7907168345530617
  0.5444678904615387  0.4223724395138463  0.9360726070492309
  0.5444786840858085  0.4994163716982190  0.9360736218628661
  0.3886638699228034  0.1016935489605638  0.6816991333264358
  0.3664203036042702  0.1915296106043729  0.7180373183382507
  0.4109265183658085  0.2171139662274499  0.7907160861797893
  0.3664322778935009  0.2429898197228345  0.6453585504967123
  0.4777002480243412  0.2557826784436408  0.6816991333264358
  0.3441752011285705  0.2044708737166397  0.6453592988699848
  0.4109384926550394  0.2685741753459112  0.7180373183382507
  0.5222064627858799  0.2813670340667178  0.7543779011679742
  0.4554339137923078  0.2171145987846151  0.7907150713661539
  0.4999401285538463  0.2426989544076923  0.8633938392076923
  0.6112188923089568  0.3325357453128714  0.8997354368510512
  0.4109504669442701  0.3200343844643728  0.6453585504967123
  0.5222184370751111  0.3328272431851793  0.6816991333264358
  0.4331996049408780  0.3070997940812552  0.7180380667115233
  0.4999521028430777  0.2941591635261538  0.7907150713661539
  0.4999628964673469  0.3712030957105268  0.7907160861797893
  0.6112308665981877  0.3839959544313331  0.8270566690095128
  0.4777058197024165  0.3326841497043323  0.7907168345530617
  0.5444583176046155  0.3197435191492308  0.8633938392076923
  0.6557370813597262  0.4095803100544100  0.8997354368510512
  0.5667182492254934  0.3838528609504859  0.9360743702361385
  0.4332115792301089  0.3585600031997166  0.6453592988699848
  0.4999640771323075  0.3456193726446154  0.7180363035246153
  0.6112428408874184  0.4354561635497950  0.7543779011679742
  0.4777177939916473  0.3841443588227936  0.7180380667115233
  0.5444702918938467  0.3712037282676925  0.7907150713661539
  0.5889765066553849  0.3967880838907694  0.8633938392076923
  0.7002552704104956  0.4866248747959486  0.8997354368510512
  0.6334935150411932  0.4994163716982190  0.9360736218628661
  0.6112364382762626  0.4608974256920245  0.9360743702361385
  0.3664107307473468  0.0889006902397576  0.6453585504967123
  0.4776787008781878  0.1016935489605638  0.6816991333264358
  0.4554243409353850  0.1144856784200001  0.7180363035246153
  0.4554351345596545  0.1915296106043729  0.7180373183382507
  0.5667031046904952  0.2043224693251793  0.7543779011679742
  0.4331780577947241  0.1530106645981782  0.7180380667115233
  0.4999413493211933  0.2171139662274499  0.7907160861797893
  0.6112093194520338  0.2299068249482561  0.8270566690095128
  0.4776842725562627  0.1785950202212551  0.7907168345530617
  0.5444475640827315  0.2426983218505268  0.8633948540213277
  0.4554471088488852  0.2429898197228345  0.6453585504967123
  0.4331900320839548  0.2044708737166397  0.6453592988699848
  0.4999425299861540  0.1915302431615385  0.7180363035246153
  0.4999533236104237  0.2685741753459112  0.7180373183382507
  0.6112212937412645  0.2813670340667178  0.7543779011679742
  0.4776962468454932  0.2300552293397166  0.7180380667115233
  0.5444487447476926  0.2171145987846151  0.7907150713661539
  0.5667086763685704  0.2812239405858707  0.8633956023946001
  0.4999652978996544  0.3200343844643728  0.6453585504967123
  0.6112332680304954  0.3328272431851793  0.6816991333264358
  0.5889669337984624  0.2941591635261538  0.7907150713661539
  0.5889777274227319  0.3712030957105268  0.7907160861797893
  0.5667206506578011  0.3326841497043323  0.7907168345530617
  0.6334731485600003  0.3197435191492308  0.8633938392076923
  0.6334839421842702  0.3967874513336037  0.8633948540213277
  0.5889789080876925  0.3456193726446154  0.7180363035246153
  0.5889897017119626  0.4226633048289881  0.7180373183382507
  0.5667326249470320  0.3841443588227936  0.7180380667115233
  0.6112388397085703  0.4097287144458707  0.7907168345530617
  0.2996570120778010  0.1274263089751013  0.6453592988699848
  0.5667150789797262  0.2557826784436408  0.6816991333264358
  0.2106773023043417  0.4098718079267177  0.6816991333264358
  0.2996897318274185  0.4610405191728717  0.8270566690095128
  0.3441959465889570  0.4866248747959486  0.8997354368510512
  0.2996801589704953  0.3584115988082562  0.7543779011679742
  0.3886925884935724  0.4095803100544100  0.8997354368510512
  0.1884241631288855  0.3970789492059112  0.6453585504967123
  0.2996921332597264  0.4098718079267177  0.6816991333264358
  0.2774257990276923  0.3712037282676925  0.7907150713661539
  0.2774365926519622  0.4482476604520652  0.7907160861797893
  0.3887045627828030  0.4610405191728717  0.8270566690095128
  0.2551795158870319  0.4097287144458707  0.7907168345530617
  0.3219320137892311  0.3967880838907694  0.8633938392076923
  0.4332107775443416  0.4866248747959486  0.8997354368510512
  0.2996857306485704  0.4353130700689475  0.8633956023946001
  0.4331892303981877  0.3325357453128714  0.8997354368510512
  0.2774270197950393  0.3456187400874497  0.7180373183382507
  0.3886949899258801  0.3584115988082562  0.7543779011679742
  0.3664394493181161  0.3967874513336037  0.8633948540213277
  0.4777074194489571  0.4095803100544100  0.8997354368510512
  0.2774389940842698  0.3970789492059112  0.6453585504967123
  0.3887069642151108  0.4098718079267177  0.6816991333264358
  0.2551819173193394  0.3585600031997166  0.6453592988699848
  0.3664514236073471  0.4482476604520652  0.7907160861797893
  0.3441943468424165  0.4097287144458707  0.7907168345530617
  0.5222256084997259  0.4866248747959486  0.8997354368510512
  0.4554638531304241  0.4994163716982190  0.9360736218628661
  0.3886734427797262  0.2043224693251793  0.7543779011679742
  0.8115064326704237  0.2429898197228345  0.6453585504967123
  0.7892493559054935  0.2044708737166397  0.6453592988699848
  0.8337675449562627  0.2815154384581781  0.6453592988699848
  0.9005428107719621  0.3970789492059112  0.6453585504967123
  0.4554255617027311  0.0889006902397576  0.6453585504967123
  0.4776866739885702  0.1274263089751013  0.6453592988699848
  0.6557179356458799  0.2043224693251793  0.7543779011679742
  0.5889561802765776  0.2171139662274499  0.7907160861797893
  0.5666991035116470  0.1785950202212551  0.7907168345530617
  0.5444619398042700  0.2429898197228345  0.6453585504967123
  0.5889573609415386  0.1915302431615385  0.7180363035246153
  0.5889681545658081  0.2685741753459112  0.7180373183382507
  0.5667110778008779  0.2300552293397166  0.7180380667115233
  0.6779805840888851  0.3197428865920651  0.8633948540213277
  0.6557235073239547  0.2812239405858707  0.8633956023946001
  0.7002480989858801  0.3328272431851793  0.6816991333264358
  0.5667230520901086  0.2815154384581781  0.6453592988699848
  0.6334863436165775  0.3456187400874497  0.7180373183382507
  0.6112292668516469  0.3070997940812552  0.7180380667115233
  0.6557354816131854  0.3326841497043323  0.7907168345530617
  0.7224987731396547  0.3967874513336037  0.8633948540213277
  0.6334983179058080  0.3970789492059112  0.6453585504967123
  0.6779937390430768  0.3456193726446154  0.7180363035246153
  0.6557474559024163  0.3841443588227936  0.7180380667115233
  0.7224999538046157  0.3712037282676925  0.7907150713661539
  0.7670169621904236  0.4738320160751421  0.8633948540213277
  0.7447598854254934  0.4353130700689475  0.8633956023946001
  0.5667015049439548  0.1274263089751013  0.6453592988699848
  0.6334647964704236  0.1915296106043729  0.7180373183382507
  0.7447327666012646  0.2043224693251793  0.7543779011679742
  0.6334767707596544  0.2429898197228345  0.6453585504967123
  0.6779949598104240  0.3200343844643728  0.6453585504967123
  0.7892629299412643  0.3328272431851793  0.6816991333264358
  0.6557378830454932  0.2815154384581781  0.6453592988699848
  0.7670073893335003  0.3712030957105268  0.7907160861797893
  0.8782873337535727  0.4354561635497950  0.7543779011679742
  0.7447622868578007  0.3841443588227936  0.7180380667115233
  0.7892685016193394  0.4097287144458707  0.7907168345530617
  0.6779734126642699  0.1659452549812960  0.6453585504967123
  0.6557163358993393  0.1274263089751013  0.6453592988699848
  0.8782777608966491  0.3328272431851793  0.6816991333264358
  0.8115052119030771  0.2685748079030770  0.7180363035246153
  0.8115160055273473  0.3456187400874497  0.7180373183382507
  0.8560341945781160  0.4226633048289881  0.7180373183382507
  0.8337771178131854  0.3841443588227936  0.7180380667115233
  0.1216840184951110  0.5639609374097946  0.6816991333264358
  0.2106964480181876  0.6151296486559484  0.8270566690095128
  0.2107084223074185  0.6665898577744099  0.7543779011679742
  0.2552146370689570  0.6921742133974867  0.8270566690095128
  0.2107203965966494  0.7180500668928713  0.6816991333264358
  0.2552266113581875  0.7436344225159482  0.7543779011679742
  0.2552385856474186  0.7950946316344100  0.6816991333264358
  0.2106868751612646  0.5125007282913330  0.7543779011679742
  0.2996993046843416  0.5636694395374869  0.8997354368510512
  0.1439263004569234  0.4997085021276924  0.7180363035246153
  0.1439370940811933  0.5767524343120652  0.7180373183382507
  0.2997112789735721  0.6151296486559484  0.8270566690095128
  0.1661862320778010  0.5638178439289474  0.7907168345530617
  0.2329387299800002  0.5508772133738463  0.8633938392076923
  0.3442174937351109  0.6407140042790253  0.8997354368510512
  0.1439490683704236  0.6282126434305267  0.6453585504967123
  0.1661982063670319  0.6152780530474089  0.7180380667115233
  0.2329507042692309  0.6023374224923078  0.7907150713661539
  0.2329614978935008  0.6793813546766805  0.7907160861797893
  0.2774569190307694  0.6279217781153847  0.8633938392076923
  0.1662101806562626  0.6667382621658704  0.6453592988699848
  0.2329626785584616  0.6537976316107695  0.7180363035246153
  0.2329734721827315  0.7308415637951420  0.7180373183382507
  0.3442414423135723  0.7436344225159482  0.7543779011679742
  0.3219751080815386  0.7049663428569231  0.8633938392076923
  0.3442534166028030  0.7950946316344100  0.6816991333264358
  0.2107283697070323  0.7437828269074089  0.6453592988699848
  0.3887596313643415  0.8206789872574868  0.7543779011679742
  0.3219870823707698  0.7564265519753848  0.7907150713661539
  0.2997407992301089  0.7949515381535627  0.7907168345530617
  0.2997527735193396  0.8464117472720242  0.7180380667115233
  0.1439478476030771  0.6537976316107695  0.7180363035246153
  0.2106988494504953  0.5639609374097946  0.6816991333264358
  0.2329854464719625  0.7823017729136037  0.6453585504967123
  0.3219990566600001  0.8078867610938463  0.7180363035246153
  0.1439275212242697  0.4741235139474498  0.6453585504967123
  0.1216704444593397  0.4356045679412550  0.6453592988699848
  0.1884229423615387  0.4226639373861542  0.7180363035246153
  0.2997017061166494  0.5125007282913330  0.7543779011679742
  0.1661766592208783  0.4611889235643319  0.7180380667115233
  0.2329291571230770  0.4482482930092309  0.7907150713661539
  0.2329399507473469  0.5252922251936035  0.7907160861797893
  0.2774353718846155  0.4738326486323077  0.8633938392076923
  0.2774461655088855  0.5508765808166802  0.8633948540213277
  0.3887141356397265  0.5636694395374869  0.8997354368510512
  0.2551890887439551  0.5123576348104859  0.8633956023946001
  0.6557945513735725  0.7180500668928713  0.6816991333264358
  0.5222695044778013  0.6667382621658704  0.6453592988699848
  0.5890220023800002  0.6537976316107695  0.7180363035246153
  0.6335282171415387  0.6793819872338461  0.7907150713661539
  0.6780344319030773  0.7049663428569231  0.8633938392076923
  0.5890447702935009  0.7823017729136037  0.6453585504967123
  0.6335401914307695  0.7308421963523081  0.7180363035246153
  0.6112939082901090  0.7693671825304856  0.7180380667115233
  0.6780464061923086  0.7564265519753848  0.7907150713661539
  0.6558001230516475  0.7949515381535627  0.7907168345530617
  0.6113058825793397  0.8208273916489475  0.6453592988699848
  0.6780583804815387  0.8078867610938463  0.7180363035246153
  0.6558120973408782  0.8464117472720242  0.7180380667115233
  0.4999868450458085  0.4741235139474498  0.6453585504967123
  0.5222359830424167  0.4611889235643319  0.7180380667115233
  0.5889884809446159  0.4482482930092309  0.7907150713661539
  0.5889992745688856  0.5252922251936035  0.7907160861797893
  0.5667421978039550  0.4867732791874090  0.7907168345530617
  0.6112484125654934  0.5123576348104859  0.8633956023946001
  0.6557730042274189  0.5639609374097946  0.6816991333264358
  0.5222479573316474  0.5126491326827937  0.6453592988699848
  0.5890004552338464  0.4997085021276924  0.7180363035246153
  0.5890112488581165  0.5767524343120652  0.7180373183382507
  0.6112603868547242  0.5638178439289474  0.7907168345530617
  0.6780128847569233  0.5508772133738463  0.8633938392076923
  0.6780236783811933  0.6279211455582188  0.8633948540213277
  0.5890232231473470  0.6282126434305267  0.6453585504967123
  0.7447974080397265  0.6665898577744099  0.7543779011679742
  0.6112723611439549  0.6152780530474089  0.7180380667115233
  0.6780248590461543  0.6023374224923078  0.7907150713661539
  0.6780356526704242  0.6793813546766805  0.7907160861797893
  0.7002847906670320  0.6664467642935629  0.8633956023946001
  0.6112843354331858  0.6667382621658704  0.6453592988699848
  0.6780368333353850  0.6537976316107695  0.7180363035246153
  0.6780476269596547  0.7308415637951420  0.7180373183382507
  0.7002967649562628  0.7179069734120244  0.7907168345530617
  0.6780596012488854  0.7823017729136037  0.6453585504967123
  0.7225550223861542  0.7308421963523081  0.7180363035246153
  0.7003087392454933  0.7693671825304856  0.7180380667115233
  0.7003207135347242  0.8208273916489475  0.6453592988699848
  0.5890016760011934  0.4741235139474498  0.6453585504967123
  0.7447758608935724  0.5125007282913330  0.7543779011679742
  0.6112508139978010  0.4611889235643319  0.7180380667115233
  0.6780033119000008  0.4482482930092309  0.7907150713661539
  0.6780141055242701  0.5252922251936035  0.7907160861797893
  0.7225095266615388  0.4738326486323077  0.8633938392076923
  0.7002632435208783  0.5123576348104859  0.8633956023946001
  0.7447878351828038  0.5639609374097946  0.6816991333264358
  0.6112627882870322  0.5126491326827937  0.6453592988699848
  0.6780152861892311  0.4997085021276924  0.7180363035246153
  0.6780260798135010  0.5767524343120652  0.7180373183382507
  0.7892940499443416  0.5895452930328715  0.7543779011679742
  0.7002752178101089  0.5638178439289474  0.7907168345530617
  0.7670277157123080  0.5508772133738463  0.8633938392076923
  0.6780380541027318  0.6282126434305267  0.6453585504967123
  0.8338122389951108  0.6665898577744099  0.7543779011679742
  0.7002871920993397  0.6152780530474089  0.7180380667115233
  0.7670396900015393  0.6023374224923078  0.7907150713661539
  0.7670504836258085  0.6793813546766805  0.7907160861797893
  0.8338242132843422  0.7180500668928713  0.6816991333264358
  0.7670624579150395  0.7308415637951420  0.7180373183382507
  0.7670744322042704  0.7823017729136037  0.6453585504967123
  0.7893235702008785  0.7693671825304856  0.7180380667115233
  0.7893355444901090  0.8208273916489475  0.6453592988699848
  0.6557610299381881  0.5125007282913330  0.7543779011679742
  0.7447854337504960  0.6151296486559484  0.8270566690095128
  0.1661886335101090  0.5126491326827937  0.6453592988699848
  0.2329411314123079  0.4997085021276924  0.7180363035246153
  0.2329519250365779  0.5767524343120652  0.7180373183382507
  0.3442198951674186  0.5895452930328715  0.7543779011679742
  0.2552010630331860  0.5638178439289474  0.7907168345530617
  0.3219643545596547  0.6279211455582188  0.8633948540213277
  0.2107068225608782  0.5896936974243320  0.6453592988699848
  0.3887380842181878  0.6665898577744099  0.7543779011679742
  0.3219655352246157  0.6023374224923078  0.7907150713661539
  0.3219763288488856  0.6793813546766805  0.7907160861797893
  0.4332442989797262  0.6921742133974867  0.8270566690095128
  0.3442254668454935  0.6664467642935629  0.8633956023946001
  0.2774820883765780  0.7052572081720651  0.6453585504967123
  0.3219883031381163  0.7308415637951420  0.7180373183382507
  0.4332562732689570  0.7436344225159482  0.7543779011679742
  0.2997312263731859  0.6923226177889474  0.7180380667115233
  0.3664837242753853  0.6793819872338461  0.7907150713661539
  0.4777624880304956  0.7692187781390252  0.8270566690095128
  0.3442374411347244  0.7179069734120244  0.7907168345530617
  0.4109899390369232  0.7049663428569231  0.8633938392076923
  0.3220002774273468  0.7823017729136037  0.6453585504967123
  0.3442494154239552  0.7693671825304856  0.7180380667115233
  0.4110019133261545  0.7564265519753848  0.7907150713661539
  0.4110127069504240  0.8334704841597574  0.7907160861797893
  0.4110138876153848  0.8078867610938463  0.7180363035246153
  0.4110246812396550  0.8849306932782187  0.7180373183382507
  0.3887165370720340  0.5125007282913330  0.7543779011679742
  0.2551914901762628  0.4611889235643319  0.7180380667115233
  0.3219547817027317  0.5252922251936035  0.7907160861797893
  0.2996977049378011  0.4867732791874090  0.7907168345530617
  0.3664502028400003  0.4738326486323077  0.8633938392076923
  0.3664609964642702  0.5508765808166802  0.8633948540213277
  0.4777289665951108  0.5636694395374869  0.8997354368510512
  0.3442039196993396  0.5123576348104859  0.8633956023946001
  0.4109564176015388  0.4994170042553847  0.9360726070492309
  0.2552034644654935  0.5126491326827937  0.6453592988699848
  0.3219559623676927  0.4997085021276924  0.7180363035246153
  0.3664621771292312  0.5252928577507692  0.7907150713661539
  0.3664729707535009  0.6023367899351422  0.7907160861797893
  0.4554746066523083  0.5764615689969232  0.9360726070492309
  0.4332283235116474  0.6149865551751011  0.9360743702361385
  0.3664741514184621  0.5767530668692309  0.7180363035246153
  0.3664849450427316  0.6537969990536036  0.7180373183382507
  0.4777529151735726  0.6665898577744099  0.7543779011679742
  0.5222591299351109  0.6921742133974867  0.8270566690095128
  0.3887340830393395  0.6408624086704859  0.7907168345530617
  0.3664969193319625  0.7052572081720651  0.6453585504967123
  0.4554985552307697  0.6793819872338461  0.7907150713661539
  0.4555093488550396  0.7564259194182189  0.7907160861797893
  0.3887580316178011  0.7437828269074089  0.6453592988699848
  0.4332642463793395  0.7693671825304856  0.7180380667115233
  0.5000275379058088  0.8334704841597574  0.7907160861797893
  0.4777704611408780  0.7949515381535627  0.7907168345530617
  0.5000395121950393  0.8849306932782187  0.7180373183382507
  0.4332251532658806  0.4869163726682560  0.6816991333264358
  0.3664633978965779  0.4997078695705267  0.7180373183382507
  0.5667437975504955  0.5636694395374869  0.8997354368510512
  0.3887245101824166  0.5382334883058703  0.7180380667115233
  0.4999832228461543  0.5508772133738463  0.8633938392076923
  0.6112739608904957  0.6921742133974867  0.8270566690095128
  0.5445122055211932  0.7049657102997574  0.8633948540213277
  0.5667797204181882  0.7180500668928713  0.6816991333264358
  0.5000071714246157  0.6537976316107695  0.7180363035246153
  0.5000179650488856  0.7308415637951420  0.7180373183382507
  0.6557921499412651  0.7692187781390252  0.8270566690095128
  0.5667733178070320  0.7434913290351012  0.8633956023946001
  0.4777728625731857  0.7437828269074089  0.6453592988699848
  0.5445361540996548  0.8078861285366803  0.7180373183382507
  0.6558041242304956  0.8206789872574868  0.7543779011679742
  0.5222790773347242  0.7693671825304856  0.7180380667115233
  0.5890435495261543  0.8078867610938463  0.7180363035246153
  0.5222399842212647  0.4869163726682560  0.6816991333264358
  0.4554674352276926  0.4226639373861542  0.7180363035246153
  0.4554782288519625  0.4997078695705267  0.7180373183382507
  0.4999736499892311  0.4482482930092309  0.7907150713661539
  0.6557586285058803  0.5636694395374869  0.8997354368510512
  0.5222335816101089  0.5123576348104859  0.8633956023946001
  0.5667397963716475  0.5379419904335628  0.9360743702361385
  0.5667581732720339  0.5639609374097946  0.6816991333264358
  0.6557706027951108  0.6151296486559484  0.8270566690095128
  0.5889980538015390  0.5508772133738463  0.8633938392076923
  0.5890088474258085  0.6279211455582188  0.8633948540213277
  0.5667517706608781  0.5894021995520243  0.8633956023946001
  0.5000083921919622  0.6282126434305267  0.6453585504967123
  0.5445146069535010  0.6537969990536036  0.7180373183382507
  0.6557825770843417  0.6665898577744099  0.7543779011679742
  0.5222575301885706  0.6152780530474089  0.7180380667115233
  0.5890100280907695  0.6023374224923078  0.7907150713661539
  0.6335162428523082  0.6279217781153847  0.8633938392076923
  0.6557594301916475  0.4356045679412550  0.6453592988699848
  0.7225119280938462  0.4226639373861542  0.7180363035246153
  0.7225227217181164  0.4997078695705267  0.7180373183382507
  0.8337906918489572  0.5125007282913330  0.7543779011679742
  0.7447718597147243  0.4867732791874090  0.7907168345530617
  0.7225346960073471  0.5511680786889881  0.6453585504967123
  0.7447838340039552  0.5382334883058703  0.7180380667115233
  0.8115363319061548  0.5252928577507692  0.7907150713661539
  0.8115471255304241  0.6023367899351422  0.7907160861797893
  0.7670528850581159  0.6282126434305267  0.6453585504967123
  0.7447958082931853  0.5896936974243320  0.6453592988699848
  0.8115483061953849  0.5767530668692309  0.7180363035246153
  0.8115590998196550  0.6537969990536036  0.7180373183382507
  0.8338202121054936  0.6923226177889474  0.7180380667115233
  0.8338321863947246  0.7437828269074089  0.6453592988699848
  0.8115495269627319  0.5511680786889881  0.6453585504967123
  0.8560557417242706  0.5767524343120652  0.7180373183382507
  0.8337986649593395  0.5382334883058703  0.7180380667115233
  0.8338106392485700  0.5896936974243320  0.6453592988699848
  0.9228039230578011  0.4356045679412550  0.6453592988699848
  0.2552649356581876  0.8468463386251791  0.3909840619602820
  0.1884923866646152  0.7825939033430770  0.4273212321584616
  0.3442773651812646  0.8980150498713331  0.5363415976433590
  0.2107523182854937  0.8467032451443322  0.5000017631869079
  0.2775167904769236  0.8852228237076926  0.5000000000000000
  0.2552673370904953  0.7956776273790254  0.2456265262772051
  0.1884947880969234  0.7314251920969232  0.2819636964753848
  0.2997735518520340  0.8212619830021022  0.3183052941187436
  0.2330010028584616  0.7570095477200002  0.3546424643169232
  0.3442797666135723  0.8468463386251791  0.3909840619602820
  0.2107547197178012  0.7955345338981783  0.3546442275038310
  0.3220242260058084  0.8852221911505266  0.5000010148136353
  0.4332921961366494  0.8980150498713331  0.5363415976433590
  0.5000586907811934  0.7828847686582191  0.2092859434474816
  0.6113266609120339  0.7956776273790254  0.2456265262772051
  0.4778016140162628  0.7443658226520243  0.2092866918207541
  0.5445541119184616  0.7314251920969232  0.2819636964753848
  0.5445649055427317  0.8084691242812959  0.2819647112890201
  0.5223078287778011  0.7699501782751013  0.2819654596622925
  0.7003390904351110  0.8468463386251791  0.3909840619602820
  0.5668140435393398  0.7955345338981783  0.3546442275038310
  0.6335773350658087  0.8596378355274498  0.4273222469720970
  0.6780727562030769  0.8081782589661539  0.5000000000000000
  0.6558264730624165  0.8467032451443322  0.5000017631869079
  0.7225789709646157  0.8337626145892308  0.5726787678415386
  0.5223198030670321  0.8214103873935629  0.2092866918207541
  0.5890830945935009  0.8855136890228346  0.2819647112890201
  0.5668260178285703  0.8469947430166398  0.2819654596622925
  0.6335785157307695  0.8340541124615387  0.3546424643169232
  0.6558384473516473  0.8981634542627935  0.4273229953453694
  0.7225909452538466  0.8852228237076926  0.5000000000000000
  0.7003414918674187  0.7956776273790254  0.2456265262772051
  0.5668164449716472  0.7443658226520243  0.2092866918207541
  0.6335689428738464  0.7314251920969232  0.2819636964753848
  0.6335797364981165  0.8084691242812959  0.2819647112890201
  0.6558288744947242  0.7955345338981783  0.3546442275038310
  0.7225921660211935  0.8596378355274498  0.4273222469720970
  0.7670875871584617  0.8081782589661539  0.5000000000000000
  0.6558408487839551  0.8469947430166398  0.2819654596622925
  0.7225933466861543  0.8340541124615387  0.3546424643169232
  0.7448413040178012  0.8467032451443322  0.5000017631869079
  0.2997671492408782  0.8467032451443322  0.5000017631869079
  0.3665304407673469  0.9108065467736037  0.5726797826551739
  0.4777984108981877  0.9235994054944100  0.6090203654848974
  0.2775191919092309  0.8340541124615387  0.3546424643169232
  0.3887979556643416  0.9238909033667178  0.3909840619602820
  0.3220254066707694  0.8596384680846156  0.4273212321584616
  0.2997791235301087  0.8981634542627935  0.4273229953453694
  0.2775096190523081  0.7314251920969232  0.2819636964753848
  0.2775204126765778  0.8084691242812959  0.2819647112890201
  0.3887883828074184  0.8212619830021022  0.3183052941187436
  0.3220158338138464  0.7570095477200002  0.3546424643169232
  0.2997695506731859  0.7955345338981783  0.3546442275038310
  0.3665220485753847  0.7825939033430770  0.4273212321584616
  0.3665328421996549  0.8596378355274498  0.4273222469720970
  0.3442757654347243  0.8211188895212552  0.4273229953453694
  0.4110282633369235  0.8081782589661539  0.5000000000000000
  0.4110390569611932  0.8852221911505266  0.5000010148136353
  0.5223070270920339  0.8980150498713331  0.5363415976433590
  0.3887819801962628  0.8467032451443322  0.5000017631869079
  0.4555344780984618  0.8337626145892308  0.5726787678415386
  0.4555452717227315  0.9108065467736037  0.5726797826551739
  0.5668132418535724  0.9235994054944100  0.6090203654848974
  0.3220278081030774  0.8084697568384619  0.2819636964753848
  0.4333065718581876  0.8983065477436408  0.3183052941187436
  0.2997815249624164  0.8469947430166398  0.2819654596622925
  0.4778127866197261  0.9238909033667178  0.3909840619602820
  0.3442877397239552  0.8725790986397167  0.3546442275038310
  0.4110510312504236  0.9366824002689883  0.4273222469720970
  0.3887939544854935  0.8981634542627935  0.4273229953453694
  0.4555464523876927  0.8852228237076926  0.5000000000000000
  0.4333001692470320  0.9237478098858707  0.5000017631869079
  0.5000526671492312  0.9108071793307694  0.5726787678415386
  0.4778063840085703  0.9493321655089476  0.5726805310284465
  0.3220290288704239  0.7828847686582191  0.2092859434474816
  0.4332969990012646  0.7956776273790254  0.2456265262772051
  0.2997719521054933  0.7443658226520243  0.2092866918207541
  0.3665244500076925  0.7314251920969232  0.2819636964753848
  0.3665352436319626  0.8084691242812959  0.2819647112890201
  0.4110414583935009  0.8340534799043728  0.3546434791305585
  0.5223094285243415  0.8468463386251791  0.3909840619602820
  0.3887843816285705  0.7955345338981783  0.3546442275038310
  0.4555368795307695  0.7825939033430770  0.4273212321584616
  0.4555476731550394  0.8596378355274498  0.4273222469720970
  0.5000430942923080  0.8081782589661539  0.5000000000000000
  0.5000538879165779  0.8852221911505266  0.5000010148136353
  0.6113218580474185  0.8980150498713331  0.5363415976433590
  0.5445601026781163  0.9108065467736037  0.5726797826551739
  0.5223030259131859  0.8722876007674092  0.5726805310284465
  0.4778151880520339  0.8727221921205639  0.2456265262772051
  0.4110426390584621  0.8084697568384619  0.2819636964753848
  0.4110534326827318  0.8855136890228346  0.2819647112890201
  0.3887963559178010  0.8469947430166398  0.2819654596622925
  0.4555596474442701  0.9110980446459114  0.3546434791305585
  0.5668276175751107  0.9238909033667178  0.3909840619602820
  0.4333025706793395  0.8725790986397167  0.3546442275038310
  0.5000658622058084  0.9366824002689883  0.4273222469720970
  0.5000670428707696  0.9110986772030771  0.3546424643169232
  0.5445732576323075  0.9366830328261539  0.4273212321584616
  0.4110438598258087  0.7828847686582191  0.2092859434474816
  0.5223118299566492  0.7956776273790254  0.2456265262772051
  0.5000454957246155  0.7570095477200002  0.3546424643169232
  0.6113242594797262  0.8468463386251791  0.3909840619602820
  0.4777992125839551  0.7955345338981783  0.3546442275038310
  0.5445517104861540  0.7825939033430770  0.4273212321584616
  0.5445625041104240  0.8596378355274498  0.4273222469720970
  0.5890579252476925  0.8081782589661539  0.5000000000000000
  0.5890687188719627  0.8852221911505266  0.5000010148136353
  0.7003366890028032  0.8980150498713331  0.5363415976433590
  0.5668116421070322  0.8467032451443322  0.5000017631869079
  0.6335641400092313  0.8337626145892308  0.5726787678415386
  0.6113178568685704  0.8722876007674092  0.5726805310284465
  0.5668300190074184  0.8727221921205639  0.2456265262772051
  0.4333049721116473  0.8214103873935629  0.2092866918207541
  0.5000574700138465  0.8084697568384619  0.2819636964753848
  0.5000682636381164  0.8855136890228346  0.2819647112890201
  0.6113362337689572  0.8983065477436408  0.3183052941187436
  0.4778111868731856  0.8469947430166398  0.2819654596622925
  0.5445636847753850  0.8340541124615387  0.3546424643169232
  0.5445744783996549  0.9110980446459114  0.3546434791305585
  0.6335761142984618  0.8852228237076926  0.5000000000000000
  0.6113298311578014  0.9237478098858707  0.5000017631869079
  0.5445756590646155  0.8855143215800002  0.2819636964753848
  0.5890818738261540  0.9110986772030771  0.3546424643169232
  0.7225837738292311  0.7314251920969232  0.2819636964753848
  0.7225945674535008  0.8084691242812959  0.2819647112890201
  0.7448437054501089  0.7955345338981783  0.3546442275038310
  0.8115962033523082  0.7825939033430770  0.4273212321584616
  0.8115986047846159  0.7314251920969232  0.2819636964753848
  0.3441792023074184  0.2301983228205637  0.6090203654848974
  0.2774066533138462  0.1659458875384615  0.6453575356830770
  0.2996849618351110  0.2560741763159484  0.4636628298018206
  0.2329124128415386  0.1918217410338462  0.5000000000000000
  0.2329232064658085  0.2688656732182190  0.5000010148136353
  0.3886973913581878  0.3072428875621024  0.6090203654848974
  0.2551907213628030  0.2819500298113332  0.3183052941187436
  0.2329243871307693  0.2432819501523078  0.4273212321584616
  0.2329351807550397  0.3203258823366805  0.4273222469720970
  0.2106781039901086  0.2818069363304860  0.4273229953453694
  0.2774306018923078  0.2688663057753847  0.5000000000000000
  0.3887093656474183  0.3587030966805639  0.5363415976433590
  0.2551843187516472  0.3073912919535629  0.5000017631869079
  0.3219368166538463  0.2944506613984616  0.5726787678415386
  0.3664430314153849  0.3200350170215385  0.6453575356830770
  0.2996634146889573  0.1019850468328715  0.4636628298018206
  0.3886758442120339  0.1531537580790254  0.6090203654848974
  0.2996753889781876  0.1534452559513330  0.3909840619602820
  0.2329136336088858  0.1662367528536037  0.4273222469720970
  0.3886878185012646  0.2046139671974871  0.5363415976433590
  0.2551627716054935  0.1533021624704861  0.5000017631869079
  0.3219260631319624  0.2174054640997576  0.5726797826551739
  0.3664214842692310  0.1659458875384615  0.6453575356830770
  0.2996873632674185  0.2049054650697947  0.3183052941187436
  0.2329256078981165  0.2176969619720651  0.3546434791305585
  0.2106685311331856  0.1791780159658704  0.3546442275038310
  0.3886997927904953  0.2560741763159484  0.4636628298018206
  0.2551747458947242  0.2047623715889474  0.4273229953453694
  0.3219272437969229  0.1918217410338462  0.5000000000000000
  0.4777122223135721  0.3072428875621024  0.6090203654848974
  0.2996993375566492  0.2563656741882561  0.2456265262772051
  0.3442055523181877  0.2819500298113332  0.3183052941187436
  0.2106805054224166  0.2306382250843321  0.2819654596622925
  0.3887117670797258  0.3075343854344099  0.3909840619602820
  0.3219392180861543  0.2432819501523078  0.4273212321584616
  0.3219500117104242  0.3203258823366805  0.4273222469720970
  0.4777241966028031  0.3587030966805639  0.5363415976433590
  0.4109624412335008  0.3714945935828343  0.5726797826551739
  0.3887053644685706  0.3329756475766400  0.5726805310284465
  0.4554578623707694  0.3200350170215385  0.6453575356830770
  0.3886782456443417  0.1019850468328715  0.4636628298018206
  0.3219164902750394  0.1147765437351420  0.5000010148136353
  0.3664227050365777  0.1403608993582191  0.5726797826551739
  0.4776906751674185  0.1531537580790254  0.6090203654848974
  0.3441656282716473  0.1018419533520245  0.5726805310284465
  0.3441840051720334  0.1278609003282561  0.3183052941187436
  0.3886902199335723  0.1534452559513330  0.3909840619602820
  0.3219284645642703  0.1662367528536037  0.4273222469720970
  0.3441776025608780  0.1533021624704861  0.5000017631869079
  0.5222088642181877  0.2301983228205637  0.6090203654848974
  0.3887021942228033  0.2049054650697947  0.3183052941187436
  0.3219296452292311  0.1406530297876923  0.3546424643169232
  0.3219404388535008  0.2176969619720651  0.3546434791305585
  0.4777146237458803  0.2560741763159484  0.4636628298018206
  0.3441895768501085  0.2047623715889474  0.4273229953453694
  0.4109528683765779  0.2688656732182190  0.5000010148136353
  0.4554590831381163  0.2944500288412960  0.5726797826551739
  0.5667270532689569  0.3072428875621024  0.6090203654848974
  0.4332020063731860  0.2559310828351012  0.5726805310284465
  0.3219416195184618  0.1921132389061541  0.2819636964753848
  0.3219524131427317  0.2691571710905266  0.2819647112890201
  0.4777265980351108  0.3075343854344099  0.3909840619602820
  0.4109540490415384  0.2432819501523078  0.4273212321584616
  0.4554602638030769  0.2688663057753847  0.5000000000000000
  0.5667390275581878  0.3587030966805639  0.5363415976433590
  0.4999772721888856  0.3714945935828343  0.5726797826551739
  0.6112452423197265  0.3842874523036406  0.6090203654848974
  0.5444726933261542  0.3200350170215385  0.6453575356830770
  0.2996729875458798  0.2046139671974871  0.5363415976433590
  0.5222208385074186  0.2816585319390255  0.5363415976433590
  0.1216648727812646  0.3587030966805639  0.5363415976433590
  0.1661710875428032  0.3842874523036406  0.6090203654848974
  0.1661615146858800  0.2816585319390255  0.5363415976433590
  0.2106677294474185  0.3072428875621024  0.6090203654848974
  0.2106797037366492  0.3587030966805639  0.5363415976433590
  0.1439179483673469  0.3714945935828343  0.5726797826551739
  0.2551859184981873  0.3842874523036406  0.6090203654848974
  0.1216608716024168  0.3329756475766400  0.5726805310284465
  0.1884133695046153  0.3200350170215385  0.6453575356830770
  0.2106581565904953  0.2046139671974871  0.5363415976433590
  0.2551643713520338  0.2301983228205637  0.6090203654848974
  0.1661639161181877  0.2304898206928715  0.3909840619602820
  0.1439083755104240  0.2688656732182190  0.5000010148136353
  0.2551763456412645  0.2816585319390255  0.5363415976433590
  0.1884037966476921  0.2174060966569232  0.5726787678415386
  0.1884145902719625  0.2944500288412960  0.5726797826551739
  0.2996825604028031  0.3072428875621024  0.6090203654848974
  0.1661758904074186  0.2819500298113332  0.3183052941187436
  0.1439095561753850  0.2432819501523078  0.4273212321584616
  0.1439203497996549  0.3203258823366805  0.4273222469720970
  0.1216632730347239  0.2818069363304860  0.4273229953453694
  0.1884157709369233  0.2688663057753847  0.5000000000000000
  0.1884265645611934  0.3459102379597574  0.5000010148136353
  0.2996945346920339  0.3587030966805639  0.5363415976433590
  0.1661694877962628  0.3073912919535629  0.5000017631869079
  0.2329219856984613  0.2944506613984616  0.5726787678415386
  0.2329327793227315  0.3714945935828343  0.5726797826551739
  0.2106757025578013  0.3329756475766400  0.5726805310284465
  0.2996610132566496  0.1531537580790254  0.6090203654848974
  0.7002433289935720  0.1278609003282561  0.3183052941187436
  0.6334815736242698  0.1406523972305267  0.3546434791305585
  0.6779877883858088  0.1662367528536037  0.4273222469720970
  0.7892557585166489  0.1790296115744099  0.4636628298018206
  0.6557307116208779  0.1277178068474089  0.4273229953453694
  0.7224940031473470  0.1918211084766806  0.5000010148136353
  0.7002369263824164  0.1533021624704861  0.5000017631869079
  0.7670002179088854  0.2174054640997576  0.5726797826551739
  0.7002553032828029  0.1793211094467177  0.2456265262772051
  0.6334935479135012  0.1921126063489883  0.2819647112890201
  0.7892677328058803  0.2304898206928715  0.3909840619602820
  0.6557426859101089  0.1791780159658704  0.3546442275038310
  0.7225059774365777  0.2432813175951423  0.4273222469720970
  0.8782801623289568  0.2816585319390255  0.5363415976433590
  0.7447551154331856  0.2303467272120243  0.5000017631869079
  0.8115184069596546  0.2944500288412960  0.5726797826551739
  0.7892613301947240  0.2559310828351012  0.5726805310284465
  0.6335055222027312  0.2435728154674496  0.2092859434474816
  0.6780117369642702  0.2691571710905266  0.2819647112890201
  0.7892797070951107  0.2819500298113332  0.3183052941187436
  0.6557546601993396  0.2306382250843321  0.2819654596622925
  0.7225071581015388  0.2176975945292309  0.3546424643169232
  0.7225179517258085  0.2947415267136037  0.3546434791305585
  0.7002608749608781  0.2562225807074089  0.3546442275038310
  0.7670241664873472  0.3203258823366805  0.4273222469720970
  0.8782921366181877  0.3331187410574870  0.4636628298018206
  0.7447670897224166  0.2818069363304860  0.4273229953453694
  0.8337795192454932  0.3329756475766400  0.5726805310284465
  0.7224964045796546  0.1406523972305267  0.3546434791305585
  0.7447455425762629  0.1277178068474089  0.4273229953453694
  0.8115088341027318  0.1918211084766806  0.5000010148136353
  0.8560150488642702  0.2174054640997576  0.5726797826551739
  0.7225083788688855  0.1921126063489883  0.2819647112890201
  0.7447575168654934  0.1791780159658704  0.3546442275038310
  0.8115208083919623  0.2432813175951423  0.4273222469720970
  0.8337699463885708  0.2303467272120243  0.5000017631869079
  0.9005332379150394  0.2944500288412960  0.5726797826551739
  0.7225203531581160  0.2435728154674496  0.2092859434474816
  0.7670265679196545  0.2691571710905266  0.2819647112890201
  0.7447694911547239  0.2306382250843321  0.2819654596622925
  0.8115219890569231  0.2176975945292309  0.3546424643169232
  0.8560389974427315  0.3203258823366805  0.4273222469720970
  0.8337819206778013  0.2818069363304860  0.4273229953453694
  0.9227943502008780  0.3329756475766400  0.5726805310284465
  0.5221873170720336  0.0761091933374869  0.6090203654848974
  0.3664251064688854  0.0891921881120653  0.4273222469720970
  0.4109313212304235  0.1147765437351420  0.5000010148136353
  0.3886742444654934  0.0762575977289475  0.5000017631869079
  0.4554375359919622  0.1403608993582191  0.5726797826551739
  0.3664370807581159  0.1406523972305267  0.3546434791305585
  0.4777050508889567  0.1534452559513330  0.3909840619602820
  0.4109432955196544  0.1662367528536037  0.4273222469720970
  0.4554387166569233  0.1147771762923078  0.5000000000000000
  0.4554495102811932  0.1918211084766806  0.5000010148136353
  0.5667174804120337  0.2046139671974871  0.5363415976433590
  0.4776986482778013  0.1788865180935628  0.5726805310284465
  0.4332108104166495  0.1793211094467177  0.2456265262772051
  0.3664490550473469  0.1921126063489883  0.2819647112890201
  0.4109444761846159  0.1406530297876923  0.3546424643169232
  0.4109552698088854  0.2176969619720651  0.3546434791305585
  0.3886981930439548  0.1791780159658704  0.3546442275038310
  0.4554506909461540  0.1662373854107692  0.4273212321584616
  0.4554614845704241  0.2432813175951423  0.4273222469720970
  0.4332044078054933  0.2047623715889474  0.4273229953453694
  0.6112356694628029  0.2816585319390255  0.5363415976433590
  0.4777106225670318  0.2303467272120243  0.5000017631869079
  0.5444739140935007  0.2944500288412960  0.5726797826551739
  0.6557418842243414  0.3072428875621024  0.6090203654848974
  0.4109564504738464  0.1921132389061541  0.2819636964753848
  0.3887101673331857  0.2306382250843321  0.2819654596622925
  0.4554626652353849  0.2176975945292309  0.3546424643169232
  0.4554734588596546  0.2947415267136037  0.3546434791305585
  0.5667414289904953  0.3075343854344099  0.3909840619602820
  0.4332163820947240  0.2562225807074089  0.3546442275038310
  0.4999796736211933  0.3203258823366805  0.4273222469720970
  0.6112476437520341  0.3331187410574870  0.4636628298018206
  0.5444750947584617  0.2688663057753847  0.5000000000000000
  0.7002600732751104  0.3842874523036406  0.6090203654848974
  0.5667350263793397  0.3329756475766400  0.5726805310284465
  0.4999341778965776  0.0633163346166807  0.5726797826551739
  0.6112021480274183  0.0761091933374869  0.6090203654848974
  0.5222016927935722  0.0764006912097946  0.3909840619602820
  0.4554399374242704  0.0891921881120653  0.4273222469720970
  0.5667079075551108  0.1019850468328715  0.4636628298018206
  0.4999461521858085  0.1147765437351420  0.5000010148136353
  0.6112141223166491  0.1275694024559485  0.5363415976433590
  0.5444415733230771  0.0633169671738463  0.5726787678415386
  0.5444523669473468  0.1403608993582191  0.5726797826551739
  0.6557203370781876  0.1531537580790254  0.6090203654848974
  0.5889477880846157  0.0889013227969232  0.6453575356830770
  0.4554519117135009  0.1406523972305267  0.3546434791305585
  0.5667198818443414  0.1534452559513330  0.3909840619602820
  0.4999473328507695  0.0891928206692309  0.4273212321584616
  0.6112260966058800  0.1790296115744099  0.4636628298018206
  0.5444535476123078  0.1147771762923078  0.5000000000000000
  0.5444643412365777  0.1918211084766806  0.5000010148136353
  0.6557323113674183  0.2046139671974871  0.5363415976433590
  0.5889597623738461  0.1403615319153846  0.5726787678415386
  0.5667134792331858  0.1788865180935628  0.5726805310284465
  0.6334659771353847  0.1659458875384615  0.6453575356830770
  0.4109576712411933  0.1665282507259113  0.2092859434474816
  0.5222256413720339  0.1793211094467177  0.2456265262772051
  0.4554530923784619  0.1150686741646156  0.2819636964753848
  0.4554638860027319  0.1921126063489883  0.2819647112890201
  0.5667318561335724  0.2049054650697947  0.3183052941187436
  0.4332068092378010  0.1535936603427938  0.2819654596622925
  0.4999593071400002  0.1406530297876923  0.3546424643169232
  0.6112380708951108  0.2304898206928715  0.3909840619602820
  0.4777130239993395  0.1791780159658704  0.3546442275038310
  0.5444655219015387  0.1662373854107692  0.4273212321584616
  0.5444763155258089  0.2432813175951423  0.4273222469720970
  0.5222192387608781  0.2047623715889474  0.4273229953453694
  0.5889717366630770  0.1918217410338462  0.5000000000000000
  0.7002505004181877  0.2816585319390255  0.5363415976433590
  0.5667254535224165  0.2303467272120243  0.5000017631869079
  0.6334779514246157  0.2174060966569232  0.5726787678415386
  0.6334887450488856  0.2944500288412960  0.5726797826551739
  0.7447567151797260  0.3072428875621024  0.6090203654848974
  0.4554758602919623  0.2435728154674496  0.2092859434474816
  0.4332187835270317  0.2050538694612552  0.2092866918207541
  0.4999712814292311  0.1921132389061541  0.2819636964753848
  0.4999820750535008  0.2691571710905266  0.2819647112890201
  0.6112500451843416  0.2819500298113332  0.3183052941187436
  0.5444774961907692  0.2176975945292309  0.3546424643169232
  0.5444882898150392  0.2947415267136037  0.3546434791305585
  0.6557562599458799  0.3075343854344099  0.3909840619602820
  0.5222312130501088  0.2562225807074089  0.3546442275038310
  0.7002624747074189  0.3331187410574870  0.4636628298018206
  0.6334899257138462  0.2688663057753847  0.5000000000000000
  0.6779961404753846  0.2944506613984616  0.5726787678415386
  0.6780069340996547  0.3714945935828343  0.5726797826551739
  0.7892749042304952  0.3842874523036406  0.6090203654848974
  0.6557498573347244  0.3329756475766400  0.5726805310284465
  0.4999485536181162  0.0636078324889883  0.3546434791305585
  0.6112165237489570  0.0764006912097946  0.3909840619602820
  0.5889609831411931  0.1147765437351420  0.5000010148136353
  0.5667039063762624  0.0762575977289475  0.5000017631869079
  0.7447351680335723  0.1531537580790254  0.6090203654848974
  0.4999605279073470  0.1150680416074496  0.2819647112890201
  0.6112284980381872  0.1278609003282561  0.3183052941187436
  0.5444667426688851  0.1406523972305267  0.3546434791305585
  0.5889621638061538  0.0891928206692309  0.4273212321584616
  0.7002409275612648  0.1790296115744099  0.4636628298018206
  0.6334683785676926  0.1147771762923078  0.5000000000000000
  0.6334791721919623  0.1918211084766806  0.5000010148136353
  0.7447471423228028  0.2046139671974871  0.5363415976433590
  0.6112220954270317  0.1533021624704861  0.5000017631869079
  0.6779745933292308  0.1403615319153846  0.5726787678415386
  0.7224808080907694  0.1659458875384615  0.6453575356830770
  0.4999725021965779  0.1665282507259113  0.2092859434474816
  0.6112404723274186  0.1793211094467177  0.2456265262772051
  0.5444787169581163  0.1921126063489883  0.2819647112890201
  0.5222216401931854  0.1535936603427938  0.2819654596622925
  0.7002529018504957  0.2304898206928715  0.3909840619602820
  0.6334803528569235  0.1662373854107692  0.4273212321584616
  0.6779865676184618  0.1918217410338462  0.5000000000000000
  0.7892653313735720  0.2816585319390255  0.5363415976433590
  0.7224927823800001  0.2174060966569232  0.5726787678415386
  0.7225035760042703  0.2944500288412960  0.5726797826551739
  0.7002464992393399  0.2559310828351012  0.5726805310284465
  0.7669989971415389  0.2429904522800000  0.6453575356830770
  0.5444906912473468  0.2435728154674496  0.2092859434474816
  0.7002648761397261  0.2819500298113332  0.3183052941187436
  0.5667398292439548  0.2306382250843321  0.2819654596622925
  0.6334923271461540  0.2176975945292309  0.3546424643169232
  0.7447710909012647  0.3075343854344099  0.3909840619602820
  0.6779985419076925  0.2432819501523078  0.4273212321584616
  0.6780093355319626  0.3203258823366805  0.4273222469720970
  0.7892773056628030  0.3331187410574870  0.4636628298018206
  0.6557522587670316  0.2818069363304860  0.4273229953453694
  0.7225047566692310  0.2688663057753847  0.5000000000000000
  0.7670109714307694  0.2944506613984616  0.5726787678415386
  0.8782897351858800  0.3842874523036406  0.6090203654848974
  0.7447646882901089  0.3329756475766400  0.5726805310284465
  0.6334695993350393  0.0891921881120653  0.4273222469720970
  0.6779758140965778  0.1147765437351420  0.5000010148136353
  0.6557187373316472  0.0762575977289475  0.5000017631869079
  0.7002249520931859  0.1018419533520245  0.5726805310284465
  0.0771778037335720  0.5383765817867175  0.6090203654848974
  0.0771897780228030  0.5898367909051793  0.5363415976433590
  0.1217079670735724  0.6668813556467176  0.5363415976433590
  0.1662141818351105  0.6924657112697943  0.6090203654848974
  0.1662261561243414  0.7439259203882562  0.5363415976433590
  0.2107323708858799  0.7695102760113328  0.6090203654848974
  0.1439598218923077  0.7052578407292307  0.6453575356830770
  0.1662381304135725  0.7953861295067176  0.4636628298018206
  0.2552505599366491  0.8465548407528715  0.6090203654848974
  0.0771682308766493  0.4357476614221023  0.5363415976433590
  0.0771802051658800  0.4872078705405637  0.4636628298018206
  0.0549138709338461  0.4485397908815386  0.5726787678415386
  0.0549246645581163  0.5255837230659113  0.5726797826551739
  0.1661926346889568  0.5383765817867175  0.6090203654848974
  0.0771921794551105  0.5386680796590252  0.3909840619602820
  0.1662046089781875  0.5898367909051793  0.5363415976433590
  0.2107108237397260  0.6154211465282556  0.6090203654848974
  0.1439382747461541  0.5511687112461539  0.6453575356830770
  0.0994440342738463  0.5770445647415386  0.5000000000000000
  0.0994548278981164  0.6540884969259113  0.5000010148136353
  0.2107227980289570  0.6668813556467176  0.5363415976433590
  0.1439502490353846  0.6026289203646155  0.5726787678415386
  0.1439610426596547  0.6796728525489882  0.5726797826551739
  0.1217223427951108  0.6671728535190256  0.3183052941187436
  0.1662285575566491  0.6927572091421021  0.3909840619602820
  0.2107347723181879  0.7183415647651793  0.4636628298018206
  0.1439622233246155  0.6540891294830770  0.5000000000000000
  0.1439730169488856  0.7311330616674498  0.5000010148136353
  0.1217159401839552  0.6926141156612552  0.5000017631869079
  0.1884684380861542  0.6796734851061541  0.5726787678415386
  0.1662221549454938  0.7181984712843320  0.5726805310284465
  0.2329746528476925  0.7052578407292307  0.6453575356830770
  0.2107467466074184  0.7698017738836408  0.3909840619602820
  0.2552529613689569  0.7953861295067176  0.4636628298018206
  0.1217279144731857  0.7440743247797166  0.4273229953453694
  0.1884804123753847  0.7311336942246154  0.5000000000000000
  0.1884912059996549  0.8081776264089880  0.5000010148136353
  0.2329866271369230  0.7567180498476922  0.5726787678415386
  0.2329974207611931  0.8337619820320651  0.5726797826551739
  0.3442653908920339  0.8465548407528715  0.6090203654848974
  0.0771706323089570  0.3845789501759485  0.3909840619602820
  0.0549150917011929  0.4229548027012960  0.5000010148136353
  0.3219955074350395  0.5773354300566804  0.2819647112890201
  0.3664909285723081  0.5258758534953843  0.3546424643169232
  0.4777696923274186  0.6157126444005638  0.3909840619602820
  0.4109971433338462  0.5514602091184615  0.4273212321584616
  0.4110079369581165  0.6285041413028344  0.4273222469720970
  0.3887508601931855  0.5899851952966397  0.4273229953453694
  0.4555033580953849  0.5770445647415386  0.5000000000000000
  0.4555141517196548  0.6540884969259113  0.5000010148136353
  0.5667821218504954  0.6668813556467176  0.5363415976433590
  0.4332570749547242  0.6155695509197165  0.5000017631869079
  0.5000095728569232  0.6026289203646155  0.5726787678415386
  0.5000203664811933  0.6796728525489882  0.5726797826551739
  0.4777632897162630  0.6411539065427935  0.5726805310284465
  0.5445157876184618  0.6282132759876922  0.6453575356830770
  0.3220074817242702  0.6287956391751421  0.2092859434474816
  0.3665029028615390  0.5773360626138461  0.2819636964753848
  0.4777816666166491  0.6671728535190256  0.3183052941187436
  0.3442566197208781  0.6158610487920243  0.2819654596622925
  0.5667940961397265  0.7183415647651793  0.4636628298018206
  0.5000323407704240  0.7311330616674498  0.5000010148136353
  0.5445277619076925  0.6796734851061541  0.5726787678415386
  0.6558065256628031  0.7695102760113328  0.6090203654848974
  0.5222814787670322  0.7181984712843320  0.5726805310284465
  0.5890339766692310  0.7052578407292307  0.6453575356830770
  0.3665256707750394  0.7058402039166805  0.2092859434474816
  0.4777936409058799  0.7186330626374867  0.2456265262772051
  0.3442685940101088  0.6673212579104858  0.2092866918207541
  0.4110210919123082  0.6543806273553847  0.2819636964753848
  0.4555273066738463  0.6799649829784615  0.3546424643169232
  0.5668060704289570  0.7698017738836408  0.3909840619602820
  0.4332810235331859  0.7184899691566398  0.3546442275038310
  0.5000443150596552  0.7825932707859111  0.4273222469720970
  0.6558184999520338  0.8209704851297945  0.5363415976433590
  0.5890459509584617  0.7567180498476922  0.5726787678415386
  0.5890567445827318  0.8337619820320651  0.5726797826551739
  0.2774449776138465  0.2691578036476924  0.2819636964753848
  0.2774557712381162  0.3462017358320651  0.2819647112890201
  0.3887237413689569  0.3589945945528714  0.3183052941187436
  0.2551986944731858  0.3076827898258706  0.2819654596622925
  0.3664682007611934  0.3973704470782189  0.4273222469720970
  0.4777361708920342  0.4101633057990254  0.4636628298018206
  0.3442111239962626  0.3588515010720243  0.4273229953453694
  0.4109636218984614  0.3459108705169231  0.5000000000000000
  0.4109744155227317  0.4229548027012960  0.5000010148136353
  0.5667486004151108  0.4613320170451790  0.6090203654848974
  0.4332235535193399  0.4100202123181781  0.5726805310284465
  0.3887357156581881  0.4104548036713331  0.2456265262772051
  0.3219739602888856  0.4232463005736035  0.2819647112890201
  0.3664801750504241  0.4488306561966803  0.3546434791305585
  0.4777481451812645  0.4616235149174869  0.3909840619602820
  0.3442230982854935  0.4103117101904858  0.3546442275038310
  0.4109863898119627  0.4744150118197575  0.4273222469720970
  0.3887293130470318  0.4358960658135627  0.4273229953453694
  0.4554926045735009  0.4999993674428344  0.5000010148136353
  0.5667605747043415  0.5127922261636408  0.5363415976433590
  0.4332355278085703  0.4614804214366396  0.5000017631869079
  0.4999880257107696  0.4485397908815386  0.5726787678415386
  0.5444942404723081  0.4741241465046154  0.6453575356830770
  0.3664813557153851  0.4232469331307694  0.2819636964753848
  0.4777601194704954  0.5130837240359484  0.3183052941187436
  0.3442350725747242  0.4617719193089473  0.2819654596622925
  0.5667725489935727  0.5642524352821021  0.4636628298018206
  0.2551551672636582  0.1276169117635727  0.4849287986917979
  0.3886916207572971  0.1250233467675947  0.2648467610459472
  0.4134802844509923  0.1164463283861549  0.3374957228887212
  0.3244654534956075  0.1164463283861549  0.3374957228887212
  0.3638977958251917  0.1164423816958071  0.3375029305148068
  0.3886928071163770  0.1022300227114867  0.2970359918897578
  0.2996637834575044  0.1020325561404958  0.4122500308502596
  0.3193772053421146  0.0905665282004223  0.4828604661978838
  0.3193834562607674  0.1134000522813614  0.4444691144979612
  0.2799495330763939  0.1134036761874163  0.4444631888526615
  0.2996624140803741  0.1247318488952869  0.4828830645705625
  0.4134683101617613  0.0649861192676933  0.4101744907302596
  0.3638920724546132  0.0878156966582846  0.3717903466564228
  0.4134729802256242  0.0878193205643393  0.3717844210111231
  0.3441710302742201  0.0991474932722100  0.4102042967290241
  0.3886786144128886  0.1020325561404958  0.4122500308502596
  0.3441841909225310  0.1278143783345637  0.3697147597312962
  0.3441722166333003  0.0763541692161023  0.4423935275728348
  0.3886806664878763  0.0792377869277406  0.4444388628329924
  0.4083920362974991  0.0905665282004223  0.4828604661978838
  0.3689596939679151  0.0905704748907702  0.4828532585717980
  0.4083982872161517  0.1134000522813614  0.4444691144979612
  0.3689643640317782  0.1134036761874163  0.4444631888526615
  0.3441699982190430  0.1276169117635727  0.4849287986917979
  0.3886772450357586  0.1247318488952869  0.4828830645705625
  0.4777064517126816  0.1250233467675947  0.2648467610459472
  0.4777076380717618  0.1022300227114867  0.2970359918897578
  0.4529126267805761  0.1164423816958071  0.3375029305148068
  0.4776944774234507  0.0735631376491331  0.3375255288874855
  0.4332012569709532  0.1051136404231250  0.2990813271499155
  0.4331872306067344  0.0764482005174190  0.3395712630087211
  0.5667212826680664  0.1250233467675947  0.2648467610459472
  0.5667093083788355  0.0735631376491331  0.3375255288874855
  0.5222020615621191  0.0764482005174190  0.3395712630087211
  0.5667224690271464  0.1022300227114867  0.2970359918897578
  0.5222160879263376  0.1051136404231250  0.2990813271499155
  0.5419274577359608  0.1164423816958071  0.3375029305148068
  0.5024951154063766  0.1164463283861549  0.3374957228887212
  0.4331858612296047  0.0991474932722100  0.4102042967290241
  0.4529006524913454  0.0649821725773454  0.4101816983563452
  0.4529069034099977  0.0878156966582846  0.3717903466564228
  0.4331990218779158  0.1278143783345637  0.3697147597312962
  0.4776934453682734  0.1020325561404958  0.4122500308502596
  0.5024831411171456  0.0649861192676933  0.4101744907302596
  0.5024878111810090  0.0878193205643393  0.3717844210111231
  0.5222006921849894  0.0991474932722100  0.4102042967290241
  0.5222138528333004  0.1278143783345637  0.3697147597312962
  0.5419217343653825  0.0878156966582846  0.3717903466564228
  0.5419154834467299  0.0649821725773454  0.4101816983563452
  0.5667082763236581  0.1020325561404958  0.4122500308502596
  0.4331870475886850  0.0763541692161023  0.4423935275728348
  0.4776814710790426  0.0505723470220345  0.4849287986917979
  0.4331738869403740  0.0476872841537485  0.4828830645705625
  0.4776954974432611  0.0792377869277406  0.4444388628329924
  0.4974068672528837  0.0905665282004223  0.4828604661978838
  0.4579745249232999  0.0905704748907702  0.4828532585717980
  0.4974131181715364  0.1134000522813614  0.4444691144979612
  0.4579791949871626  0.1134036761874163  0.4444631888526615
  0.4776920759911432  0.1247318488952869  0.4828830645705625
  0.5666963020344274  0.0505723470220345  0.4849287986917979
  0.5221887178957585  0.0476872841537485  0.4828830645705625
  0.5222018785440699  0.0763541692161023  0.4423935275728348
  0.5667103283986454  0.0792377869277406  0.4444388628329924
  0.5469893558786842  0.0905704748907702  0.4828532585717980
  0.5667069069465275  0.1247318488952869  0.4828830645705625
  0.5469940259425473  0.1134036761874163  0.4444631888526615
  0.5915099463617614  0.1164463283861549  0.3374957228887212
  0.6112309188817223  0.1051136404231250  0.2990813271499155
  0.6309422886913456  0.1164423816958071  0.3375029305148068
  0.6805247773171461  0.1164463283861549  0.3374957228887212
  0.5914979720725304  0.0649861192676933  0.4101744907302596
  0.6309365653207670  0.0878156966582846  0.3717903466564228
  0.6112155231403738  0.0991474932722100  0.4102042967290241
  0.6112286837886849  0.1278143783345637  0.3697147597312962
  0.5915026421363934  0.0878193205643393  0.3717844210111231
  0.6557231072790425  0.1020325561404958  0.4122500308502596
  0.7002303540957587  0.0991474932722100  0.4102042967290241
  0.7002435147440697  0.1278143783345637  0.3697147597312962
  0.6112167094994542  0.0763541692161023  0.4423935275728348
  0.5864216982082684  0.0905665282004223  0.4828604661978838
  0.6112144910851967  0.1276169117635727  0.4849287986917979
  0.5864279491269210  0.1134000522813614  0.4444691144979612
  0.6360041868340690  0.0905704748907702  0.4828532585717980
  0.7250236878533168  0.1134036761874163  0.4444631888526615
  0.7002293220405812  0.1276169117635727  0.4849287986917979
  0.6557217379019123  0.1247318488952869  0.4828830645705625
  0.1019533926010089  0.3189530147889549  0.3717844210111231
  0.1216676429821195  0.3075818947420343  0.3395712630087211
  0.1216556686928890  0.2561216856235729  0.4122500308502596
  0.1216542993157589  0.2788209783783639  0.4828830645705625
  0.1019606968263770  0.3475800226107702  0.3374957228887212
  0.0968963972513452  0.4246206406619605  0.3375029305148068
  0.0969026481699980  0.4474541647429000  0.2991115788148843
  0.0771816059896047  0.4587859613568253  0.3375255288874855
  0.0771696317003740  0.4073257522383638  0.4102042967290241
  0.0968906738807671  0.3959939556244385  0.3717903466564228
  0.0968844229621145  0.3731604315434991  0.4101816983563452
  0.1216662736049894  0.3302811874968254  0.4102042967290241
  0.0523758067682685  0.3987447871665762  0.4828604661978838
  0.0771576574111433  0.3558655431199023  0.4828830645705625
  0.0771708180594544  0.3845324281822560  0.4423935275728348
  0.1019582953940688  0.3987487338569244  0.4828532585717980
  0.1216652415498122  0.3587506059881880  0.4849287986917979
  0.0968724486728838  0.3217002224250378  0.4828604661978838
  0.0523877810574992  0.4502049962850377  0.4101816983563452
  0.0771827923486849  0.4359926373007175  0.3697147597312962
  0.0771805739344273  0.4872553798481881  0.4122500308502596
  0.1019749397471628  0.4730421442720318  0.3717844210111231
  0.1019702696832999  0.4502089429753854  0.4101744907302596
  0.0523820576869213  0.4215783112475153  0.4444691144979612
  0.0574616534894539  0.4757932985984625  0.4828532585717980
  0.0574663235533163  0.4986264998951087  0.4444631888526615
  0.0771685996451967  0.4357951707297266  0.4849287986917979
  0.0771826260094147  0.4644606106354327  0.4444388628329924
  0.0969002467376905  0.4986228759890537  0.4444691144979612
  0.1019629654579319  0.4215819351535701  0.4444631888526615
  0.0968939958190377  0.4757893519081146  0.4828604661978838
  0.2303863229651914  0.1934869464373453  0.3375029305148068
  0.2303925738838440  0.2163204705182847  0.2991115788148843
  0.1661642848867348  0.2305373300004960  0.3395712630087211
  0.2106715317034512  0.2276522671322101  0.3375255288874855
  0.2106966666409925  0.3077793613130251  0.2243572240482194
  0.2106846923517618  0.2563191521945635  0.2970359918897578
  0.2106835059926818  0.2791124762506715  0.2648467610459472
  0.1661783112509531  0.2592027699062020  0.2990813271499155
  0.1464620087948550  0.2933686591658778  0.2991056531695845
  0.1858896810605761  0.2705315111788839  0.3375029305148068
  0.1464573387309927  0.2705354578692318  0.3374957228887212
  0.1858959319792287  0.2933650352598231  0.2991115788148843
  0.1661748897988354  0.3046968318737487  0.3375255288874855
  0.2106824739375041  0.3075818947420343  0.3395712630087211
  0.2551801478972970  0.2020679115091331  0.2648467610459472
  0.2996877320359658  0.2049529743774191  0.2668924951671827
  0.2551681736080660  0.1506077023906716  0.3375255288874855
  0.2551813342563769  0.1792745874530252  0.2970359918897578
  0.2799688115909924  0.1934908931276933  0.3374957228887212
  0.2799734816548551  0.2163240944243395  0.2991056531695845
  0.2996863626588352  0.2276522671322101  0.3375255288874855
  0.2996897841109536  0.1821582051646635  0.2990813271499155
  0.2996757577467349  0.1534927652589574  0.3395712630087211
  0.3194074048392290  0.2163204705182847  0.2991115788148843
  0.3194011539205762  0.1934869464373453  0.3375029305148068
  0.2552051164955685  0.3106629790246634  0.2264025593083770
  0.2551910901313507  0.2819975391189574  0.2668924951671827
  0.2551933085456083  0.2307347965714866  0.2243572240482194
  0.2304045481730747  0.2677806796367461  0.2264328109733457
  0.2303982972544221  0.2449471555558069  0.2648241626732683
  0.2799807858802228  0.2449511022461549  0.2648169550471827
  0.2799854559440862  0.2677843035428010  0.2264268853280461
  0.2996983369480664  0.2791124762506715  0.2648467610459472
  0.2997114975963775  0.3077793613130251  0.2243572240482194
  0.3194193791284595  0.2677806796367461  0.2264328109733457
  0.2997017584001836  0.2336184142831250  0.2264025593083770
  0.3194131282098069  0.2449471555558069  0.2648241626732683
  0.2354721696863770  0.2705354578692318  0.3374957228887212
  0.2551791158421194  0.2305373300004960  0.3395712630087211
  0.2551897207542201  0.3046968318737487  0.3375255288874855
  0.2354768397502397  0.2933686591658778  0.2991056531695845
  0.2551931422063378  0.2592027699062020  0.2990813271499155
  0.2749107629346132  0.2933650352598231  0.2991115788148843
  0.2749045120159604  0.2705315111788839  0.3375029305148068
  0.2996973048928890  0.3075818947420343  0.3395712630087211
  0.2996995233071466  0.2563191521945635  0.2970359918897578
  0.2303743486759607  0.1420267373188838  0.4101816983563452
  0.2303805995946133  0.1648602613998229  0.3717903466564228
  0.2106595574142202  0.1761920580137485  0.4102042967290241
  0.1464453644417616  0.2190752487507702  0.4101744907302596
  0.2106727180625311  0.2048589430761022  0.3697147597312962
  0.1858777067713454  0.2190713020604222  0.4101816983563452
  0.2106607437733004  0.1533987339576405  0.4423935275728348
  0.1661641018686851  0.2304432986991791  0.4423935275728348
  0.2106725517232607  0.2333269164108172  0.4444388628329924
  0.1858719834007675  0.1904446170229000  0.4444691144979612
  0.2106585253590429  0.2046614765051113  0.4849287986917979
  0.1661509412203742  0.2017764136368254  0.4828830645705625
  0.1858657324821147  0.1676110929419606  0.4828604661978838
  0.1413810648667303  0.2961158668019608  0.4101816983563452
  0.1216696950571068  0.2847871255292788  0.3717600949914539
  0.1413873157853824  0.3189493908829001  0.3717903466564228
  0.1661760761579155  0.2819035078176405  0.3697147597312962
  0.1464500345056243  0.2419084500474164  0.3717844210111231
  0.1661629155096049  0.2532366227552870  0.4102042967290241
  0.1858839576899980  0.2419048261413613  0.3717903466564228
  0.1909635534925308  0.2961198134923087  0.4101744907302596
  0.2303958958221146  0.2961158668019608  0.4101816983563452
  0.2106704996482736  0.2561216856235729  0.4122500308502596
  0.1909682235563935  0.3189530147889549  0.3717844210111231
  0.2106845260124916  0.2847871255292788  0.3717600949914539
  0.1661618834544273  0.2817060412466497  0.4849287986917979
  0.1413753414961521  0.2674891817644383  0.4444691144979612
  0.1413690905774994  0.2446556576834991  0.4828604661978838
  0.1661759098186453  0.3103714811523557  0.4444388628329924
  0.1858872796282683  0.3217002224250378  0.4828604661978838
  0.1909515792032997  0.2446596043738472  0.4828532585717980
  0.2106691302711432  0.2788209783783639  0.4828830645705625
  0.1909562492671626  0.2674928056704934  0.4444631888526615
  0.2106822909194543  0.3074878634407176  0.4423935275728348
  0.2303839215328839  0.2446556576834991  0.4828604661978838
  0.2303901724515367  0.2674891817644383  0.4444691144979612
  0.2799615073656241  0.1648638853058779  0.3717844210111231
  0.2799568373017612  0.1420306840092317  0.4101744907302596
  0.3193891796313453  0.1420267373188838  0.4101816983563452
  0.2996778098217220  0.1306979960462019  0.3717600949914539
  0.3193954305499981  0.1648602613998229  0.3717903466564228
  0.2996743883696048  0.1761920580137485  0.4102042967290241
  0.2551671415528889  0.1790771208820343  0.4122500308502596
  0.2748925377267299  0.2190713020604222  0.4101816983563452
  0.2996875490179161  0.2048589430761022  0.3697147597312962
  0.2354601953971461  0.2190752487507702  0.4101744907302596
  0.2551811679171069  0.2077425607877402  0.3717600949914539
  0.2551691936278762  0.1562823516692789  0.4444388628329924
  0.2354482211079152  0.1676150396323088  0.4828532585717980
  0.2551657721757588  0.2017764136368254  0.4828830645705625
  0.2354528911717779  0.1904482409289549  0.4444631888526615
  0.2551789328240696  0.2304432986991791  0.4423935275728348
  0.2748805634374990  0.1676110929419606  0.4828604661978838
  0.2748868143561518  0.1904446170229000  0.4444691144979612
  0.2996733563144274  0.2046614765051113  0.4849287986917979
  0.2996755747286854  0.1533987339576405  0.4423935275728348
  0.2748987886453825  0.2419048261413613  0.3717903466564228
  0.2354648654610088  0.2419084500474164  0.3717844210111231
  0.2304021467407672  0.3189493908829001  0.3717903466564228
  0.2551777464649895  0.2532366227552870  0.4102042967290241
  0.2551909071133003  0.2819035078176405  0.3697147597312962
  0.2996853306036581  0.2561216856235729  0.4122500308502596
  0.2996993569678761  0.2847871255292788  0.3717600949914539
  0.2799783844479153  0.2961198134923087  0.4101744907302596
  0.2799830545117782  0.3189530147889549  0.3717844210111231
  0.3194107267774994  0.2961158668019608  0.4101816983563452
  0.3194169776961517  0.3189493908829001  0.3717903466564228
  0.2551907407740299  0.3103714811523557  0.4444388628329924
  0.2551767144098121  0.2817060412466497  0.4849287986917979
  0.2799664101586845  0.2446596043738472  0.4828532585717980
  0.2749021105836531  0.3217002224250378  0.4828604661978838
  0.2799710802225471  0.2674928056704934  0.4444631888526615
  0.2996839612265282  0.2788209783783639  0.4828830645705625
  0.2996873826786454  0.2333269164108172  0.4444388628329924
  0.3193987524882682  0.2446556576834991  0.4828604661978838
  0.3194050034069210  0.2674891817644383  0.4444691144979612
  0.2996971218748388  0.3074878634407176  0.4423935275728348
  0.1661868640880661  0.3561570409922100  0.2648467610459472
  0.1909875020709924  0.3990402317292316  0.2648169550471827
  0.1859016553498068  0.3219917202973453  0.2648241626732683
  0.1464693130202228  0.3219956669876933  0.2648169550471827
  0.1662000247363774  0.3848239260545637  0.2243572240482194
  0.1859079062684596  0.3448252443782844  0.2264328109733457
  0.1414050134451915  0.3990362850388837  0.2648241626732683
  0.2106944482267352  0.3590421038604957  0.2668924951671827
  0.1216816693463380  0.3362473346477405  0.2990813271499155
  0.1661880504471465  0.3333637169361022  0.2970359918897578
  0.1661858320328887  0.3846264594835727  0.3395712630087211
  0.1413992900746135  0.3704096000013614  0.2991115788148843
  0.1909755277817619  0.3475800226107702  0.3374957228887212
  0.1909801978456242  0.3704132239074161  0.2991056531695845
  0.2106930788496044  0.3817413966152869  0.3375255288874855
  0.2106965003017225  0.3362473346477405  0.2990813271499155
  0.2107062394979155  0.4104082816776405  0.2970359918897578
  0.1414112643638440  0.4218698091198228  0.2264328109733457
  0.1216902221834510  0.4332016057337486  0.2648467610459472
  0.1464908601663769  0.4760847964707702  0.2648169550471827
  0.1464955302302398  0.4989179977674164  0.2264268853280461
  0.1662118326863379  0.4647521085077404  0.2264025593083770
  0.1859294534146133  0.4989143738613614  0.2264328109733457
  0.1909921721348551  0.4218734330258778  0.2264268853280461
  0.2107050531388355  0.4332016057337486  0.2648467610459472
  0.1464788858771462  0.4246245873523087  0.3374957228887212
  0.1216914085425309  0.4104082816776405  0.2970359918897578
  0.1859112282067300  0.4246206406619605  0.3375029305148068
  0.1661998583971072  0.4132918993892791  0.2990813271499155
  0.1661964369449895  0.4587859613568253  0.3375255288874855
  0.1216891901282732  0.4616710242251112  0.3395712630087211
  0.2107040210836579  0.4616710242251112  0.3395712630087211
  0.1662095975933001  0.4874528464191791  0.2970359918897578
  0.1217032164924918  0.4903364641308173  0.2990813271499155
  0.2552016950434511  0.3561570409922100  0.2648467610459472
  0.2749164863051913  0.3219917202973453  0.2648241626732683
  0.2552148556917617  0.3848239260545637  0.2243572240482194
  0.2800023330263769  0.3990402317292316  0.2648169550471827
  0.3194346753559605  0.3990362850388837  0.2648241626732683
  0.2107084745909532  0.3877075437662018  0.2264025593083770
  0.2749227372238441  0.3448252443782844  0.2264328109733457
  0.2997233055463377  0.3877075437662018  0.2264025593083770
  0.2354888140394704  0.3448288682843395  0.2264268853280461
  0.2304198444005760  0.3990362850388837  0.2648241626732683
  0.2354841439756075  0.3219956669876933  0.2648169550471827
  0.2997092791821198  0.3590421038604957  0.2668924951671827
  0.2552028814025312  0.3333637169361022  0.2970359918897578
  0.2304078701113453  0.3475760759204222  0.3375029305148068
  0.2304141210299981  0.3704096000013614  0.2991115788148843
  0.2552006629882733  0.3846264594835727  0.3395712630087211
  0.2799903587371463  0.3475800226107702  0.3374957228887212
  0.2799950288010087  0.3704132239074161  0.2991056531695845
  0.2997079098049894  0.3817413966152869  0.3375255288874855
  0.2997113312571072  0.3362473346477405  0.2990813271499155
  0.3194289519853826  0.3704096000013614  0.2991115788148843
  0.2997210704533003  0.4104082816776405  0.2970359918897578
  0.3194227010667301  0.3475760759204222  0.3375029305148068
  0.2552126372775042  0.4360866686020343  0.2668924951671827
  0.2355056911217614  0.4760847964707702  0.2648169550471827
  0.2107182137871464  0.4618684907961020  0.2243572240482194
  0.2355103611856243  0.4989179977674164  0.2264268853280461
  0.2304260953192288  0.4218698091198228  0.2264328109733457
  0.2552266636417224  0.4647521085077404  0.2264025593083770
  0.2749380334513452  0.4760808497804223  0.2648241626732683
  0.2997330447425312  0.4618684907961020  0.2243572240482194
  0.2749442843699978  0.4989143738613614  0.2264328109733457
  0.2800070030902396  0.4218734330258778  0.2264268853280461
  0.2997198840942203  0.4332016057337486  0.2648467610459472
  0.3194409262746133  0.4218698091198228  0.2264328109733457
  0.2354983868963936  0.4474577886489547  0.2991056531695845
  0.2354937168325310  0.4246245873523087  0.3374957228887212
  0.2107180474478762  0.4903364641308173  0.2990813271499155
  0.2552146893524919  0.4132918993892791  0.2990813271499155
  0.2552112679003739  0.4587859613568253  0.3375255288874855
  0.2552244285486849  0.4874528464191791  0.2970359918897578
  0.2749260591621145  0.4246206406619605  0.3375029305148068
  0.2749323100807671  0.4474541647429000  0.2991115788148843
  0.2997188520390425  0.4616710242251112  0.3395712630087211
  0.2997328784032611  0.4903364641308173  0.2990813271499155
  0.1464669115879152  0.3731643782338473  0.4101744907302596
  0.1216772158390427  0.4102108151066498  0.4122500308502596
  0.1216794342533007  0.3589480725591791  0.3697147597312962
  0.1661738577436584  0.3331662503651112  0.4122500308502596
  0.1661844626557586  0.4073257522383638  0.4102042967290241
  0.2106942652086848  0.3589480725591791  0.3697147597312962
  0.2106811045603741  0.3302811874968254  0.4102042967290241
  0.1858992539174993  0.3731604315434991  0.4101816983563452
  0.2106920467944277  0.4102108151066498  0.4122500308502596
  0.1859055048361521  0.3959939556244385  0.3717903466564228
  0.1464549372986846  0.3217041691153856  0.4828532585717980
  0.1464596073625472  0.3445373704120318  0.4444631888526615
  0.1216792679140302  0.3874160458938941  0.4444388628329924
  0.1413906377236530  0.3987447871665762  0.4828604661978838
  0.1661724883665279  0.3558655431199023  0.4828830645705625
  0.1661856490148392  0.3845324281822560  0.4423935275728348
  0.1858935305469211  0.3445337465059770  0.4444691144979612
  0.2106800725051967  0.3587506059881880  0.4849287986917979
  0.1909731263494538  0.3987487338569244  0.4828532585717980
  0.2106940988694148  0.3874160458938941  0.4444388628329924
  0.1414026120128837  0.4502049962850377  0.4101816983563452
  0.1414088629315361  0.4730385203659768  0.3717903466564228
  0.1909851006386845  0.4502089429753854  0.4101744907302596
  0.1909897707025478  0.4730421442720318  0.3717844210111231
  0.1216912422032607  0.4388762550123556  0.3717600949914539
  0.1661976233040699  0.4359926373007175  0.3697147597312962
  0.1216878207511432  0.4843703169799023  0.4102042967290241
  0.2107026517065280  0.4843703169799023  0.4102042967290241
  0.1661954048898117  0.4872553798481881  0.4122500308502596
  0.1413968886423056  0.4215783112475153  0.4444691144979612
  0.1216890071102236  0.4615769929237943  0.4423935275728348
  0.1216758464619128  0.4329101078614407  0.4828830645705625
  0.1661834306005812  0.4357951707297266  0.4849287986917979
  0.1859088267744222  0.4757893519081146  0.4828604661978838
  0.2106906774172973  0.4329101078614407  0.4828830645705625
  0.1909777964133162  0.4215819351535701  0.4444631888526615
  0.2107038380656084  0.4615769929237943  0.4423935275728348
  0.2354864126071627  0.3959975795304932  0.3717844210111231
  0.2551886886990428  0.3331662503651112  0.4122500308502596
  0.2551992936111434  0.4073257522383638  0.4102042967290241
  0.2354817425432998  0.3731643782338473  0.4101744907302596
  0.2552027150632608  0.3618316902708172  0.3717600949914539
  0.2749140848728836  0.3731604315434991  0.4101816983563452
  0.2749203357915364  0.3959939556244385  0.3717903466564228
  0.2996959355157587  0.3302811874968254  0.4102042967290241
  0.2997090961640695  0.3589480725591791  0.3697147597312962
  0.2997068777498120  0.4102108151066498  0.4122500308502596
  0.2354744383179320  0.3445373704120318  0.4444631888526615
  0.2749083615023059  0.3445337465059770  0.4444691144979612
  0.2996949034605815  0.3587506059881880  0.4849287986917979
  0.2552004799702235  0.3845324281822560  0.4423935275728348
  0.2997089298247993  0.3874160458938941  0.4444388628329924
  0.3194202996344221  0.3987447871665762  0.4828604661978838
  0.2304054686790376  0.3987447871665762  0.4828604661978838
  0.2799879573048383  0.3987487338569244  0.4828532585717980
  0.3194265505530751  0.4215783112475153  0.4444691144979612
  0.2304117195976906  0.4215783112475153  0.4444691144979612
  0.2800046016579319  0.4730421442720318  0.3717844210111231
  0.2107060731586453  0.4388762550123556  0.3717600949914539
  0.2552124542594544  0.4359926373007175  0.3697147597312962
  0.2304174429682685  0.4502049962850377  0.4101816983563452
  0.2799999315940692  0.4502089429753854  0.4101744907302596
  0.2304236938869209  0.4730385203659768  0.3717903466564228
  0.2997174826619126  0.4843703169799023  0.4102042967290241
  0.3194322739236530  0.4502049962850377  0.4101816983563452
  0.2552102358451967  0.4872553798481881  0.4122500308502596
  0.2551982615559658  0.4357951707297266  0.4849287986917979
  0.2354913154002230  0.4757932985984625  0.4828532585717980
  0.2354959854640861  0.4986264998951087  0.4444631888526615
  0.2749236577298068  0.4757893519081146  0.4828604661978838
  0.2552122879201840  0.4644606106354327  0.4444388628329924
  0.2749299086484596  0.4986228759890537  0.4444691144979612
  0.2799926273687010  0.4215819351535701  0.4444631888526615
  0.2997186690209928  0.4615769929237943  0.4423935275728348
  0.2997055083726818  0.4329101078614407  0.4828830645705625
  0.4332098098080663  0.2020679115091331  0.2648467610459472
  0.3887047814056079  0.1536902318299483  0.2243572240482194
  0.4134922587402228  0.1679065375046165  0.2648169550471827
  0.4134969288040859  0.1907397388012626  0.2264268853280461
  0.3639160210330748  0.1907361148952075  0.2264328109733457
  0.3639097701144222  0.1679025908142683  0.2648241626732683
  0.3244820978487011  0.1907397388012626  0.2264268853280461
  0.3244774277848382  0.1679065375046165  0.2648169550471827
  0.3441949788526820  0.2020679115091331  0.2648467610459472
  0.3441830045634510  0.1506077023906716  0.3375255288874855
  0.3639040467438439  0.1392759057767460  0.2991115788148843
  0.3441961652117619  0.1792745874530252  0.2970359918897578
  0.3244701235594706  0.1392795296828010  0.2991056531695845
  0.3689836425463774  0.1934908931276933  0.3374957228887212
  0.3886905887021195  0.1534927652589574  0.3395712630087211
  0.3887046150663379  0.1821582051646635  0.2990813271499155
  0.4084159848759608  0.1934869464373453  0.3375029305148068
  0.3887025629913504  0.2049529743774191  0.2668924951671827
  0.4331978355188356  0.1506077023906716  0.3375255288874855
  0.4331992048959658  0.1279084096358804  0.2668924951671827
  0.4134849545148550  0.1392795296828010  0.2991056531695845
  0.3442059210867355  0.2819975391189574  0.2668924951671827
  0.3887263285517618  0.3077793613130251  0.2243572240482194
  0.3690002868994706  0.2677843035428010  0.2264268853280461
  0.3887131679034512  0.2791124762506715  0.2648467610459472
  0.3442199474509531  0.3106629790246634  0.2264025593083770
  0.3442081395009928  0.2307347965714866  0.2243572240482194
  0.4084342100838442  0.2677806796367461  0.2264328109733457
  0.4084279591651916  0.2449471555558069  0.2648241626732683
  0.3689956168356074  0.2449511022461549  0.2648169550471827
  0.3887165893555684  0.2336184142831250  0.2264025593083770
  0.3442045517096050  0.3046968318737487  0.3375255288874855
  0.3442079731617226  0.2592027699062020  0.2990813271499155
  0.3441939467975041  0.2305373300004960  0.3395712630087211
  0.3244870006417616  0.2705354578692318  0.3374957228887212
  0.3244916707056243  0.2933686591658778  0.2991056531695845
  0.3639255938899976  0.2933650352598231  0.2991115788148843
  0.3639193429713454  0.2705315111788839  0.3375029305148068
  0.3689883126102398  0.2163240944243395  0.2991056531695845
  0.3887011936142203  0.2276522671322101  0.3375255288874855
  0.4332087777528887  0.2305373300004960  0.3395712630087211
  0.3887143542625311  0.2563191521945635  0.2970359918897578
  0.3887121358482738  0.3075818947420343  0.3395712630087211
  0.4135018315971466  0.2705354578692318  0.3374957228887212
  0.4084222357946133  0.2163204705182847  0.2991115788148843
  0.4135065016610091  0.2933686591658778  0.2991056531695845
  0.5222246407634509  0.2020679115091331  0.2648467610459472
  0.4332132312601837  0.1565738495415864  0.2264025593083770
  0.5025117597594704  0.1907397388012626  0.2264268853280461
  0.5025070896956075  0.1679065375046165  0.2648169550471827
  0.4777196123609925  0.1536902318299483  0.2243572240482194
  0.5222280622155685  0.1565738495415864  0.2264025593083770
  0.4529308519884593  0.1907361148952075  0.2264328109733457
  0.4529246010698068  0.1679025908142683  0.2648241626732683
  0.5222140358513503  0.1279084096358804  0.2668924951671827
  0.5024997854702398  0.1392795296828010  0.2991056531695845
  0.4529188776992287  0.1392759057767460  0.2991115788148843
  0.4777054196575038  0.1534927652589574  0.3395712630087211
  0.5222126664742199  0.1506077023906716  0.3375255288874855
  0.4332109961671463  0.1792745874530252  0.2970359918897578
  0.5222258271225309  0.1792745874530252  0.2970359918897578
  0.4777194460217227  0.1821582051646635  0.2990813271499155
  0.4974370667499981  0.2163204705182847  0.2991115788148843
  0.4579984735017617  0.1934908931276933  0.3374957228887212
  0.4777160245696048  0.2276522671322101  0.3375255288874855
  0.5222236087082732  0.2305373300004960  0.3395712630087211
  0.4332347784063378  0.3106629790246634  0.2264025593083770
  0.4332229704563771  0.2307347965714866  0.2243572240482194
  0.5222378014117617  0.2307347965714866  0.2243572240482194
  0.4777411595071466  0.3077793613130251  0.2243572240482194
  0.4332207520421201  0.2819975391189574  0.2668924951671827
  0.4580151178548553  0.2677843035428010  0.2264268853280461
  0.4777314203109527  0.2336184142831250  0.2264025593083770
  0.4974490410392285  0.2677806796367461  0.2264328109733457
  0.5222355829975044  0.2819975391189574  0.2668924951671827
  0.4777279988588357  0.2791124762506715  0.2648467610459472
  0.4332228041171070  0.2592027699062020  0.2990813271499155
  0.4332193826649895  0.3046968318737487  0.3375255288874855
  0.4529404248453823  0.2933650352598231  0.2991115788148843
  0.4529341739267300  0.2705315111788839  0.3375029305148068
  0.4777269668036579  0.3075818947420343  0.3395712630087211
  0.4777291852179155  0.2563191521945635  0.2970359918897578
  0.5025166625525309  0.2705354578692318  0.3374957228887212
  0.5222376350724917  0.2592027699062020  0.2990813271499155
  0.3689716682571458  0.1420306840092317  0.4101744907302596
  0.3441819725082739  0.1790771208820343  0.4122500308502596
  0.3441959988724917  0.2077425607877402  0.3717600949914539
  0.3886892193249896  0.1761920580137485  0.4102042967290241
  0.3689763383210089  0.1648638853058779  0.3717844210111231
  0.3886926407771068  0.1306979960462019  0.3717600949914539
  0.4084102615053824  0.1648602613998229  0.3717903466564228
  0.3887023799733002  0.2048589430761022  0.3697147597312962
  0.4084040105867298  0.1420267373188838  0.4101816983563452
  0.4331968034636580  0.1790771208820343  0.4122500308502596
  0.3244630520633000  0.1676150396323088  0.4828532585717980
  0.3244677221271629  0.1904482409289549  0.4444631888526615
  0.3441806031311433  0.2017764136368254  0.4828830645705625
  0.3638953943928838  0.1676110929419606  0.4828604661978838
  0.3441840245832605  0.1562823516692789  0.4444388628329924
  0.3639016453115366  0.1904446170229000  0.4444691144979612
  0.4134825530825472  0.1904482409289549  0.4444631888526615
  0.4331954340865281  0.2017764136368254  0.4828830645705625
  0.3886881872698120  0.2046614765051113  0.4849287986917979
  0.4331988555386453  0.1562823516692789  0.4444388628329924
  0.3886904056840697  0.1533987339576405  0.4423935275728348
  0.3244750263525304  0.2190752487507702  0.4101744907302596
  0.4134898573079153  0.2190752487507702  0.4101744907302596
  0.3639073686821145  0.2190713020604222  0.4101816983563452
  0.3244796964163933  0.2419084500474164  0.3717844210111231
  0.3639136196007673  0.2419048261413613  0.3717903466564228
  0.4134945273717781  0.2419084500474164  0.3717844210111231
  0.3442057380686853  0.2819035078176405  0.3697147597312962
  0.3887141879232609  0.2847871255292788  0.3717600949914539
  0.4084255577328841  0.2961158668019608  0.4101816983563452
  0.3689932154032999  0.2961198134923087  0.4101744907302596
  0.4084318086515365  0.3189493908829001  0.3717903466564228
  0.3887119528302236  0.3074878634407176  0.4423935275728348
  0.3441925774203740  0.2532366227552870  0.4102042967290241
  0.3887001615590431  0.2561216856235729  0.4122500308502596
  0.3441937637794546  0.2304432986991791  0.4423935275728348
  0.3442055717294146  0.3103714811523557  0.4444388628329924
  0.3887022136340300  0.2333269164108172  0.4444388628329924
  0.3689859111779321  0.2674928056704934  0.4444631888526615
  0.4084198343623058  0.2674891817644383  0.4444691144979612
  0.4084135834436528  0.2446556576834991  0.4828604661978838
  0.3886987921819125  0.2788209783783639  0.4828830645705625
  0.3689812411140690  0.2446596043738472  0.4828532585717980
  0.4777040502803739  0.1761920580137485  0.4102042967290241
  0.4529221996374990  0.2190713020604222  0.4101816983563452
  0.4579864992125306  0.1420306840092317  0.4101744907302596
  0.4579911692763933  0.1648638853058779  0.3717844210111231
  0.4332108298278760  0.2077425607877402  0.3717600949914539
  0.4777074717324911  0.1306979960462019  0.3717600949914539
  0.4974188415421146  0.1420267373188838  0.4101816983563452
  0.4974250924607669  0.1648602613998229  0.3717903466564228
  0.5025046882633000  0.2190752487507702  0.4101744907302596
  0.4332085947348390  0.2304432986991791  0.4423935275728348
  0.4529164762669209  0.1904446170229000  0.4444691144979612
  0.4777030182251965  0.2046614765051113  0.4849287986917979
  0.4777052366394543  0.1533987339576405  0.4423935275728348
  0.5222102650419124  0.2017764136368254  0.4828830645705625
  0.5024973840379318  0.1904482409289549  0.4444631888526615
  0.5222116344190427  0.1790771208820343  0.4122500308502596
  0.5222136864940301  0.1562823516692789  0.4444388628329924
  0.5222234256902235  0.2304432986991791  0.4423935275728348
  0.4529284505561516  0.2419048261413613  0.3717903466564228
  0.4332074083757588  0.2532366227552870  0.4102042967290241
  0.4332205690240694  0.2819035078176405  0.3697147597312962
  0.4580080463586845  0.2961198134923087  0.4101744907302596
  0.4777290188786452  0.2847871255292788  0.3717600949914539
  0.4974403886882685  0.2961158668019608  0.4101816983563452
  0.4974466396069208  0.3189493908829001  0.3717903466564228
  0.5222353999794542  0.2819035078176405  0.3697147597312962
  0.5222222393311431  0.2532366227552870  0.4102042967290241
  0.4580007421333164  0.2674928056704934  0.4444631888526615
  0.4332063763205814  0.2817060412466497  0.4849287986917979
  0.4579960720694535  0.2446596043738472  0.4828532585717980
  0.4777149925144272  0.2561216856235729  0.4122500308502596
  0.4777136231372973  0.2788209783783639  0.4828830645705625
  0.4777170445894146  0.2333269164108172  0.4444388628329924
  0.4777267837856080  0.3074878634407176  0.4423935275728348
  0.4974284143990376  0.2446556576834991  0.4828604661978838
  0.4974346653176902  0.2674891817644383  0.4444691144979612
  0.5222212072759655  0.2817060412466497  0.4849287986917979
  0.5222352336401838  0.3103714811523557  0.4444388628329924
  0.3442296866471465  0.3848239260545637  0.2243572240482194
  0.3887381365017223  0.3877075437662018  0.2264025593083770
  0.3639375681792287  0.3448252443782844  0.2264328109733457
  0.3245036449948550  0.3448288682843395  0.2264268853280461
  0.4135184759502393  0.3448288682843395  0.2264268853280461
  0.4135138058863767  0.3219956669876933  0.2648169550471827
  0.3244989749309921  0.3219956669876933  0.2648169550471827
  0.3639313172605759  0.3219917202973453  0.2648241626732683
  0.3690171639817613  0.3990402317292316  0.2648169550471827
  0.4084495063113451  0.3990362850388837  0.2648241626732683
  0.3442165259988356  0.3561570409922100  0.2648467610459472
  0.3887261622124918  0.3362473346477405  0.2990813271499155
  0.3887241101375045  0.3590421038604957  0.2668924951671827
  0.3887359014086850  0.4104082816776405  0.2970359918897578
  0.3442295203078765  0.4132918993892791  0.2990813271499155
  0.3442177123579156  0.3333637169361022  0.2970359918897578
  0.3690098597563935  0.3704132239074161  0.2991056531695845
  0.4084437829407670  0.3704096000013614  0.2991115788148843
  0.3690051896925308  0.3475800226107702  0.3374957228887212
  0.3887227407603742  0.3817413966152869  0.3375255288874855
  0.3442154939436580  0.3846264594835727  0.3395712630087211
  0.4084375320221144  0.3475760759204222  0.3375029305148068
  0.3690218340456244  0.4218734330258778  0.2264268853280461
  0.4135400230963936  0.4989179977674164  0.2264268853280461
  0.3245251921410089  0.4989179977674164  0.2264268853280461
  0.3442414945971070  0.4647521085077404  0.2264025593083770
  0.3887478756979157  0.4618684907961020  0.2243572240482194
  0.4135353530325303  0.4760847964707702  0.2648169550471827
  0.4084557572299979  0.4218698091198228  0.2264328109733457
  0.3639591153253826  0.4989143738613614  0.2264328109733457
  0.3442274682328887  0.4360866686020343  0.2668924951671827
  0.3887347150496048  0.4332016057337486  0.2648467610459472
  0.3639528644067298  0.4760808497804223  0.2648241626732683
  0.3639408901174993  0.4246206406619605  0.3375029305148068
  0.3245132178517782  0.4474577886489547  0.2991056531695845
  0.3639471410361519  0.4474541647429000  0.2991115788148843
  0.4135233787433000  0.4246245873523087  0.3374957228887212
  0.3887477093586455  0.4903364641308173  0.2990813271499155
  0.3887336829944272  0.4616710242251112  0.3395712630087211
  0.4135280488071627  0.4474577886489547  0.2991056531695845
  0.4580319949371461  0.3990402317292316  0.2648169550471827
  0.4777529674571070  0.3877075437662018  0.2264025593083770
  0.4529523991346132  0.3448252443782844  0.2264328109733457
  0.4332445176025311  0.3848239260545637  0.2243572240482194
  0.4529461482159607  0.3219917202973453  0.2648241626732683
  0.4974643372667299  0.3990362850388837  0.2648241626732683
  0.4332313569542204  0.3561570409922100  0.2648467610459472
  0.4777389410928891  0.3590421038604957  0.2668924951671827
  0.4580200206479154  0.3475800226107702  0.3374957228887212
  0.4332303248990422  0.3846264594835727  0.3395712630087211
  0.4332325433133004  0.3333637169361022  0.2970359918897578
  0.4777375717157587  0.3817413966152869  0.3375255288874855
  0.4580246907117780  0.3704132239074161  0.2991056531695845
  0.4777409931678766  0.3362473346477405  0.2990813271499155
  0.4974586138961518  0.3704096000013614  0.2991115788148843
  0.4974523629774992  0.3475760759204222  0.3375029305148068
  0.4777507323640696  0.4104082816776405  0.2970359918897578
  0.5222451558544269  0.3846264594835727  0.3395712630087211
  0.5222473742686852  0.3333637169361022  0.2970359918897578
  0.4529676953621146  0.4760808497804223  0.2648241626732683
  0.4529739462807671  0.4989143738613614  0.2264328109733457
  0.4974705881853825  0.4218698091198228  0.2264328109733457
  0.4580366650010088  0.4218734330258778  0.2264268853280461
  0.5025548540517780  0.4989179977674164  0.2264268853280461
  0.5025501839879148  0.4760847964707702  0.2648169550471827
  0.4777627066533003  0.4618684907961020  0.2243572240482194
  0.4332563255524915  0.4647521085077404  0.2264025593083770
  0.5222571301436583  0.4360866686020343  0.2668924951671827
  0.4777495460049896  0.4332016057337486  0.2648467610459472
  0.4332422991882735  0.4360866686020343  0.2668924951671827
  0.4332443512632606  0.4132918993892791  0.2990813271499155
  0.4332409298111434  0.4587859613568253  0.3375255288874855
  0.4332540904594542  0.4874528464191791  0.2970359918897578
  0.4529619719915360  0.4474541647429000  0.2991115788148843
  0.4529557210728836  0.4246206406619605  0.3375029305148068
  0.4777625403140298  0.4903364641308173  0.2990813271499155
  0.4777485139498116  0.4616710242251112  0.3395712630087211
  0.4135114044540691  0.3731643782338473  0.4101744907302596
  0.4332183506098123  0.3331662503651112  0.4122500308502596
  0.3244965734986843  0.3731643782338473  0.4101744907302596
  0.4135160745179320  0.3959975795304932  0.3717844210111231
  0.3639351667469209  0.3959939556244385  0.3717903466564228
  0.3887239271194545  0.3589480725591791  0.3697147597312962
  0.3245012435625472  0.3959975795304932  0.3717844210111231
  0.3442175460186456  0.3618316902708172  0.3717600949914539
  0.3639289158282684  0.3731604315434991  0.4101816983563452
  0.3442035196544276  0.3331662503651112  0.4122500308502596
  0.3689978854671628  0.3189530147889549  0.3717844210111231
  0.3887107664711432  0.3302811874968254  0.4102042967290241
  0.3442153109256083  0.3845324281822560  0.4423935275728348
  0.3442021502772972  0.3558655431199023  0.4828830645705625
  0.3244892692733166  0.3445373704120318  0.4444631888526615
  0.3639231924576902  0.3445337465059770  0.4444691144979612
  0.3887097344159658  0.3587506059881880  0.4849287986917979
  0.3887237607801839  0.3874160458938941  0.4444388628329924
  0.4084351305898067  0.3987447871665762  0.4828604661978838
  0.3690194326133167  0.4730421442720318  0.3717844210111231
  0.4084533557976902  0.4730385203659768  0.3717903466564228
  0.3887357350694146  0.4388762550123556  0.3717600949914539
  0.3442272852148388  0.4359926373007175  0.3697147597312962
  0.3690147625494538  0.4502089429753854  0.4101744907302596
  0.4084471048790376  0.4502049962850377  0.4101816983563452
  0.3442141245665279  0.4073257522383638  0.4102042967290241
  0.3887217087051968  0.4102108151066498  0.4122500308502596
  0.3887334999763775  0.4615769929237943  0.4423935275728348
  0.3690074583240855  0.4215819351535701  0.4444631888526615
  0.3690027882602229  0.3987487338569244  0.4828532585717980
  0.4084413815084595  0.4215783112475153  0.4444691144979612
  0.3887203393280664  0.4329101078614407  0.4828830645705625
  0.3442130925113505  0.4357951707297266  0.4849287986917979
  0.3639384886851916  0.4757893519081146  0.4828604661978838
  0.4135209773109923  0.4757932985984625  0.4828532585717980
  0.3245108164194704  0.4986264998951087  0.4444631888526615
  0.3245061463556078  0.4757932985984625  0.4828532585717980
  0.4135256473748550  0.4986264998951087  0.4444631888526615
  0.4529437467836531  0.3731604315434991  0.4101816983563452
  0.4332289555219124  0.4073257522383638  0.4102042967290241
  0.4332323769740299  0.3618316902708172  0.3717600949914539
  0.4529499977023059  0.3959939556244385  0.3717903466564228
  0.4777255974265280  0.3302811874968254  0.4102042967290241
  0.4580127164225474  0.3189530147889549  0.3717844210111231
  0.4777387580748388  0.3589480725591791  0.3697147597312962
  0.5222437864772967  0.4073257522383638  0.4102042967290241
  0.5025309054733166  0.3959975795304932  0.3717844210111231
  0.5025262354094536  0.3731643782338473  0.4101744907302596
  0.5222331815651968  0.3331662503651112  0.4122500308502596
  0.5222472079294147  0.3618316902708172  0.3717600949914539
  0.5025142611202230  0.3217041691153856  0.4828532585717980
  0.5025189311840859  0.3445373704120318  0.4444631888526615
  0.5222318121880665  0.3558655431199023  0.4828830645705625
  0.4777245653713506  0.3587506059881880  0.4849287986917979
  0.4777385917355687  0.3874160458938941  0.4444388628329924
  0.4974499615451914  0.3987447871665762  0.4828604661978838
  0.5222449728363776  0.3845324281822560  0.4423935275728348
  0.4332301418809931  0.3845324281822560  0.4423935275728348
  0.4580176192156074  0.3987487338569244  0.4828532585717980
  0.4777365396605815  0.4102108151066498  0.4122500308502596
  0.4332398977559658  0.4872553798481881  0.4122500308502596
  0.4332421161702237  0.4359926373007175  0.3697147597312962
  0.4580295935048386  0.4502089429753854  0.4101744907302596
  0.4580342635687012  0.4730421442720318  0.3717844210111231
  0.4777471445726817  0.4843703169799023  0.4102042967290241
  0.4777505660247989  0.4388762550123556  0.3717600949914539
  0.4974619358344222  0.4502049962850377  0.4101816983563452
  0.4974681867530749  0.4730385203659768  0.3717903466564228
  0.5222547287113508  0.4872553798481881  0.4122500308502596
  0.5222569471256081  0.4359926373007175  0.3697147597312962
  0.4580222892794705  0.4215819351535701  0.4444631888526615
  0.4332419498309531  0.4644606106354327  0.4444388628329924
  0.4529595705592291  0.4986228759890537  0.4444691144979612
  0.4332279234667353  0.4357951707297266  0.4849287986917979
  0.4529533196405759  0.4757893519081146  0.4828604661978838
  0.4777351702834510  0.4329101078614407  0.4828830645705625
  0.4777483309317623  0.4615769929237943  0.4423935275728348
  0.5222427544221201  0.4357951707297266  0.4849287986917979
  0.5025358082663767  0.4757932985984625  0.4828532585717980
  0.4974562124638445  0.4215783112475153  0.4444691144979612
  0.5025404783302397  0.4986264998951087  0.4444631888526615
  0.5222567807863381  0.4644606106354327  0.4444388628329924
  0.6309542629805759  0.1679025908142683  0.2648241626732683
  0.5667344433163770  0.1536902318299483  0.2243572240482194
  0.6309605138992285  0.1907361148952075  0.2264328109733457
  0.6112428931709530  0.1565738495415864  0.2264025593083770
  0.5915219206509921  0.1679065375046165  0.2648169550471827
  0.5915265907148550  0.1907397388012626  0.2264268853280461
  0.5419456829438442  0.1907361148952075  0.2264328109733457
  0.6112394717188352  0.2020679115091331  0.2648467610459472
  0.5667322249021197  0.2049529743774191  0.2668924951671827
  0.5419394320251913  0.1679025908142683  0.2648241626732683
  0.6112288668067350  0.1279084096358804  0.2668924951671827
  0.6112406580779156  0.1792745874530252  0.2970359918897578
  0.5667342769771070  0.1821582051646635  0.2990813271499155
  0.6309485396099980  0.1392759057767460  0.2991115788148843
  0.5419337086546132  0.1392759057767460  0.2991115788148843
  0.5864518977053826  0.2163204705182847  0.2991115788148843
  0.5470179745210088  0.2163240944243395  0.2991056531695845
  0.5915146164256243  0.1392795296828010  0.2991056531695845
  0.5470133044571460  0.1934908931276933  0.3374957228887212
  0.5864456467867298  0.1934869464373453  0.3375029305148068
  0.6112274974296047  0.1506077023906716  0.3375255288874855
  0.5667202506128886  0.1534927652589574  0.3395712630087211
  0.6805414216702398  0.1907397388012626  0.2264268853280461
  0.6557470558575043  0.2049529743774191  0.2668924951671827
  0.7002543026742202  0.2020679115091331  0.2648467610459472
  0.6805367516063764  0.1679065375046165  0.2648169550471827
  0.6557491079324919  0.1821582051646635  0.2990813271499155
  0.6360328054763933  0.2163240944243395  0.2991056531695845
  0.6360281354125308  0.1934908931276933  0.3374957228887212
  0.6557350815682733  0.1534927652589574  0.3395712630087211
  0.6754667286607672  0.2163204705182847  0.2991115788148843
  0.6754604777421144  0.1934869464373453  0.3375029305148068
  0.6805294473810088  0.1392795296828010  0.2991056531695845
  0.7002423283849897  0.1506077023906716  0.3375255288874855
  0.7002554890333001  0.1792745874530252  0.2970359918897578
  0.7250429663679155  0.1934908931276933  0.3374957228887212
  0.7250476364317781  0.2163240944243395  0.2991056531695845
  0.5667559904625311  0.3077793613130251  0.2243572240482194
  0.6112526323671462  0.2307347965714866  0.2243572240482194
  0.5667462512663375  0.2336184142831250  0.2264025593083770
  0.5667428298142205  0.2791124762506715  0.2648467610459472
  0.5864576210759608  0.2449471555558069  0.2648241626732683
  0.5864638719946134  0.2677806796367461  0.2264328109733457
  0.5470299488102400  0.2677843035428010  0.2264268853280461
  0.5470252787463767  0.2449511022461549  0.2648169550471827
  0.6112504139528891  0.2819975391189574  0.2668924951671827
  0.5667308555249891  0.2276522671322101  0.3375255288874855
  0.5667440161733001  0.2563191521945635  0.2970359918897578
  0.5667417977590427  0.3075818947420343  0.3395712630087211
  0.5915314935079152  0.2705354578692318  0.3374957228887212
  0.6112384396636578  0.2305373300004960  0.3395712630087211
  0.5915361635717782  0.2933686591658778  0.2991056531695845
  0.6112490445757588  0.3046968318737487  0.3375255288874855
  0.6112524660278765  0.2592027699062020  0.2990813271499155
  0.6309638358374993  0.2705315111788839  0.3375029305148068
  0.6309700867561516  0.2933650352598231  0.2991115788148843
  0.6360401097017613  0.2449511022461549  0.2648169550471827
  0.7250549406571460  0.2449511022461549  0.2648169550471827
  0.7250596107210092  0.2677843035428010  0.2264268853280461
  0.7002792712724917  0.3106629790246634  0.2264025593083770
  0.6557610822217222  0.2336184142831250  0.2264025593083770
  0.6360447797656245  0.2677843035428010  0.2264268853280461
  0.7002674633225311  0.2307347965714866  0.2243572240482194
  0.6754787029499977  0.2677806796367461  0.2264328109733457
  0.6557708214179158  0.3077793613130251  0.2243572240482194
  0.6557576607696048  0.2791124762506715  0.2648467610459472
  0.6754724520313455  0.2449471555558069  0.2648241626732683
  0.7002672969832608  0.2592027699062020  0.2990813271499155
  0.6557588471286848  0.2563191521945635  0.2970359918897578
  0.7002652449082741  0.2819975391189574  0.2668924951671827
  0.6805509945271629  0.2933686591658778  0.2991056531695845
  0.7199849177115362  0.2933650352598231  0.2991115788148843
  0.7199786667928836  0.2705315111788839  0.3375029305148068
  0.6805463244633000  0.2705354578692318  0.3374957228887212
  0.7002638755311431  0.3046968318737487  0.3375255288874855
  0.6557456864803739  0.2276522671322101  0.3375255288874855
  0.6557566287144271  0.3075818947420343  0.3395712630087211
  0.7002532706190426  0.2305373300004960  0.3395712630087211
  0.5864399234161517  0.1648602613998229  0.3717903466564228
  0.5667223026878759  0.1306979960462019  0.3717600949914539
  0.5470013301679149  0.1420306840092317  0.4101744907302596
  0.5864336724974991  0.1420267373188838  0.4101816983563452
  0.5667188812357589  0.1761920580137485  0.4102042967290241
  0.5470060002317780  0.1648638853058779  0.3717844210111231
  0.6112264653744272  0.1790771208820343  0.4122500308502596
  0.5419370305928838  0.2190713020604222  0.4101816983563452
  0.6309518615482683  0.2190713020604222  0.4101816983563452
  0.5915195192186843  0.2190752487507702  0.4101744907302596
  0.5667320418840693  0.2048589430761022  0.3697147597312962
  0.6112404917386454  0.2077425607877402  0.3717600949914539
  0.5419313072223056  0.1904446170229000  0.4444691144979612
  0.5667178491805811  0.2046614765051113  0.4849287986917979
  0.5667200675948391  0.1533987339576405  0.4423935275728348
  0.5915075449294537  0.1676150396323088  0.4828532585717980
  0.5915122149933165  0.1904482409289549  0.4444631888526615
  0.6112285174494144  0.1562823516692789  0.4444388628329924
  0.6112250959972969  0.2017764136368254  0.4828830645705625
  0.6112382566456083  0.2304432986991791  0.4423935275728348
  0.6309461381776904  0.1904446170229000  0.4444691144979612
  0.6309398872590377  0.1676110929419606  0.4828604661978838
  0.6557337121911432  0.1761920580137485  0.4102042967290241
  0.6360161611232997  0.1420306840092317  0.4101744907302596
  0.6360208311871626  0.1648638853058779  0.3717844210111231
  0.6557371336432607  0.1306979960462019  0.3717600949914539
  0.6557468728394541  0.2048589430761022  0.3697147597312962
  0.6754485034528837  0.1420267373188838  0.4101816983563452
  0.6754547543715362  0.1648602613998229  0.3717903466564228
  0.6805343501740692  0.2190752487507702  0.4101744907302596
  0.7250309920786845  0.1420306840092317  0.4101744907302596
  0.7250356621425471  0.1648638853058779  0.3717844210111231
  0.7199666925036529  0.2190713020604222  0.4101816983563452
  0.7002553226940301  0.2077425607877402  0.3717600949914539
  0.6557348985502234  0.1533987339576405  0.4423935275728348
  0.6557326801359659  0.2046614765051113  0.4849287986917979
  0.6805223758848382  0.1676150396323088  0.4828532585717980
  0.7002399269526818  0.2017764136368254  0.4828830645705625
  0.6805270459487011  0.1904482409289549  0.4444631888526615
  0.7002412963298119  0.1790771208820343  0.4122500308502596
  0.7002433484047992  0.1562823516692789  0.4444388628329924
  0.7199547182144220  0.1676110929419606  0.4828604661978838
  0.7199609691330748  0.1904446170229000  0.4444691144979612
  0.7002530876009926  0.2304432986991791  0.4423935275728348
  0.5470275473779321  0.3189530147889549  0.3717844210111231
  0.6112502309348385  0.2819035078176405  0.3697147597312962
  0.5667438498340296  0.2847871255292788  0.3717600949914539
  0.5915241892825472  0.2419084500474164  0.3717844210111231
  0.5864552196436532  0.2961158668019608  0.4101816983563452
  0.5864614705623056  0.3189493908829001  0.3717903466564228
  0.6309581124669209  0.2419048261413613  0.3717903466564228
  0.5419432815115361  0.2419048261413613  0.3717903466564228
  0.5470228773140692  0.2961198134923087  0.4101744907302596
  0.5667298234698118  0.2561216856235729  0.4122500308502596
  0.6112370702865281  0.2532366227552870  0.4102042967290241
  0.5667416147409927  0.3074878634407176  0.4423935275728348
  0.5470109030248383  0.2446596043738472  0.4828532585717980
  0.5667284540926816  0.2788209783783639  0.4828830645705625
  0.5470155730887012  0.2674928056704934  0.4444631888526615
  0.5667318755447993  0.2333269164108172  0.4444388628329924
  0.5864432453544222  0.2446556576834991  0.4828604661978838
  0.5864494962730749  0.2674891817644383  0.4444691144979612
  0.6112500645955685  0.3103714811523557  0.4444388628329924
  0.6112360382313503  0.2817060412466497  0.4849287986917979
  0.6754763015176901  0.3189493908829001  0.3717903466564228
  0.6557586807894143  0.2847871255292788  0.3717600949914539
  0.6360423783333167  0.3189530147889549  0.3717844210111231
  0.6360377082694536  0.2961198134923087  0.4101744907302596
  0.6754700505990375  0.2961158668019608  0.4101816983563452
  0.6557446544251966  0.2561216856235729  0.4122500308502596
  0.6805390202379320  0.2419084500474164  0.3717844210111231
  0.7002519012419124  0.2532366227552870  0.4102042967290241
  0.7002650618902233  0.2819035078176405  0.3697147597312962
  0.7250572092887012  0.3189530147889549  0.3717844210111231
  0.7250525392248384  0.2961198134923087  0.4101744907302596
  0.7199729434223054  0.2419048261413613  0.3717903466564228
  0.6557432850480662  0.2788209783783639  0.4828830645705625
  0.6360257339802229  0.2446596043738472  0.4828532585717980
  0.6360304040440857  0.2674928056704934  0.4444631888526615
  0.6557467065001839  0.2333269164108172  0.4444388628329924
  0.6754643272284597  0.2674891817644383  0.4444691144979612
  0.6754580763098069  0.2446556576834991  0.4828604661978838
  0.6557564456963775  0.3074878634407176  0.4423935275728348
  0.7002648955509528  0.3103714811523557  0.4444388628329924
  0.7002508691867351  0.2817060412466497  0.4849287986917979
  0.7250405649356074  0.2446596043738472  0.4828532585717980
  0.7250452349994703  0.2674928056704934  0.4444631888526615
  0.5222593485579158  0.3848239260545637  0.2243572240482194
  0.5419672300899980  0.3448252443782844  0.2264328109733457
  0.5470468258925308  0.3990402317292316  0.2648169550471827
  0.5667677984124918  0.3877075437662018  0.2264025593083770
  0.5864791682221147  0.3990362850388837  0.2648241626732683
  0.5864854191407672  0.4218698091198228  0.2264328109733457
  0.6309820610453826  0.3448252443782844  0.2264328109733457
  0.5915481378610089  0.3448288682843395  0.2264268853280461
  0.6112741795133004  0.3848239260545637  0.2243572240482194
  0.5667655633194544  0.4104082816776405  0.2970359918897578
  0.5667537720482734  0.3590421038604957  0.2668924951671827
  0.6112740131740304  0.4132918993892791  0.2990813271499155
  0.6112622052240695  0.3333637169361022  0.2970359918897578
  0.5667558241232611  0.3362473346477405  0.2990813271499155
  0.5470395216671626  0.3704132239074161  0.2991056531695845
  0.5864734448515363  0.3704096000013614  0.2991115788148843
  0.5470348516033001  0.3475800226107702  0.3374957228887212
  0.5667524026711432  0.3817413966152869  0.3375255288874855
  0.5222711565078758  0.4647521085077404  0.2264025593083770
  0.5419887772361519  0.4989143738613614  0.2264328109733457
  0.5419825263174993  0.4760808497804223  0.2648241626732683
  0.5667643769603742  0.4332016057337486  0.2648467610459472
  0.5470514959563936  0.4218734330258778  0.2264268853280461
  0.5667775376086850  0.4618684907961020  0.2243572240482194
  0.6112719610990428  0.4360866686020343  0.2668924951671827
  0.5915650149432996  0.4760847964707702  0.2648169550471827
  0.6309973572728841  0.4760808497804223  0.2648241626732683
  0.6112859874632606  0.4647521085077404  0.2264025593083770
  0.5915696850071628  0.4989179977674164  0.2264268853280461
  0.5667633449051965  0.4616710242251112  0.3395712630087211
  0.5222689214148388  0.4874528464191791  0.2970359918897578
  0.5419705520282684  0.4246206406619605  0.3375029305148068
  0.5667773712694146  0.4903364641308173  0.2990813271499155
  0.5915577107179321  0.4474577886489547  0.2991056531695845
  0.5915530406540693  0.4246245873523087  0.3374957228887212
  0.6112705917219124  0.4587859613568253  0.3375255288874855
  0.6112837523702236  0.4874528464191791  0.2970359918897578
  0.6309916339023055  0.4474541647429000  0.2991115788148843
  0.6309853829836527  0.4246206406619605  0.3375029305148068
  0.6557826293678761  0.3877075437662018  0.2264025593083770
  0.6557686030036581  0.3590421038604957  0.2668924951671827
  0.6360616568479152  0.3990402317292316  0.2648169550471827
  0.6754939991774990  0.3990362850388837  0.2648241626732683
  0.6805582987525305  0.3219956669876933  0.2648169550471827
  0.6805629688163932  0.3448288682843395  0.2264268853280461
  0.7002758498203741  0.3561570409922100  0.2648467610459472
  0.7250764878032999  0.3990402317292316  0.2648169550471827
  0.7199906410821145  0.3219917202973453  0.2648241626732683
  0.7002890104686852  0.3848239260545637  0.2243572240482194
  0.7199968920007673  0.3448252443782844  0.2264328109733457
  0.6360543526225474  0.3704132239074161  0.2991056531695845
  0.6360496825586849  0.3475800226107702  0.3374957228887212
  0.6557672336265280  0.3817413966152869  0.3375255288874855
  0.6557706550786457  0.3362473346477405  0.2990813271499155
  0.6754820248882683  0.3475760759204222  0.3375029305148068
  0.6754882758069211  0.3704096000013614  0.2991115788148843
  0.7002770361794542  0.3333637169361022  0.2970359918897578
  0.7250645135140696  0.3475800226107702  0.3374957228887212
  0.7250691835779319  0.3704132239074161  0.2991056531695845
  0.7002867920544273  0.4360866686020343  0.2668924951671827
  0.7250811578671629  0.4218734330258778  0.2264268853280461
  0.7003008184186454  0.4647521085077404  0.2264025593083770
  0.7200184391469210  0.4989143738613614  0.2264328109733457
  0.6805845159625475  0.4989179977674164  0.2264268853280461
  0.6310036081915362  0.4989143738613614  0.2264328109733457
  0.6360663269117783  0.4218734330258778  0.2264268853280461
  0.7200121882282684  0.4760808497804223  0.2648241626732683
  0.6557923685640699  0.4618684907961020  0.2243572240482194
  0.6805798458986844  0.4760847964707702  0.2648169550471827
  0.6755002500961518  0.4218698091198228  0.2264328109733457
  0.6557792079157585  0.4332016057337486  0.2648467610459472
  0.6557803942748387  0.4104082816776405  0.2970359918897578
  0.7002888441294149  0.4132918993892791  0.2990813271499155
  0.6805678716094536  0.4246245873523087  0.3374957228887212
  0.7200064648576903  0.4474541647429000  0.2991115788148843
  0.6805725416733168  0.4474577886489547  0.2991056531695845
  0.6557781758605812  0.4616710242251112  0.3395712630087211
  0.7002854226772972  0.4587859613568253  0.3375255288874855
  0.7002985833256079  0.4874528464191791  0.2970359918897578
  0.6557922022247994  0.4903364641308173  0.2990813271499155
  0.5419648286576902  0.3959939556244385  0.3717903466564228
  0.5419585777390374  0.3731604315434991  0.4101816983563452
  0.5667404283819125  0.3302811874968254  0.4102042967290241
  0.5915410663648385  0.3731643782338473  0.4101744907302596
  0.6112480125205813  0.3331662503651112  0.4122500308502596
  0.6112586174326817  0.4073257522383638  0.4102042967290241
  0.6112620388847995  0.3618316902708172  0.3717600949914539
  0.6309796596130750  0.3959939556244385  0.3717903466564228
  0.6309734086944222  0.3731604315434991  0.4101816983563452
  0.5419466034498071  0.3217002224250378  0.4828604661978838
  0.5419528543684597  0.3445337465059770  0.4444691144979612
  0.5864647925005763  0.3987447871665762  0.4828604661978838
  0.5667534226909532  0.3874160458938941  0.4444388628329924
  0.5470324501709922  0.3987487338569244  0.4828532585717980
  0.5667393963267352  0.3587506059881880  0.4849287986917979
  0.5915290920756078  0.3217041691153856  0.4828532585717980
  0.5915337621394706  0.3445373704120318  0.4444631888526615
  0.6112466431434511  0.3558655431199023  0.4828830645705625
  0.6309676853238442  0.3445337465059770  0.4444691144979612
  0.6112598037917621  0.3845324281822560  0.4423935275728348
  0.6309614344051914  0.3217002224250378  0.4828604661978838
  0.5667513706159661  0.4102108151066498  0.4122500308502596
  0.5864767667898069  0.4502049962850377  0.4101816983563452
  0.5667653969801837  0.4388762550123556  0.3717600949914539
  0.6112717780809926  0.4359926373007175  0.3697147597312962
  0.5470444244602229  0.4502089429753854  0.4101744907302596
  0.5864830177084592  0.4730385203659768  0.3717903466564228
  0.5667619755280664  0.4843703169799023  0.4102042967290241
  0.6112695596667351  0.4872553798481881  0.4122500308502596
  0.5470490945240858  0.4730421442720318  0.3717844210111231
  0.5667631618871468  0.4615769929237943  0.4423935275728348
  0.5470371202348551  0.4215819351535701  0.4444631888526615
  0.5419681505959605  0.4757893519081146  0.4828604661978838
  0.5419744015146135  0.4986228759890537  0.4444691144979612
  0.5667500012388358  0.4329101078614407  0.4828830645705625
  0.5864710434192292  0.4215783112475153  0.4444691144979612
  0.5915506392217614  0.4757932985984625  0.4828532585717980
  0.6112575853775046  0.4357951707297266  0.4849287986917979
  0.5915553092856241  0.4986264998951087  0.4444631888526615
  0.6309829815513452  0.4757893519081146  0.4828604661978838
  0.6309892324699983  0.4986228759890537  0.4444691144979612
  0.6112716117417224  0.4644606106354327  0.4444388628329924
  0.6557552593372973  0.3302811874968254  0.4102042967290241
  0.6557662015713505  0.4102108151066498  0.4122500308502596
  0.6557684199856082  0.3589480725591791  0.3697147597312962
  0.6805558973202228  0.3731643782338473  0.4101744907302596
  0.7002628434759660  0.3331662503651112  0.4122500308502596
  0.7002768698401840  0.3618316902708172  0.3717600949914539
  0.7199882396498071  0.3731604315434991  0.4101816983563452
  0.7002734483880665  0.4073257522383638  0.4102042967290241
  0.6805439230309921  0.3217041691153856  0.4828532585717980
  0.6805485930948549  0.3445373704120318  0.4444631888526615
  0.7199762653605761  0.3217002224250378  0.4828604661978838
  0.7199825162792289  0.3445337465059770  0.4444691144979612
  0.7002614740988359  0.3558655431199023  0.4828830645705625
  0.6557542272821200  0.3587506059881880  0.4849287986917979
  0.6754796234559606  0.3987447871665762  0.4828604661978838
  0.6360472811263765  0.3987487338569244  0.4828532585717980
  0.6557682536463377  0.3874160458938941  0.4444388628329924
  0.7002746347471467  0.3845324281822560  0.4423935275728348
  0.6754858743746136  0.4215783112475153  0.4444691144979612
  0.7250621120817613  0.3987487338569244  0.4828532585717980
  0.7250667821456241  0.4215819351535701  0.4444631888526615
  0.6557802279355684  0.4388762550123556  0.3717600949914539
  0.6557768064834509  0.4843703169799023  0.4102042967290241
  0.6360639254794705  0.4730421442720318  0.3717844210111231
  0.6360592554156077  0.4502089429753854  0.4101744907302596
  0.6754915977451915  0.4502049962850377  0.4101816983563452
  0.6754978486638440  0.4730385203659768  0.3717903466564228
  0.7002866090363774  0.4359926373007175  0.3697147597312962
  0.7002843906221197  0.4872553798481881  0.4122500308502596
  0.7250787564348553  0.4730421442720318  0.3717844210111231
  0.7250740863709925  0.4502089429753854  0.4101744907302596
  0.6557779928425314  0.4615769929237943  0.4423935275728348
  0.6557648321942205  0.4329101078614407  0.4828830645705625
  0.6360519511902396  0.4215819351535701  0.4444631888526615
  0.6805654701771462  0.4757932985984625  0.4828532585717980
  0.6805701402410088  0.4986264998951087  0.4444631888526615
  0.7002724163328889  0.4357951707297266  0.4849287986917979
  0.7200040634253826  0.4986228759890537  0.4444691144979612
  0.7199978125067300  0.4757893519081146  0.4828604661978838
  0.7002864426971072  0.4644606106354327  0.4444388628329924
  0.2748748400669211  0.1389844079044383  0.5171478823394997
  0.2748685891482681  0.1161508838234990  0.5555392340394222
  0.2551549842456080  0.1275228804622561  0.5877510632559118
  0.1413633672069210  0.2160289726459770  0.5171478823394997
  0.1661519612401837  0.2074510629154327  0.5897963985160694
  0.1909396049140692  0.1931993952553856  0.5555320264133365
  0.1909442749779321  0.2160325965520318  0.5171419566942000
  0.2106465510698119  0.1532012673866497  0.5576075665333365
  0.2303662238730748  0.1645687635275152  0.5898266501810381
  0.2106605774340297  0.1818667072923558  0.5171176306745308
  0.2106583423409925  0.2045674452037944  0.5877510632559118
  0.2303719472436530  0.1931954485650378  0.5555392340394222
  0.2799591059333164  0.2160325965520318  0.5171419566942000
  0.2354409168825472  0.1389880318104932  0.5171419566942000
  0.2551669585348387  0.1789830895807174  0.5150722954143732
  0.2551537978865278  0.1503162045183639  0.5555618324121010
  0.2303781981623056  0.2160289726459770  0.5171478823394997
  0.2799544358694535  0.1931993952553856  0.5555320264133365
  0.2551667921955685  0.2074510629154327  0.5897963985160694
  0.2551527658313504  0.1787856230097267  0.6302863343748750
  0.2799471316440859  0.1645723874335702  0.5898207245357385
  0.2799424615802230  0.1417391861369240  0.6282107942548749
  0.2551548179063378  0.1559908537969713  0.6624751663576077
  0.2354385154502397  0.1901567430566471  0.6624994923772769
  0.2748724386346131  0.1901531191505922  0.6625054180225765
  0.3244437735487010  0.0875278226920316  0.5898207245357385
  0.3441580239298118  0.0761567026451114  0.5576075665333365
  0.3441720502940299  0.1048221425508174  0.5171176306745308
  0.2996636004394543  0.1019385248391791  0.5150722954143732
  0.3638834201036529  0.1161508838234990  0.5555392340394222
  0.3441698152009928  0.1275228804622561  0.5877510632559118
  0.3244557478379320  0.1389880318104932  0.5171419566942000
  0.3638896710223055  0.1389844079044383  0.5171478823394997
  0.3193867781990380  0.1931954485650378  0.5555392340394222
  0.3193930291176904  0.2160289726459770  0.5171478823394997
  0.2996731732963772  0.2045674452037944  0.5877510632559118
  0.2996754083894145  0.1818667072923558  0.5171176306745308
  0.3441817894902235  0.1789830895807174  0.5150722954143732
  0.3441816231509528  0.2074510629154327  0.5897963985160694
  0.3638776967330747  0.0875241987859769  0.5898266501810381
  0.3441566545526815  0.0988559953999022  0.6282406002536393
  0.3193690805392287  0.1131085544090537  0.6625054180225765
  0.3441556224975041  0.1273254138912651  0.7029651022164133
  0.3193748039098068  0.1417352394465760  0.6282180018809608
  0.3441675967867353  0.1787856230097267  0.6302863343748750
  0.2996600126480664  0.1759005601414407  0.6282406002536393
  0.2996611990071465  0.1531072360853329  0.6604298310974501
  0.3441696488617223  0.1559908537969713  0.6624751663576077
  0.3244533464056242  0.1901567430566471  0.6624994923772769
  0.3638872695899980  0.1901531191505922  0.6625054180225765
  0.3244486763417613  0.1673235417600009  0.7008895620964134
  0.2996589805928890  0.2043699786328037  0.7029651022164133
  0.3638810186713451  0.1673195950696528  0.7008967697224990
  0.3441662274096048  0.2014849157645177  0.7009193680951779
  0.4134586045040858  0.0875278226920316  0.5898207245357385
  0.3886652707465277  0.0732716397768254  0.5555618324121010
  0.4083863129269210  0.0619398431629000  0.5171478823394997
  0.3689523897425473  0.0619434670689546  0.5171419566942000
  0.4776812880609926  0.0504783157207175  0.5877510632559118
  0.4331749069601839  0.0533619334323556  0.5897963985160694
  0.4579672206979316  0.0619434670689546  0.5171419566942000
  0.4776801017019123  0.0732716397768254  0.5555618324121010
  0.4528925276884593  0.0875241987859769  0.5898266501810381
  0.4331728548851966  0.0761567026451114  0.5576075665333365
  0.3886784313948388  0.1019385248391791  0.5150722954143732
  0.3886762129805808  0.1532012673866497  0.5576075665333365
  0.3886782650555684  0.1304064981738943  0.5897963985160694
  0.4331834597972969  0.1503162045183639  0.5555618324121010
  0.4134659087294536  0.1161548305138472  0.5555320264133365
  0.4331846461563771  0.1275228804622561  0.5877510632559118
  0.4331868812494148  0.1048221425508174  0.5171176306745308
  0.4528982510590376  0.1161508838234990  0.5555392340394222
  0.4776910439359656  0.1532012673866497  0.5576075665333365
  0.4776930960109531  0.1304064981738943  0.5897963985160694
  0.4529045019776902  0.1389844079044383  0.5171478823394997
  0.4776932623502234  0.1019385248391791  0.5150722954143732
  0.3689739368887012  0.2160325965520318  0.5171419566942000
  0.3689619625994703  0.1645723874335702  0.5898207245357385
  0.3689692668248380  0.1931993952553856  0.5555320264133365
  0.3886902393447991  0.1818667072923558  0.5171176306745308
  0.3886880042517620  0.2045674452037944  0.5877510632559118
  0.4083958857838439  0.1645687635275152  0.5898266501810381
  0.4084016091544223  0.1931954485650378  0.5555392340394222
  0.4084078600730749  0.2160289726459770  0.5171478823394997
  0.4331964541063371  0.2074510629154327  0.5897963985160694
  0.4579767935548553  0.1645723874335702  0.5898207245357385
  0.4579840977802228  0.1931993952553856  0.5555320264133365
  0.4579887678440859  0.2160325965520318  0.5171419566942000
  0.4777028352071463  0.2045674452037944  0.5877510632559118
  0.4528862767698067  0.0646906747050377  0.6282180018809608
  0.4331726718671464  0.0760626713437944  0.6604298310974501
  0.4331714855080662  0.0988559953999022  0.6282406002536393
  0.4579601492017612  0.0902789770184626  0.7008895620964134
  0.4776811217217222  0.0789462890554329  0.6624751663576077
  0.3886642386913508  0.1017410582681881  0.6302863343748750
  0.3689572925356074  0.1417391861369240  0.6282107942548749
  0.4083896348651914  0.1417352394465760  0.6282180018809608
  0.3886748436034507  0.1759005601414407  0.6282406002536393
  0.3886760299625315  0.1531072360853329  0.6604298310974501
  0.4134681773610090  0.1901567430566471  0.6624994923772769
  0.3689499883102398  0.1131121783151088  0.6624994923772769
  0.3886628693142202  0.1244403510229793  0.7009193680951779
  0.4083839114946134  0.1131085544090537  0.6625054180225765
  0.4331704534528891  0.1273254138912651  0.7029651022164133
  0.4134635072971456  0.1673235417600009  0.7008895620964134
  0.3886738115482735  0.2043699786328037  0.7029651022164133
  0.4776896745588354  0.1759005601414407  0.6282406002536393
  0.4579721234909919  0.1417391861369240  0.6282107942548749
  0.4331824277421200  0.1787856230097267  0.6302863343748750
  0.4776790696467351  0.1017410582681881  0.6302863343748750
  0.4776908609179156  0.1531072360853329  0.6604298310974501
  0.4331844798171069  0.1559908537969713  0.6624751663576077
  0.4529021005453827  0.1901531191505922  0.6625054180225765
  0.4579648192656241  0.1131121783151088  0.6624994923772769
  0.4776886425036581  0.2043699786328037  0.7029651022164133
  0.4776777002696050  0.1244403510229793  0.7009193680951779
  0.4528958496267299  0.1673195950696528  0.7008967697224990
  0.4331810583649894  0.2014849157645177  0.7009193680951779
  0.5469820516533164  0.0619434670689546  0.5171419566942000
  0.5419073586438441  0.0875241987859769  0.5898266501810381
  0.4974011438823056  0.0619398431629000  0.5171478823394997
  0.5024734354594701  0.0875278226920316  0.5898207245357385
  0.5221897379155682  0.0533619334323556  0.5897963985160694
  0.5221876858405812  0.0761567026451114  0.5576075665333365
  0.5864159748376901  0.0619398431629000  0.5171478823394997
  0.5666949326572971  0.0732716397768254  0.5555618324121010
  0.6112025167959657  0.0761567026451114  0.5576075665333365
  0.5914882664148550  0.0875278226920316  0.5898207245357385
  0.5419193329330748  0.1389844079044383  0.5171478823394997
  0.5667080933056081  0.1019385248391791  0.5150722954143732
  0.5024854097487010  0.1389880318104932  0.5171419566942000
  0.5915002407040858  0.1389880318104932  0.5171419566942000
  0.5914955706402227  0.1161548305138472  0.5555320264133365
  0.5667058748913504  0.1532012673866497  0.5576075665333365
  0.5221994771117618  0.1275228804622561  0.5877510632559118
  0.5667079269663374  0.1304064981738943  0.5897963985160694
  0.5222112850617221  0.2074510629154327  0.5897963985160694
  0.4974164401098071  0.1931954485650378  0.5555392340394222
  0.4777050703001838  0.1818667072923558  0.5171176306745308
  0.4974107167392285  0.1645687635275152  0.5898266501810381
  0.4974226910284592  0.2160289726459770  0.5171478823394997
  0.5469989287356072  0.1931993952553856  0.5555320264133365
  0.5469916245102395  0.1645723874335702  0.5898207245357385
  0.5470035987994702  0.2160325965520318  0.5171419566942000
  0.5667176661625311  0.2045674452037944  0.5877510632559118
  0.5667199012555681  0.1818667072923558  0.5171176306745308
  0.5864255476946133  0.1645687635275152  0.5898266501810381
  0.5864375219838440  0.2160289726459770  0.5171478823394997
  0.5864312710651914  0.1931954485650378  0.5555392340394222
  0.5024687653956075  0.0646946213953856  0.6282107942548749
  0.5419011077251915  0.0646906747050377  0.6282180018809608
  0.5221875028225311  0.0760626713437944  0.6604298310974501
  0.5666959526771067  0.0789462890554329  0.6624751663576077
  0.5469796502210089  0.1131121783151088  0.6624994923772769
  0.4973987424499978  0.1131085544090537  0.6625054180225765
  0.5469749801571457  0.0902789770184626  0.7008895620964134
  0.4973924915313450  0.0902750303281146  0.7008967697224990
  0.5221863164634508  0.0988559953999022  0.6282406002536393
  0.5221852844082734  0.1273254138912651  0.7029651022164133
  0.4974044658205760  0.1417352394465760  0.6282180018809608
  0.5469869544463767  0.1417391861369240  0.6282107942548749
  0.5666925312249893  0.1244403510229793  0.7009193680951779
  0.5864192967759607  0.1417352394465760  0.6282180018809608
  0.6112011474188351  0.0988559953999022  0.6282406002536393
  0.5864135734053826  0.1131085544090537  0.6625054180225765
  0.5666939006021201  0.1017410582681881  0.6302863343748750
  0.6112001153636579  0.1273254138912651  0.7029651022164133
  0.5221993107724912  0.1559908537969713  0.6624751663576077
  0.5221958893203740  0.2014849157645177  0.7009193680951779
  0.5024830083163934  0.1901567430566471  0.6624994923772769
  0.5024783382525304  0.1673235417600009  0.7008895620964134
  0.5221972586975041  0.1787856230097267  0.6302863343748750
  0.5419106805821142  0.1673195950696528  0.7008967697224990
  0.5419169315007670  0.1901531191505922  0.6625054180225765
  0.5914931692079147  0.1673235417600009  0.7008895620964134
  0.5667034734590426  0.2043699786328037  0.7029651022164133
  0.5667045055142200  0.1759005601414407  0.6282406002536393
  0.5914978392717781  0.1901567430566471  0.6624994923772769
  0.5667056918733004  0.1531072360853329  0.6604298310974501
  0.6112165431601839  0.1048221425508174  0.5171176306745308
  0.6309279129698068  0.1161508838234990  0.5555392340394222
  0.6359968826087007  0.0619434670689546  0.5171419566942000
  0.6309221895992286  0.0875241987859769  0.5898266501810381
  0.6557097636126816  0.0732716397768254  0.5555618324121010
  0.6557229242609927  0.1019385248391791  0.5150722954143732
  0.6805030973702397  0.0875278226920316  0.5898207245357385
  0.7002313741155685  0.1048221425508174  0.5171176306745308
  0.6309341638884594  0.1389844079044383  0.5171478823394997
  0.6557347322109529  0.1818667072923558  0.5171176306745308
  0.6112262823563771  0.1789830895807174  0.5150722954143732
  0.6360184297548550  0.2160325965520318  0.5171419566942000
  0.6360137596909919  0.1931993952553856  0.5555320264133365
  0.6112131217080663  0.1503162045183639  0.5555618324121010
  0.6557207058467347  0.1532012673866497  0.5576075665333365
  0.6557324971179158  0.2045674452037944  0.5877510632559118
  0.6112143080671464  0.1275228804622561  0.5877510632559118
  0.6112261160171064  0.2074510629154327  0.5897963985160694
  0.6557227579217222  0.1304064981738943  0.5897963985160694
  0.6360064554656244  0.1645723874335702  0.5898207245357385
  0.6805150716594701  0.1389880318104932  0.5171419566942000
  0.6805104015956075  0.1161548305138472  0.5555320264133365
  0.7199489948438441  0.1389844079044383  0.5171478823394997
  0.7002291390225310  0.1275228804622561  0.5877510632559118
  0.6754403786499978  0.1645687635275152  0.5898266501810381
  0.7002411133117619  0.1789830895807174  0.5150722954143732
  0.6754461020205762  0.1931954485650378  0.5555392340394222
  0.7250285906463767  0.1931993952553856  0.5555320264133365
  0.7250332607102397  0.2160325965520318  0.5171419566942000
  0.7002409469724913  0.2074510629154327  0.5897963985160694
  0.6754523529392286  0.2160289726459770  0.5171478823394997
  0.6557087315575042  0.1017410582681881  0.6302863343748750
  0.6754284043607671  0.1131085544090537  0.6625054180225765
  0.6557205228286848  0.1531072360853329  0.6604298310974501
  0.6557193364696043  0.1759005601414407  0.6282406002536393
  0.6360017854017610  0.1417391861369240  0.6282107942548749
  0.6112120896528889  0.1787856230097267  0.6302863343748750
  0.6112141417278760  0.1559908537969713  0.6624751663576077
  0.6359944811763937  0.1131121783151088  0.6624994923772769
  0.6309317624561518  0.1901531191505922  0.6625054180225765
  0.6557073621803738  0.1244403510229793  0.7009193680951779
  0.6309255115374990  0.1673195950696528  0.7008967697224990
  0.6112107202757585  0.2014849157645177  0.7009193680951779
  0.7250166163571458  0.1417391861369240  0.6282107942548749
  0.6754341277313453  0.1417352394465760  0.6282180018809608
  0.7002269206082732  0.1787856230097267  0.6302863343748750
  0.7002289726832608  0.1559908537969713  0.6624751663576077
  0.6805126702271629  0.1901567430566471  0.6624994923772769
  0.7199465934115363  0.1901531191505922  0.6625054180225765
  0.7002255512311428  0.2014849157645177  0.7009193680951779
  0.6805080001632995  0.1673235417600009  0.7008895620964134
  0.7199403424928835  0.1673195950696528  0.7008967697224990
  0.4528901262561515  0.1386929100321306  0.7351841858641148
  0.3638752953007672  0.1386929100321306  0.7351841858641148
  0.3441674137686850  0.1786915917084098  0.7331085989389885
  0.3441672474294148  0.2071595650431251  0.8078327020406846
  0.3689595611671627  0.2157410986797240  0.7351782602188154
  0.3689548911032996  0.1929078973830779  0.7735683299379519
  0.3886618372590429  0.1529097695143422  0.7756438700579519
  0.3886736285302234  0.2042759473314869  0.8057873667805271
  0.3886758636232608  0.1815752094200482  0.7351539341991460
  0.4083872334328841  0.1929039506927302  0.7735755375640375
  0.4134562030717781  0.1386965339381856  0.7351782602188154
  0.4083934843515364  0.2157374747736691  0.7351841858641148
  0.4331822447240698  0.1786915917084098  0.7331085989389885
  0.4331690840757587  0.1500247066460561  0.7735981359367161
  0.4579624178333164  0.1642808895612625  0.8078570280603538
  0.4331820783847996  0.2071595650431251  0.8078327020406846
  0.5221873364832608  0.1045306446785096  0.7351539341991460
  0.5419049572115361  0.1386929100321306  0.7351841858641148
  0.5024710340271626  0.1386965339381856  0.7351782602188154
  0.5221839150311430  0.1500247066460561  0.7735981359367161
  0.5221970756794542  0.1786915917084098  0.7331085989389885
  0.5469892230779321  0.2157410986797240  0.7351782602188154
  0.5469845530140689  0.1929078973830779  0.7735683299379519
  0.4776766682144272  0.1529097695143422  0.7756438700579519
  0.5469772487887011  0.1642808895612625  0.8078570280603538
  0.4776884594856083  0.2042759473314869  0.8057873667805271
  0.5221969093401839  0.2071595650431251  0.8078327020406846
  0.4973963410176903  0.1642772656552076  0.8078629537056534
  0.5666914991698120  0.1529097695143422  0.7756438700579519
  0.6309197881669206  0.1386929100321306  0.7351841858641148
  0.5914858649825472  0.1386965339381856  0.7351782602188154
  0.6111987459865276  0.1500247066460561  0.7735981359367161
  0.6112119066348387  0.1786915917084098  0.7331085989389885
  0.5667055255340298  0.1815752094200482  0.7351539341991460
  0.5864168953436532  0.1929039506927302  0.7735755375640375
  0.5864231462623053  0.2157374747736691  0.7351841858641148
  0.6359993839694533  0.1929078973830779  0.7735683299379519
  0.6112117402955682  0.2071595650431251  0.8078327020406846
  0.5667032904409927  0.2042759473314869  0.8057873667805271
  0.7002267375902230  0.1786915917084098  0.7331085989389885
  0.6754317262990375  0.1929039506927302  0.7735755375640375
  0.7250188849887012  0.2157410986797240  0.7351782602188154
  0.6557203564894145  0.1815752094200482  0.7351539341991460
  0.6557181213963772  0.2042759473314869  0.8057873667805271
  0.1216672936247991  0.3359558367754328  0.5171176306745308
  0.1661639355294146  0.2589112720338943  0.5171176306745308
  0.0771588437702235  0.3330722190637945  0.5150722954143732
  0.1661736747256076  0.3330722190637945  0.5150722954143732
  0.1464476330733163  0.2930771612935703  0.5171419566942000
  0.1858815562576900  0.2930735373875152  0.5171478823394997
  0.1216554856748386  0.2560276543222560  0.5150722954143732
  0.1464429630094532  0.2702439599969241  0.5555320264133365
  0.1858753053390379  0.2702400133065760  0.5555392340394222
  0.1464356587840856  0.2416169521751088  0.5898207245357385
  0.1858695819684595  0.2416133282690539  0.5898266501810381
  0.1661499091651964  0.2302458321281882  0.5576075665333365
  0.1661605140772974  0.3044053340014408  0.5555618324121010
  0.1216553193355686  0.2844956276569710  0.5897963985160694
  0.1661617004363776  0.2816120099453330  0.5877510632559118
  0.1216532672605811  0.3072903968697268  0.5576075665333365
  0.1661615340971069  0.3100799832800480  0.6624751663576077
  0.1413729400638440  0.3186578930105922  0.5898266501810381
  0.1019390168794705  0.3186615169166472  0.5898207245357385
  0.1858791548253825  0.3442422486336690  0.6625054180225765
  0.1661594820221196  0.3328747524928037  0.6302863343748750
  0.1464452316410088  0.3442458725397241  0.6624994923772769
  0.1413786634344223  0.3472845780481145  0.5555392340394222
  0.1019463211048379  0.3472885247384625  0.5555320264133365
  0.1019509911687012  0.3701217260351086  0.5171419566942000
  0.1216638721726818  0.3814498987429792  0.5555618324121010
  0.0771566253559659  0.3843349616112654  0.5576075665333365
  0.0771586774309530  0.3615401923985098  0.5897963985160694
  0.0968762981592286  0.3957024577521308  0.5898266501810381
  0.1216628401175045  0.4099193172343421  0.6302863343748750
  0.1216648921924915  0.3871245480215866  0.6624751663576077
  0.1413849143530749  0.3701181021290537  0.5171478823394997
  0.1216770328209927  0.4101167838053328  0.5150722954143732
  0.1661714563113503  0.3843349616112654  0.5576075665333365
  0.1661735083863374  0.3615401923985098  0.5897963985160694
  0.1216650585317618  0.3586565746868712  0.5877510632559118
  0.1464572059302397  0.3957060816581855  0.5898207245357385
  0.1858911291146130  0.3957024577521308  0.5898266501810381
  0.1661700869342201  0.4070342543660561  0.6282406002536393
  0.1858848781959606  0.3728689336711914  0.6282180018809608
  0.1464525358663768  0.3728728803615394  0.6282107942548749
  0.1661712732933003  0.3842409303099480  0.6604298310974501
  0.0574543492640859  0.4471662907766470  0.5171419566942000
  0.0574496792002230  0.4243330894800010  0.5555320264133365
  0.0523796562546133  0.4727470224936689  0.5898266501810381
  0.0771661982128891  0.4869638819758804  0.6302863343748750
  0.0968882724484593  0.4471626668705923  0.5171478823394997
  0.0771803909163769  0.4871613485468714  0.5150722954143732
  0.0771706517201840  0.4130004015169710  0.5171176306745308
  0.0771672302680661  0.4584944634845178  0.5555618324121010
  0.0968820215298065  0.4243291427896528  0.5555392340394222
  0.0771684166271462  0.4357011394284099  0.5877510632559118
  0.1019605640256242  0.4727506463997241  0.5898207245357385
  0.1019558939617613  0.4499174451030780  0.6282107942548749
  0.1019485897363937  0.4212904372812624  0.6624994923772769
  0.0968858710161518  0.4983313781167460  0.6625054180225765
  0.1216734450296046  0.4840788191075946  0.6282406002536393
  0.0771682502878762  0.4641691127631250  0.6624751663576077
  0.1661854826755687  0.4130004015169710  0.5171176306745308
  0.1216888407709532  0.4900449662585096  0.5171176306745308
  0.1661952218717619  0.4871613485468714  0.5150722954143732
  0.1464691802194704  0.4471662907766470  0.5171419566942000
  0.1464645101556075  0.4243330894800010  0.5555320264133365
  0.1858968524851915  0.4243291427896528  0.5555392340394222
  0.1661820612234508  0.4584944634845178  0.5555618324121010
  0.1216748144067349  0.4613795263528035  0.5576075665333365
  0.1413944872099979  0.4727470224936689  0.5898266501810381
  0.1216768664817223  0.4385847571400481  0.5897963985160694
  0.1661832475825310  0.4357011394284099  0.5877510632559118
  0.1413882362913451  0.4499134984127300  0.6282180018809608
  0.1413825129207674  0.4212868133752076  0.6625054180225765
  0.1216746313886852  0.4612854950514866  0.6604298310974501
  0.1661830812432608  0.4641691127631250  0.6624751663576077
  0.1661810291682737  0.4869638819758804  0.6302863343748750
  0.1859007019715366  0.4983313781167460  0.6625054180225765
  0.1464667787871627  0.4983350020228010  0.6624994923772769
  0.1464621087232998  0.4755018007261548  0.7008895620964134
  0.1858944510528838  0.4754978540358069  0.7008967697224990
  0.1661690548790430  0.4355036728574191  0.7029651022164133
  0.1661808461502233  0.4868698506745637  0.7331085989389885
  0.1464548044979320  0.4468747929043393  0.7351782602188154
  0.1216744650494145  0.4897534683862019  0.7351539341991460
  0.1661711069540301  0.4127089036446635  0.7351539341991460
  0.1858887276823057  0.4468711689982846  0.7351841858641148
  0.2354624640287013  0.2930771612935703  0.5171419566942000
  0.2551787664847990  0.2589112720338943  0.5171176306745308
  0.2106703166302234  0.2560276543222560  0.5150722954143732
  0.2354577939648386  0.2702439599969241  0.5555320264133365
  0.2748901362944224  0.2702400133065760  0.5555392340394222
  0.2106571559819125  0.2273607692599024  0.5555618324121010
  0.2551647401205812  0.2302458321281882  0.5576075665333365
  0.2551765313917619  0.2816120099453330  0.5877510632559118
  0.2354504897394704  0.2416169521751088  0.5898207245357385
  0.2748844129238441  0.2416133282690539  0.5898266501810381
  0.2106701502909529  0.2844956276569710  0.5897963985160694
  0.1909611520602226  0.3472885247384625  0.5555320264133365
  0.2106821245801838  0.3359558367754328  0.5171176306745308
  0.2303934943898071  0.3472845780481145  0.5555392340394222
  0.2551753450326815  0.3044053340014408  0.5555618324121010
  0.2106680982159658  0.3072903968697268  0.5576075665333365
  0.1909538478348548  0.3186615169166472  0.5898207245357385
  0.2106798894871463  0.3586565746868712  0.5877510632559118
  0.2303877710192290  0.3186578930105922  0.5898266501810381
  0.2551883393417226  0.3615401923985098  0.5897963985160694
  0.2106561239267354  0.2558301877512651  0.6302863343748750
  0.2354458196756075  0.2187837508784625  0.6282107942548749
  0.1909491777709922  0.2958283156200010  0.6282107942548749
  0.2303815201005764  0.2958243689296530  0.6282180018809608
  0.2748781620051915  0.2187798041881147  0.6282180018809608
  0.2551633707434506  0.2529451248829792  0.6282406002536393
  0.2551645571025314  0.2301518008268713  0.6604298310974501
  0.2106581760017222  0.2330354185385097  0.6624751663576077
  0.2303757967299980  0.2671976838921308  0.6625054180225765
  0.1909418735456241  0.2672013077981857  0.6624994923772769
  0.2551623386882734  0.2814145433743420  0.7029651022164133
  0.2551643907632608  0.2586197741615866  0.7351539341991460
  0.2354480883071624  0.2927856634212626  0.7351782602188154
  0.2748820114915363  0.2927820395152077  0.7351841858641148
  0.2106679151979159  0.3071963655684097  0.6604298310974501
  0.2551763650524916  0.3100799832800480  0.6624751663576077
  0.2551743129775046  0.3328747524928037  0.6302863343748750
  0.2354600625963933  0.3442458725397241  0.6624994923772769
  0.2106667288388352  0.3299896896245177  0.6282406002536393
  0.2354553925325307  0.3214126712430783  0.7008895620964134
  0.2748877348621147  0.3214087245527299  0.7008967697224990
  0.2106677488586456  0.3356643389031247  0.7351539341991460
  0.2303853695869212  0.3698266042567462  0.7351841858641148
  0.2551729436003740  0.3555740452475946  0.7009193680951779
  0.2551741299594539  0.3327807211914868  0.7331085989389885
  0.2106656967836579  0.3584591081158806  0.7029651022164133
  0.2354840111748552  0.4471662907766470  0.5171419566942000
  0.1909658221240862  0.3701217260351086  0.5171419566942000
  0.2106918637763775  0.4101167838053328  0.5150722954143732
  0.1859031034038443  0.4471626668705923  0.5171478823394997
  0.2552100528271467  0.4871613485468714  0.5150722954143732
  0.2552003136309531  0.4130004015169710  0.5171176306745308
  0.2107036717263377  0.4900449662585096  0.5171176306745308
  0.2551968921788358  0.4584944634845178  0.5555618324121010
  0.2354793411109921  0.4243330894800010  0.5555320264133365
  0.2106787031280664  0.3814498987429792  0.5555618324121010
  0.2551862872667350  0.3843349616112654  0.5576075665333365
  0.2106896453621197  0.4613795263528035  0.5576075665333365
  0.2354673668217611  0.3728728803615394  0.6282107942548749
  0.2551849178896049  0.4070342543660561  0.6282406002536393
  0.2354720368856247  0.3957060816581855  0.5898207245357385
  0.2106916974371070  0.4385847571400481  0.5897963985160694
  0.2551980785379158  0.4357011394284099  0.5877510632559118
  0.2304093181653828  0.4727470224936689  0.5898266501810381
  0.1909707249171460  0.4499174451030780  0.6282107942548749
  0.1909753949810089  0.4727506463997241  0.5898207245357385
  0.2106882759849896  0.4840788191075946  0.6282406002536393
  0.2304030672467298  0.4499134984127300  0.6282180018809608
  0.2106894623440700  0.4612854950514866  0.6604298310974501
  0.2106776710728890  0.4099193172343421  0.6302863343748750
  0.2551958601236582  0.4869638819758804  0.6302863343748750
  0.2303973438761522  0.4212868133752076  0.6625054180225765
  0.2551979121986455  0.4641691127631250  0.6624751663576077
  0.2106797231478761  0.3871245480215866  0.6624751663576077
  0.2354816097425477  0.4983350020228010  0.6624994923772769
  0.2551861042486853  0.3842409303099480  0.6604298310974501
  0.1909634206917784  0.4212904372812624  0.6624994923772769
  0.1909587506279151  0.3984572359846165  0.7008895620964134
  0.1909514464025473  0.3698302281628009  0.7351782602188154
  0.2303910929574993  0.3984532892942685  0.7008967697224990
  0.2106774880548388  0.4098252859330249  0.7331085989389885
  0.2551859379094146  0.4127089036446635  0.7351539341991460
  0.2354649653894536  0.4240415916076933  0.7735683299379519
  0.2106763016957589  0.4326186099891334  0.7009193680951779
  0.2551838858344275  0.4355036728574191  0.7029651022164133
  0.2354696354533168  0.4468747929043393  0.7351782602188154
  0.2551956771056080  0.4868698506745637  0.7331085989389885
  0.2106892960047993  0.4897534683862019  0.7351539341991460
  0.2354769396786845  0.4755018007261548  0.7008895620964134
  0.2748963872130748  0.2930735373875152  0.5171478823394997
  0.2996851475856079  0.2560276543222560  0.5150722954143732
  0.2996709548821199  0.2558301877512651  0.6302863343748750
  0.2996849812463377  0.2844956276569710  0.5897963985160694
  0.3441795710759659  0.2302458321281882  0.5576075665333365
  0.2996719869372973  0.2273607692599024  0.5555618324121010
  0.3441782016988356  0.2529451248829792  0.6282406002536393
  0.3244653206948550  0.2416169521751088  0.5898207245357385
  0.3244726249202227  0.2702439599969241  0.5555320264133365
  0.3244606506309921  0.2187837508784625  0.6282107942548749
  0.3441901759880665  0.3044053340014408  0.5555618324121010
  0.2799759830156074  0.3472885247384625  0.5555320264133365
  0.2996829291713499  0.3072903968697268  0.5576075665333365
  0.2996969555355684  0.3359558367754328  0.5171176306745308
  0.3194083253451916  0.3472845780481145  0.5555392340394222
  0.3194026019746135  0.3186578930105922  0.5898266501810381
  0.2996815597942198  0.3299896896245177  0.6282406002536393
  0.3193963510559609  0.2958243689296530  0.6282180018809608
  0.2799686787902396  0.3186615169166472  0.5898207245357385
  0.2799640087263769  0.2958283156200010  0.6282107942548749
  0.3441891439328894  0.3328747524928037  0.6302863343748750
  0.2996947204425311  0.3586565746868712  0.5877510632559118
  0.3441935974401837  0.2589112720338943  0.5171176306745308
  0.3886868178926818  0.2273607692599024  0.5555618324121010
  0.3886857858375045  0.2558301877512651  0.6302863343748750
  0.3638929929605760  0.2187798041881147  0.6282180018809608
  0.3638992438792286  0.2416133282690539  0.5898266501810381
  0.4134754815863766  0.2187837508784625  0.6282107942548749
  0.4134801516502395  0.2416169521751088  0.5898207245357385
  0.3886999785409927  0.2560276543222560  0.5150722954143732
  0.4331930326542199  0.2529451248829792  0.6282406002536393
  0.3441913623471464  0.2816120099453330  0.5877510632559118
  0.3639049672498068  0.2702400133065760  0.5555392340394222
  0.4134874558756075  0.2702439599969241  0.5555320264133365
  0.3886998122017222  0.2844956276569710  0.5897963985160694
  0.4134921259394704  0.2930771612935703  0.5171419566942000
  0.3887117864909529  0.3359558367754328  0.5171176306745308
  0.4084231563005762  0.3472845780481145  0.5555392340394222
  0.3689908139709919  0.3472885247384625  0.5555320264133365
  0.3886977601267351  0.3072903968697268  0.5576075665333365
  0.3886963907496048  0.3299896896245177  0.6282406002536393
  0.4084174329299978  0.3186578930105922  0.5898266501810381
  0.3689835097456242  0.3186615169166472  0.5898207245357385
  0.3887095513979157  0.3586565746868712  0.5877510632559118
  0.3689788396817615  0.2958283156200010  0.6282107942548749
  0.4084111820113453  0.2958243689296530  0.6282180018809608
  0.2799520344371458  0.2443681065015395  0.7008895620964134
  0.3441793880579158  0.2301518008268713  0.6604298310974501
  0.3193906276853828  0.2671976838921308  0.6625054180225765
  0.2799567045010091  0.2672013077981857  0.6624994923772769
  0.2996730069571070  0.2330354185385097  0.6624751663576077
  0.3193843767667298  0.2443641598111916  0.7008967697224990
  0.2996695855049895  0.2785294805060562  0.7009193680951779
  0.3441792217186455  0.2586197741615866  0.7351539341991460
  0.3244582491986843  0.2699524621246165  0.7735683299379519
  0.2996707718640695  0.2557361564499482  0.7331085989389885
  0.3441877745557583  0.3555740452475946  0.7009193680951779
  0.3244748935517783  0.3442458725397241  0.6624994923772769
  0.2748939857807675  0.3442422486336690  0.6625054180225765
  0.2996827461533002  0.3071963655684097  0.6604298310974501
  0.3244702234879152  0.3214126712430783  0.7008895620964134
  0.2996805277390426  0.3584591081158806  0.7029651022164133
  0.3441771696436582  0.2814145433743420  0.7029651022164133
  0.2996825798140300  0.3356643389031247  0.7351539341991460
  0.2799616072940689  0.3469970268661552  0.7735683299379519
  0.3244629192625474  0.2927856634212626  0.7351782602188154
  0.4083992077221148  0.2443641598111916  0.7008967697224990
  0.3689715354563934  0.2672013077981857  0.6624994923772769
  0.4084054586407672  0.2671976838921308  0.6625054180225765
  0.3689668653925305  0.2443681065015395  0.7008895620964134
  0.3886878379124916  0.2330354185385097  0.6624751663576077
  0.3886844164603743  0.2785294805060562  0.7009193680951779
  0.4331920005990427  0.2814145433743420  0.7029651022164133
  0.3886856028194542  0.2557361564499482  0.7331085989389885
  0.3638968424469209  0.2927820395152077  0.7351841858641148
  0.4134730801540689  0.2699524621246165  0.7735683299379519
  0.4134897245071626  0.3442458725397241  0.6624994923772769
  0.3441911960078762  0.3100799832800480  0.6624751663576077
  0.3886975771086850  0.3071963655684097  0.6604298310974501
  0.4134850544432997  0.3214126712430783  0.7008895620964134
  0.3639088167361521  0.3442422486336690  0.6625054180225765
  0.3639025658174992  0.3214087245527299  0.7008967697224990
  0.3886953586944274  0.3584591081158806  0.7029651022164133
  0.3441889609148387  0.3327807211914868  0.7331085989389885
  0.3886974107694145  0.3356643389031247  0.7351539341991460
  0.3689764382494538  0.3469970268661552  0.7735683299379519
  0.4134777502179318  0.2927856634212626  0.7351782602188154
  0.2997066947317618  0.4101167838053328  0.5150722954143732
  0.2799806530794705  0.3701217260351086  0.5171419566942000
  0.3194145762638440  0.3701181021290537  0.5171478823394997
  0.2996935340834507  0.3814498987429792  0.5555618324121010
  0.3442011182221196  0.3843349616112654  0.5576075665333365
  0.3244821977771459  0.3728728803615394  0.6282107942548749
  0.2749059600699980  0.3957024577521308  0.5898266501810381
  0.3442031702971069  0.3615401923985098  0.5897963985160694
  0.3441997488449892  0.4070342543660561  0.6282406002536393
  0.2748997091513456  0.3728689336711914  0.6282180018809608
  0.3244868678410088  0.3957060816581855  0.5898207245357385
  0.3244988421302397  0.4471662907766470  0.5171419566942000
  0.2997185026817223  0.4900449662585096  0.5171176306745308
  0.3244941720663766  0.4243330894800010  0.5555320264133365
  0.2749179343592289  0.4471626668705923  0.5171478823394997
  0.2997044763175042  0.4613795263528035  0.5576075665333365
  0.2749116834405761  0.4243291427896528  0.5555392340394222
  0.2997065283924918  0.4385847571400481  0.5897963985160694
  0.2799902259363935  0.4727506463997241  0.5898207245357385
  0.3194178982021146  0.4499134984127300  0.6282180018809608
  0.2997031069403741  0.4840788191075946  0.6282406002536393
  0.3194241491207674  0.4727470224936689  0.5898266501810381
  0.2799855558725306  0.4499174451030780  0.6282107942548749
  0.4135090030217612  0.4243330894800010  0.5555320264133365
  0.3887215256871466  0.4101167838053328  0.5150722954143732
  0.4084294072192288  0.3701181021290537  0.5171478823394997
  0.3689954840348548  0.3701217260351086  0.5171419566942000
  0.3442151445863378  0.4130004015169710  0.5171176306745308
  0.3639265143959606  0.4243291427896528  0.5555392340394222
  0.3887083650388355  0.3814498987429792  0.5555618324121010
  0.4135016987963936  0.3957060816581855  0.5898207245357385
  0.3639207910253825  0.3957024577521308  0.5898266501810381
  0.3442129094933003  0.4357011394284099  0.5877510632559118
  0.3639145401067301  0.3728689336711914  0.6282180018809608
  0.4134970287325307  0.3728728803615394  0.6282107942548749
  0.3442117231342204  0.4584944634845178  0.5555618324121010
  0.3639327653146132  0.4471626668705923  0.5171478823394997
  0.4135136730856241  0.4471662907766470  0.5171419566942000
  0.3442248837825312  0.4871613485468714  0.5150722954143732
  0.3887333336371070  0.4900449662585096  0.5171176306745308
  0.3887193072728888  0.4613795263528035  0.5576075665333365
  0.3690050568917780  0.4727506463997241  0.5898207245357385
  0.3690003868279149  0.4499174451030780  0.6282107942548749
  0.3887179378957585  0.4840788191075946  0.6282406002536393
  0.4084389800761519  0.4727470224936689  0.5898266501810381
  0.3887213593478761  0.4385847571400481  0.5897963985160694
  0.4084327291574992  0.4499134984127300  0.6282180018809608
  0.2799735815832997  0.3984572359846165  0.7008895620964134
  0.3442009352040699  0.3842409303099480  0.6604298310974501
  0.2996945541032609  0.3871245480215866  0.6624751663576077
  0.2996925020282740  0.4099193172343421  0.6302863343748750
  0.3194121748315365  0.4212868133752076  0.6625054180225765
  0.2799782516471628  0.4212904372812624  0.6624994923772769
  0.3244964406979320  0.4983350020228010  0.6624994923772769
  0.2749155329269216  0.4983313781167460  0.6625054180225765
  0.2997042932994545  0.4612854950514866  0.6604298310974501
  0.3244917706340691  0.4755018007261548  0.7008895620964134
  0.3887073329836586  0.4099193172343421  0.6302863343748750
  0.3689884125386844  0.3984572359846165  0.7008895620964134
  0.3887093850586454  0.3871245480215866  0.6624751663576077
  0.3689930826025475  0.4212904372812624  0.6624994923772769
  0.4084270057869213  0.4212868133752076  0.6625054180225765
  0.3887191242548391  0.4612854950514866  0.6604298310974501
  0.3442127431540301  0.4641691127631250  0.6624751663576077
  0.4135066015894538  0.4755018007261548  0.7008895620964134
  0.3442106910790430  0.4869638819758804  0.6302863343748750
  0.4135112716533165  0.4983350020228010  0.6624994923772769
  0.3639303638823059  0.4983313781167460  0.6625054180225765
  0.3194059239128837  0.3984532892942685  0.7008967697224990
  0.2996923190102231  0.4098252859330249  0.7331085989389885
  0.3194002005423058  0.3698266042567462  0.7351841858641148
  0.2799662773579316  0.3698302281628009  0.7351782602188154
  0.3244797963448382  0.4240415916076933  0.7735683299379519
  0.2996911326511434  0.4326186099891334  0.7009193680951779
  0.3244844664087015  0.4468747929043393  0.7351782602188154
  0.2749035586376902  0.4468711689982846  0.7351841858641148
  0.3441987167898121  0.4355036728574191  0.7029651022164133
  0.2749092820082684  0.4754978540358069  0.7008967697224990
  0.2997041269601841  0.4897534683862019  0.7351539341991460
  0.3442007688647992  0.4127089036446635  0.7351539341991460
  0.4084207548682685  0.3984532892942685  0.7008967697224990
  0.3887071499656079  0.4098252859330249  0.7331085989389885
  0.4084150314976901  0.3698266042567462  0.7351841858641148
  0.3689811083133167  0.3698302281628009  0.7351782602188154
  0.4134946273002230  0.4240415916076933  0.7735683299379519
  0.3887059636065280  0.4326186099891334  0.7009193680951779
  0.4134992973640859  0.4468747929043393  0.7351782602188154
  0.3639183895930748  0.4468711689982846  0.7351841858641148
  0.3887189579155686  0.4897534683862019  0.7351539341991460
  0.3639241129636531  0.4754978540358069  0.7008967697224990
  0.3442105080609928  0.4868698506745637  0.7331085989389885
  0.4331944020313503  0.2302458321281882  0.5576075665333365
  0.4777016488480666  0.2273607692599024  0.5555618324121010
  0.4529197982051913  0.2702400133065760  0.5555392340394222
  0.4332084283955685  0.2589112720338943  0.5171176306745308
  0.4777148094963772  0.2560276543222560  0.5150722954143732
  0.4529260491238439  0.2930735373875152  0.5171478823394997
  0.4974379872559607  0.3472845780481145  0.5555392340394222
  0.4332181675917617  0.3330722190637945  0.5150722954143732
  0.4580056449263767  0.3472885247384625  0.5555320264133365
  0.4777125910821195  0.3072903968697268  0.5576075665333365
  0.4332050069434510  0.3044053340014408  0.5555618324121010
  0.4777266174463375  0.3359558367754328  0.5171176306745308
  0.4529078239159608  0.2187798041881147  0.6282180018809608
  0.4777006167928892  0.2558301877512651  0.6302863343748750
  0.4529140748346134  0.2416133282690539  0.5898266501810381
  0.4332061933025312  0.2816120099453330  0.5877510632559118
  0.4777146431571068  0.2844956276569710  0.5897963985160694
  0.4777112217049891  0.3299896896245177  0.6282406002536393
  0.4579983407010087  0.3186615169166472  0.5898207245357385
  0.4974322638853826  0.3186578930105922  0.5898266501810381
  0.4579936706371458  0.2958283156200010  0.6282107942548749
  0.4974260129667301  0.2958243689296530  0.6282180018809608
  0.4332039748882737  0.3328747524928037  0.6302863343748750
  0.5667164798034510  0.2273607692599024  0.5555618324121010
  0.5222092329867351  0.2302458321281882  0.5576075665333365
  0.5222232593509528  0.2589112720338943  0.5171176306745308
  0.5667296404517618  0.2560276543222560  0.5150722954143732
  0.5025022868309923  0.2702439599969241  0.5555320264133365
  0.5419346291605759  0.2702400133065760  0.5555392340394222
  0.5419408800792287  0.2930735373875152  0.5171478823394997
  0.5470204758817613  0.3472885247384625  0.5555320264133365
  0.5222329985471462  0.3330722190637945  0.5150722954143732
  0.5667274220375043  0.3072903968697268  0.5576075665333365
  0.5222198378988359  0.3044053340014408  0.5555618324121010
  0.5025069568948551  0.2930771612935703  0.5171419566942000
  0.5667414484017220  0.3359558367754328  0.5171176306745308
  0.5667154477482735  0.2558301877512651  0.6302863343748750
  0.5222078636096049  0.2529451248829792  0.6282406002536393
  0.5419226548713454  0.2187798041881147  0.6282180018809608
  0.5024903125417611  0.2187837508784625  0.6282107942548749
  0.5419289057899978  0.2416133282690539  0.5898266501810381
  0.5024949826056244  0.2416169521751088  0.5898207245357385
  0.5222210242579159  0.2816120099453330  0.5877510632559118
  0.5667294741124915  0.2844956276569710  0.5897963985160694
  0.5470085015925306  0.2958283156200010  0.6282107942548749
  0.5470131716563935  0.3186615169166472  0.5898207245357385
  0.5222188058436587  0.3328747524928037  0.6302863343748750
  0.5667260526603741  0.3299896896245177  0.6282406002536393
  0.4331942190133007  0.2301518008268713  0.6604298310974501
  0.4579863664117782  0.2672013077981857  0.6624994923772769
  0.4974202895961519  0.2671976838921308  0.6625054180225765
  0.4777026688678759  0.2330354185385097  0.6624751663576077
  0.4579816963479153  0.2443681065015395  0.7008895620964134
  0.4974140386774991  0.2443641598111916  0.7008967697224990
  0.4776992474157586  0.2785294805060562  0.7009193680951779
  0.4777004337748388  0.2557361564499482  0.7331085989389885
  0.4529116734023056  0.2927820395152077  0.7351841858641148
  0.4331940526740298  0.2586197741615866  0.7351539341991460
  0.4777124080640697  0.3071963655684097  0.6604298310974501
  0.4529236476915364  0.3442422486336690  0.6625054180225765
  0.4332060269632608  0.3100799832800480  0.6624751663576077
  0.4529173967728836  0.3214087245527299  0.7008967697224990
  0.4332026055111433  0.3555740452475946  0.7009193680951779
  0.4332037918702235  0.3327807211914868  0.7331085989389885
  0.4777101896498120  0.3584591081158806  0.7029651022164133
  0.4579912692048381  0.3469970268661552  0.7735683299379519
  0.4777122417247993  0.3356643389031247  0.7351539341991460
  0.5470011973671630  0.2672013077981857  0.6624994923772769
  0.5667174998232607  0.2330354185385097  0.6624751663576077
  0.5222090499686849  0.2301518008268713  0.6604298310974501
  0.5864288696328839  0.2443641598111916  0.7008967697224990
  0.5469965273032998  0.2443681065015395  0.7008895620964134
  0.5667140783711434  0.2785294805060562  0.7009193680951779
  0.5222068315544273  0.2814145433743420  0.7029651022164133
  0.5667152647302234  0.2557361564499482  0.7331085989389885
  0.5222088836294144  0.2586197741615866  0.7351539341991460
  0.5419265043576902  0.2927820395152077  0.7351841858641148
  0.5024879111094536  0.2699524621246165  0.7735683299379519
  0.5025045554625475  0.3442458725397241  0.6624994923772769
  0.5667272390194545  0.3071963655684097  0.6604298310974501
  0.5222208579186457  0.3100799832800480  0.6624751663576077
  0.5024998853986843  0.3214126712430783  0.7008895620964134
  0.5419384786469211  0.3442422486336690  0.6625054180225765
  0.5419322277282683  0.3214087245527299  0.7008967697224990
  0.5222174364665279  0.3555740452475946  0.7009193680951779
  0.5667250206051965  0.3584591081158806  0.7029651022164133
  0.5667270726801839  0.3356643389031247  0.7351539341991460
  0.5222186228256080  0.3327807211914868  0.7331085989389885
  0.5024925811733165  0.2927856634212626  0.7351782602188154
  0.5470061001602229  0.3469970268661552  0.7735683299379519
  0.4332299755417224  0.4130004015169710  0.5171176306745308
  0.4332159491775044  0.3843349616112654  0.5576075665333365
  0.4974442381746133  0.3701181021290537  0.5171478823394997
  0.4529293710621145  0.3728689336711914  0.6282180018809608
  0.4777243823533004  0.3586565746868712  0.5877510632559118
  0.4777231959942200  0.3814498987429792  0.5555618324121010
  0.4580103149902396  0.3701217260351086  0.5171419566942000
  0.4332180012524913  0.3615401923985098  0.5897963985160694
  0.4529356219807671  0.3957024577521308  0.5898266501810381
  0.4777363566425311  0.4101167838053328  0.5150722954143732
  0.4332265540896047  0.4584944634845178  0.5555618324121010
  0.4529413453513454  0.4243291427896528  0.5555392340394222
  0.4777481645924914  0.4900449662585096  0.5171176306745308
  0.4529475962699982  0.4471626668705923  0.5171478823394997
  0.4332397147379158  0.4871613485468714  0.5150722954143732
  0.4777341382282732  0.4613795263528035  0.5576075665333365
  0.4777361903032609  0.4385847571400481  0.5897963985160694
  0.4332277404486851  0.4357011394284099  0.5877510632559118
  0.4580198878471628  0.4727506463997241  0.5898207245357385
  0.4974475601128837  0.4499134984127300  0.6282180018809608
  0.4580152177832999  0.4499174451030780  0.6282107942548749
  0.4974538110315363  0.4727470224936689  0.5898266501810381
  0.5419561763067298  0.4243291427896528  0.5555392340394222
  0.5470251459456243  0.3701217260351086  0.5171419566942000
  0.5667511875979157  0.4101167838053328  0.5150722954143732
  0.5222448064971069  0.4130004015169710  0.5171176306745308
  0.5667380269496051  0.3814498987429792  0.5555618324121010
  0.5222307801328889  0.3843349616112654  0.5576075665333365
  0.5667392133086852  0.3586565746868712  0.5877510632559118
  0.5419504529361518  0.3957024577521308  0.5898266501810381
  0.5222328322078760  0.3615401923985098  0.5897963985160694
  0.5025165297517782  0.3957060816581855  0.5898207245357385
  0.5025118596879150  0.3728728803615394  0.6282107942548749
  0.5419442020174993  0.3728689336711914  0.6282180018809608
  0.5025238339771460  0.4243330894800010  0.5555320264133365
  0.5667629955478761  0.4900449662585096  0.5171176306745308
  0.5025285040410088  0.4471662907766470  0.5171419566942000
  0.5419624272253828  0.4471626668705923  0.5171478823394997
  0.5222545456933001  0.4871613485468714  0.5150722954143732
  0.5222413850449897  0.4584944634845178  0.5555618324121010
  0.5667489691836584  0.4613795263528035  0.5576075665333365
  0.5470300487386844  0.4499174451030780  0.6282107942548749
  0.5470347188025474  0.4727506463997241  0.5898207245357385
  0.5222425714040696  0.4357011394284099  0.5877510632559118
  0.5667510212586452  0.4385847571400481  0.5897963985160694
  0.4777242160140302  0.3871245480215866  0.6624751663576077
  0.4332157661594542  0.3842409303099480  0.6604298310974501
  0.4332145798003740  0.4070342543660561  0.6282406002536393
  0.4777221639390431  0.4099193172343421  0.6302863343748750
  0.4974418367423060  0.4212868133752076  0.6625054180225765
  0.4580079135579323  0.4212904372812624  0.6624994923772769
  0.4777339552102240  0.4612854950514866  0.6604298310974501
  0.4332275741094146  0.4641691127631250  0.6624751663576077
  0.4332255220344278  0.4869638819758804  0.6302863343748750
  0.4777327688511432  0.4840788191075946  0.6282406002536393
  0.4529451948376905  0.4983313781167460  0.6625054180225765
  0.5667369948944279  0.4099193172343421  0.6302863343748750
  0.5667390469694148  0.3871245480215866  0.6624751663576077
  0.5222294107557586  0.4070342543660561  0.6282406002536393
  0.5222305971148392  0.3842409303099480  0.6604298310974501
  0.5470227445133167  0.4212904372812624  0.6624994923772769
  0.5667487861656084  0.4612854950514866  0.6604298310974501
  0.5222424050647995  0.4641691127631250  0.6624751663576077
  0.5667475998065276  0.4840788191075946  0.6282406002536393
  0.5222403529898121  0.4869638819758804  0.6302863343748750
  0.5025261026087016  0.4983350020228010  0.6624994923772769
  0.5419600257930755  0.4983313781167460  0.6625054180225765
  0.4580032434940690  0.3984572359846165  0.7008895620964134
  0.4974298624530751  0.3698266042567462  0.7351841858641148
  0.4974355858236532  0.3984532892942685  0.7008967697224990
  0.4579959392687010  0.3698302281628009  0.7351782602188154
  0.4332155998201835  0.4127089036446635  0.7351539341991460
  0.4777219809209927  0.4098252859330249  0.7331085989389885
  0.4777207945619125  0.4326186099891334  0.7009193680951779
  0.4332135477451967  0.4355036728574191  0.7029651022164133
  0.4529332205484595  0.4468711689982846  0.7351841858641148
  0.4529389439190377  0.4754978540358069  0.7008967697224990
  0.4332253390163772  0.4868698506745637  0.7331085989389885
  0.4777337888709531  0.4897534683862019  0.7351539341991460
  0.5667356255172973  0.4326186099891334  0.7009193680951779
  0.5025094582556076  0.4240415916076933  0.7735683299379519
  0.5667368118763773  0.4098252859330249  0.7331085989389885
  0.5470180744494539  0.3984572359846165  0.7008895620964134
  0.5470107702240857  0.3698302281628009  0.7351782602188154
  0.5222304307755683  0.4127089036446635  0.7351539341991460
  0.5222283787005814  0.4355036728574191  0.7029651022164133
  0.5419480515038441  0.4468711689982846  0.7351841858641148
  0.5025141283194706  0.4468747929043393  0.7351782602188154
  0.5419537748744222  0.4754978540358069  0.7008967697224990
  0.5025214325448382  0.4755018007261548  0.7008895620964134
  0.5222401699717619  0.4868698506745637  0.7331085989389885
  0.5915171177863766  0.2702439599969241  0.5555320264133365
  0.6309557110346132  0.2930735373875152  0.5171478823394997
  0.6112478295025310  0.3330722190637945  0.5150722954143732
  0.5915217878502395  0.2930771612935703  0.5171419566942000
  0.6112380903063376  0.2589112720338943  0.5171176306745308
  0.6112346688542202  0.3044053340014408  0.5555618324121010
  0.6309494601159606  0.2702400133065760  0.5555392340394222
  0.6360353068371456  0.3472885247384625  0.5555320264133365
  0.5864528182113453  0.3472845780481145  0.5555392340394222
  0.6112240639421196  0.2302458321281882  0.5576075665333365
  0.6557313107588355  0.2273607692599024  0.5555618324121010
  0.6309437367453825  0.2416133282690539  0.5898266501810381
  0.6309374858267299  0.2187798041881147  0.6282180018809608
  0.5915051434971459  0.2187837508784625  0.6282107942548749
  0.6557302787036585  0.2558301877512651  0.6302863343748750
  0.5915098135610088  0.2416169521751088  0.5898207245357385
  0.6112226945649890  0.2529451248829792  0.6282406002536393
  0.6112358552133004  0.2816120099453330  0.5877510632559118
  0.6360233325479153  0.2958283156200010  0.6282107942548749
  0.6360280026117781  0.3186615169166472  0.5898207245357385
  0.6557408836157582  0.3299896896245177  0.6282406002536393
  0.5864470948407670  0.3186578930105922  0.5898266501810381
  0.6112336367990427  0.3328747524928037  0.6302863343748750
  0.5864408439221144  0.2958243689296530  0.6282180018809608
  0.7199705419899978  0.2930735373875152  0.5171478823394997
  0.7002388948975041  0.2302458321281882  0.5576075665333365
  0.6557444714071463  0.2560276543222560  0.5150722954143732
  0.6805319487417609  0.2702439599969241  0.5555320264133365
  0.7199642910713452  0.2702400133065760  0.5555392340394222
  0.7002529212617223  0.2589112720338943  0.5171176306745308
  0.6805366188056243  0.2930771612935703  0.5171419566942000
  0.7002494998096047  0.3044053340014408  0.5555618324121010
  0.6557422529928888  0.3072903968697268  0.5576075665333365
  0.7002626604579153  0.3330722190637945  0.5150722954143732
  0.6557562793571068  0.3359558367754328  0.5171176306745308
  0.6754676491667299  0.3472845780481145  0.5555392340394222
  0.7002375255203738  0.2529451248829792  0.6282406002536393
  0.6805246445163934  0.2416169521751088  0.5898207245357385
  0.7199585677007673  0.2416133282690539  0.5898266501810381
  0.7199523167821147  0.2187798041881147  0.6282180018809608
  0.6805199744525302  0.2187837508784625  0.6282107942548749
  0.7002506861686849  0.2816120099453330  0.5877510632559118
  0.6557443050678758  0.2844956276569710  0.5897963985160694
  0.7250428335671626  0.3186615169166472  0.5898207245357385
  0.6754556748774991  0.2958243689296530  0.6282180018809608
  0.6754619257961517  0.3186578930105922  0.5898266501810381
  0.7002484677544275  0.3328747524928037  0.6302863343748750
  0.6360160283225473  0.2672013077981857  0.6624994923772769
  0.6557323307786455  0.2330354185385097  0.6624751663576077
  0.6112238809240697  0.2301518008268713  0.6604298310974501
  0.5864351205515362  0.2671976838921308  0.6625054180225765
  0.6557289093265277  0.2785294805060562  0.7009193680951779
  0.6112216625098118  0.2814145433743420  0.7029651022164133
  0.6112237145847992  0.2586197741615866  0.7351539341991460
  0.6557300956856077  0.2557361564499482  0.7331085989389885
  0.5915027420648382  0.2699524621246165  0.7735683299379519
  0.6309533096023054  0.3442422486336690  0.6625054180225765
  0.6112356888740301  0.3100799832800480  0.6624751663576077
  0.5915193864179322  0.3442458725397241  0.6624994923772769
  0.5915147163540690  0.3214126712430783  0.7008895620964134
  0.6309470586836529  0.3214087245527299  0.7008967697224990
  0.6112322674219126  0.3555740452475946  0.7009193680951779
  0.6112334537809926  0.3327807211914868  0.7331085989389885
  0.6360209311156076  0.3469970268661552  0.7735683299379519
  0.6309413353130745  0.2927820395152077  0.7351841858641148
  0.5915074121287013  0.2927856634212626  0.7351782602188154
  0.7250308592779321  0.2672013077981857  0.6624994923772769
  0.7002387118794544  0.2301518008268713  0.6604298310974501
  0.7250261892140690  0.2443681065015395  0.7008895620964134
  0.6754499515069210  0.2671976838921308  0.6625054180225765
  0.6754437005882682  0.2443641598111916  0.7008967697224990
  0.7002364934651965  0.2814145433743420  0.7029651022164133
  0.7002385455401835  0.2586197741615866  0.7351539341991460
  0.6805175730202228  0.2699524621246165  0.7735683299379519
  0.7199561662684593  0.2927820395152077  0.7351841858641148
  0.6805222430840856  0.2927856634212626  0.7351782602188154
  0.6805342173733165  0.3442458725397241  0.6624994923772769
  0.6557420699748389  0.3071963655684097  0.6604298310974501
  0.6805295473094535  0.3214126712430783  0.7008895620964134
  0.7199618896390374  0.3214087245527299  0.7008967697224990
  0.7002470983772969  0.3555740452475946  0.7009193680951779
  0.6557398515605811  0.3584591081158806  0.7029651022164133
  0.7250357620709920  0.3469970268661552  0.7735683299379519
  0.6557419036355684  0.3356643389031247  0.7351539341991460
  0.7002482847363769  0.3327807211914868  0.7331085989389885
  0.5864590691299981  0.3701181021290537  0.5171478823394997
  0.6360399769010091  0.3701217260351086  0.5171419566942000
  0.6557528579049896  0.3814498987429792  0.5555618324121010
  0.6112456110882737  0.3843349616112654  0.5576075665333365
  0.6112476631632607  0.3615401923985098  0.5897963985160694
  0.6557540442640696  0.3586565746868712  0.5877510632559118
  0.5915266906432995  0.3728728803615394  0.6282107942548749
  0.6309652838915362  0.3957024577521308  0.5898266501810381
  0.5915313607071629  0.3957060816581855  0.5898207245357385
  0.6112442417111433  0.4070342543660561  0.6282406002536393
  0.6309590329728836  0.3728689336711914  0.6282180018809608
  0.6309772581807671  0.4471626668705923  0.5171478823394997
  0.6112596374524917  0.4130004015169710  0.5171176306745308
  0.5915433349963936  0.4471662907766470  0.5171419566942000
  0.6112693766486849  0.4871613485468714  0.5150722954143732
  0.6309710072621145  0.4243291427896528  0.5555392340394222
  0.5915386649325307  0.4243330894800010  0.5555320264133365
  0.6112562160003738  0.4584944634845178  0.5555618324121010
  0.5864623910682683  0.4499134984127300  0.6282180018809608
  0.5864686419869211  0.4727470224936689  0.5898266501810381
  0.6360448796940690  0.4499174451030780  0.6282107942548749
  0.6360495497579317  0.4727506463997241  0.5898207245357385
  0.6557624307619128  0.4840788191075946  0.6282406002536393
  0.6112574023594542  0.4357011394284099  0.5877510632559118
  0.7002744684078762  0.4130004015169710  0.5171176306745308
  0.6805534958879152  0.4243330894800010  0.5555320264133365
  0.7250548078563940  0.3701217260351086  0.5171419566942000
  0.6754739000853827  0.3701181021290537  0.5171478823394997
  0.6557660185533004  0.4101167838053328  0.5150722954143732
  0.7199858382174993  0.4243291427896528  0.5555392340394222
  0.7002722333148390  0.4357011394284099  0.5877510632559118
  0.7002590726665279  0.4070342543660561  0.6282406002536393
  0.7002624941186452  0.3615401923985098  0.5897963985160694
  0.7199738639282683  0.3728689336711914  0.6282180018809608
  0.6805461916625477  0.3957060816581855  0.5898207245357385
  0.6805415215986843  0.3728728803615394  0.6282107942548749
  0.6557638001390425  0.4613795263528035  0.5576075665333365
  0.7002842076040697  0.4871613485468714  0.5150722954143732
  0.7199920891361519  0.4471626668705923  0.5171478823394997
  0.6557778265032609  0.4900449662585096  0.5171176306745308
  0.6805581659517782  0.4471662907766470  0.5171419566942000
  0.7002710469557586  0.4584944634845178  0.5555618324121010
  0.6557658522140301  0.4385847571400481  0.5897963985160694
  0.7250597106494537  0.4499174451030780  0.6282107942548749
  0.7250643807133165  0.4727506463997241  0.5898207245357385
  0.6754834729423056  0.4727470224936689  0.5898266501810381
  0.6754772220236530  0.4499134984127300  0.6282180018809608
  0.6112454280702238  0.3842409303099480  0.6604298310974501
  0.5915362635002229  0.4755018007261548  0.7008895620964134
  0.5915409335640859  0.4983350020228010  0.6624994923772769
  0.5864566676976903  0.4212868133752076  0.6625054180225765
  0.6112551839451968  0.4869638819758804  0.6302863343748750
  0.6309748567484595  0.4983313781167460  0.6625054180225765
  0.6112572360201840  0.4641691127631250  0.6624751663576077
  0.6557518258498120  0.4099193172343421  0.6302863343748750
  0.6360375754687014  0.4212904372812624  0.6624994923772769
  0.6360329054048383  0.3984572359846165  0.7008895620964134
  0.6557538779247991  0.3871245480215866  0.6624751663576077
  0.6754714986530751  0.4212868133752076  0.6625054180225765
  0.7250477363602229  0.3984572359846165  0.7008895620964134
  0.7002602590256081  0.3842409303099480  0.6604298310974501
  0.7250524064240862  0.4212904372812624  0.6624994923772769
  0.6557636171209930  0.4612854950514866  0.6604298310974501
  0.7002720669755688  0.4641691127631250  0.6624751663576077
  0.6805510944556078  0.4755018007261548  0.7008895620964134
  0.7199896877038443  0.4983313781167460  0.6625054180225765
  0.6805557645194706  0.4983350020228010  0.6624994923772769
  0.7002700149005814  0.4869638819758804  0.6302863343748750
  0.5864504167790375  0.3984532892942685  0.7008967697224990
  0.6112452617309531  0.4127089036446635  0.7351539341991460
  0.5864446934084596  0.3698266042567462  0.7351841858641148
  0.6360256011794705  0.3698302281628009  0.7351782602188154
  0.6557504564726818  0.4326186099891334  0.7009193680951779
  0.5915242892109921  0.4240415916076933  0.7735683299379519
  0.6309686058298070  0.4754978540358069  0.7008967697224990
  0.6112432096559661  0.4355036728574191  0.7029651022164133
  0.6309628824592286  0.4468711689982846  0.7351841858641148
  0.6112550009271467  0.4868698506745637  0.7331085989389885
  0.5915289592748554  0.4468747929043393  0.7351782602188154
  0.7250404321348548  0.3698302281628009  0.7351782602188154
  0.6754595243638439  0.3698266042567462  0.7351841858641148
  0.7002600926863374  0.4127089036446635  0.7351539341991460
  0.6754652477344223  0.3984532892942685  0.7008967697224990
  0.6557516428317620  0.4098252859330249  0.7331085989389885
  0.6805391201663769  0.4240415916076933  0.7735683299379519
  0.7002580406113508  0.4355036728574191  0.7029651022164133
  0.7199777134146135  0.4468711689982846  0.7351841858641148
  0.6805437902302397  0.4468747929043393  0.7351782602188154
  0.7199834367851913  0.4754978540358069  0.7008967697224990
  0.7002698318825314  0.4868698506745637  0.7331085989389885
  0.6557634507817225  0.4897534683862019  0.7351539341991460
  0.3638905915282683  0.2699485154342686  0.7735755375640375
  0.3441651953544273  0.2299543342558805  0.7756438700579519
  0.3441758002665281  0.3041138361291331  0.7735981359367161
  0.2996685534498120  0.3069988989974189  0.7756438700579519
  0.3441769866256080  0.2813205120730252  0.8057873667805271
  0.2996706055247992  0.2842041297846635  0.8078327020406846
  0.2799543030687009  0.3183700190443395  0.8078570280603538
  0.3638848681576904  0.2413218303967461  0.8078629537056534
  0.3244509449733165  0.2413254543028009  0.8078570280603538
  0.3441768202863376  0.3097884854077403  0.8805114698822230
  0.3193882262530748  0.3183663951382845  0.8078629537056534
  0.4083910829192289  0.2669061860198230  0.8805417215471918
  0.3886724421711432  0.2270692713875947  0.7735981359367161
  0.3886714101159660  0.2555386898789574  0.8483226378994904
  0.4083968062898071  0.2955328710573453  0.8462543054055759
  0.3886832013871465  0.3069048676961020  0.8784661346220656
  0.3886833844051967  0.3069988989974189  0.7756438700579519
  0.3689691340240857  0.3183700190443395  0.8078570280603538
  0.2354576611640858  0.3954145837858781  0.8078570280603538
  0.2551739636201841  0.3612486945262018  0.8078327020406846
  0.2748915843484593  0.3954109598798228  0.8078629537056534
  0.2551719115451964  0.3840434637389575  0.7756438700579519
  0.2996791583619125  0.3811584008706715  0.7735981359367161
  0.2996801783817225  0.3868330501492787  0.8805114698822230
  0.2996803447209929  0.3583650768145637  0.8057873667805271
  0.3193939496236528  0.3469930801758070  0.7735755375640375
  0.3244724921194702  0.3954145837858781  0.8078570280603538
  0.3441747682113505  0.3325832546204958  0.8483226378994904
  0.3244605178302394  0.3439543746674164  0.8805357959018921
  0.3244678220556073  0.3725813824892319  0.8462470977794903
  0.4084087805790375  0.3469930801758070  0.7735755375640375
  0.3639064153038441  0.3954109598798228  0.8078629537056534
  0.3441867425005814  0.3840434637389575  0.7756438700579519
  0.3441887945755684  0.3612486945262018  0.8078327020406846
  0.3886951756763772  0.3583650768145637  0.8057873667805271
  0.3886939893172973  0.3811584008706715  0.7735981359367161
  0.3639001643851917  0.3725774357988837  0.8462543054055759
  0.3638944410146132  0.3439507507613616  0.8805417215471918
  0.3886950093371070  0.3868330501492787  0.8805114698822230
  0.3441865594825310  0.3839494324376406  0.8784661346220656
  0.4084063791467298  0.3981617914219608  0.9189330732471145
  0.2303949424438442  0.4724555246213614  0.8078629537056534
  0.1909610192594703  0.4724591485274164  0.8078570280603538
  0.2106773217155686  0.4382932592677404  0.8078327020406846
  0.2106752696405813  0.4610880284804958  0.7756438700579519
  0.2551825164572974  0.4582029656122101  0.7735981359367161
  0.2551837028163773  0.4354096415561021  0.8057873667805271
  0.2748973077190376  0.4240376449173454  0.7735755375640375
  0.2799758502148553  0.4724591485274164  0.8078570280603538
  0.2996901005959663  0.4610880284804958  0.7756438700579519
  0.2996921526709533  0.4382932592677404  0.8078327020406846
  0.3194097733992288  0.4724555246213614  0.8078629537056534
  0.2996887312188357  0.4837873212352869  0.8462769037782548
  0.2799711801509921  0.4496259472307703  0.8462470977794903
  0.3194035224805762  0.4496220005404223  0.8462543054055759
  0.2996781263067349  0.4096278193620346  0.8483226378994904
  0.2551814844021198  0.4866723841035727  0.8483226378994904
  0.2551835364771069  0.4638776148908173  0.8805114698822230
  0.2996899175779156  0.4609939971791789  0.8784661346220656
  0.2799638759256243  0.4209989394089549  0.8805357959018921
  0.3193977991099978  0.4209953155028997  0.8805417215471918
  0.3244773949125306  0.4752103028538471  0.9189258656210287
  0.2749011572053827  0.4980398802444383  0.8805417215471918
  0.3441853731234508  0.4067427564937484  0.8462769037782548
  0.3886929572621197  0.4096278193620346  0.8483226378994904
  0.4084183534359607  0.4496220005404223  0.8462543054055759
  0.3441985337717621  0.4354096415561021  0.8057873667805271
  0.3887069836263377  0.4382932592677404  0.8078327020406846
  0.3639121386744222  0.4240376449173454  0.7735755375640375
  0.3689860111063767  0.4496259472307703  0.8462470977794903
  0.3441973474126817  0.4582029656122101  0.7735981359367161
  0.3887049315513508  0.4610880284804958  0.7756438700579519
  0.3887035621742205  0.4837873212352869  0.8462769037782548
  0.3689906811702400  0.4724591485274164  0.8078570280603538
  0.4084246043546133  0.4724555246213614  0.8078629537056534
  0.3441963153575043  0.4866723841035727  0.8483226378994904
  0.3441843410682737  0.4352121749851114  0.9210014057410287
  0.3886915878849895  0.4323271121168255  0.9189556716197931
  0.3689787068810086  0.4209989394089549  0.8805357959018921
  0.4084126300653824  0.4209953155028997  0.8805417215471918
  0.3689740368171460  0.3981657381123088  0.9189258656210287
  0.3887047485333002  0.4609939971791789  0.8784661346220656
  0.3441983674324917  0.4638776148908173  0.8805114698822230
  0.3639097372421149  0.4752063561634994  0.9189330732471145
  0.3244820649763938  0.4980435041504933  0.8805357959018921
  0.3639159881607673  0.4980398802444383  0.8805417215471918
  0.5024806068840856  0.2413254543028009  0.8078570280603538
  0.4134611058648379  0.2184922530061548  0.8462470977794903
  0.5024759368202227  0.2184922530061548  0.8462470977794903
  0.5221948572651962  0.2299543342558805  0.7756438700579519
  0.4528996991130748  0.2413218303967461  0.8078629537056534
  0.4134657759287013  0.2413254543028009  0.8078570280603538
  0.4331800263098121  0.2299543342558805  0.7756438700579519
  0.5221934878880662  0.2526536270106716  0.8462769037782548
  0.4331786569326819  0.2526536270106716  0.8462769037782548
  0.4529054224836528  0.2699485154342686  0.7735755375640375
  0.4331918175809928  0.2813205120730252  0.8057873667805271
  0.4777002674355686  0.2842041297846635  0.8078327020406846
  0.4974116372451914  0.2955328710573453  0.8462543054055759
  0.4579792949156076  0.2955368177476933  0.8462470977794903
  0.4974178881638440  0.3183663951382845  0.8078629537056534
  0.4579839649794702  0.3183700190443395  0.8078570280603538
  0.4776982153605813  0.3069988989974189  0.7756438700579519
  0.4331906312219126  0.3041138361291331  0.7735981359367161
  0.4776968459834511  0.3296981917522100  0.8462769037782548
  0.4974236115344221  0.3469930801758070  0.7735755375640375
  0.4974059138746135  0.2669061860198230  0.8805417215471918
  0.4529092719699979  0.3439507507613616  0.8805417215471918
  0.4331895991667354  0.3325832546204958  0.8483226378994904
  0.4134753487856242  0.3439543746674164  0.8805357959018921
  0.4331916512417223  0.3097884854077403  0.8805114698822230
  0.4529030210513456  0.3211172266804222  0.9189330732471145
  0.4776980323425311  0.3069048676961020  0.8784661346220656
  0.5024855096771459  0.3211211733707702  0.9189258656210287
  0.5024901797410087  0.3439543746674164  0.8805357959018921
  0.5222044301221196  0.3325832546204958  0.8483226378994904
  0.4134873230748549  0.3954145837858781  0.8078570280603538
  0.4332002040788356  0.4067427564937484  0.8462769037782548
  0.4134826530109918  0.3725813824892319  0.8462470977794903
  0.4332015734559657  0.3840434637389575  0.7756438700579519
  0.4332036255309533  0.3612486945262018  0.8078327020406846
  0.4529149953405763  0.3725774357988837  0.8462543054055759
  0.5025021540302395  0.3954145837858781  0.8078570280603538
  0.4777088202726816  0.3811584008706715  0.7735981359367161
  0.4777100066317620  0.3583650768145637  0.8057873667805271
  0.5024974839663768  0.3725813824892319  0.8462470977794903
  0.4529212462592289  0.3954109598798228  0.8078629537056534
  0.4777077882175044  0.4096278193620346  0.8483226378994904
  0.4332133647271464  0.4354096415561021  0.8057873667805271
  0.4332111463128889  0.4866723841035727  0.8483226378994904
  0.4332121783680665  0.4582029656122101  0.7735981359367161
  0.4529269696298068  0.4240376449173454  0.7735755375640375
  0.4580008420617614  0.4496259472307703  0.8462470977794903
  0.4580055121256243  0.4724591485274164  0.8078570280603538
  0.4777183931296050  0.4837873212352869  0.8462769037782548
  0.4777197625067351  0.4610880284804958  0.7756438700579519
  0.4777218145817225  0.4382932592677404  0.8078327020406846
  0.4974394353099981  0.4724555246213614  0.8078629537056534
  0.4974331843913455  0.4496220005404223  0.8462543054055759
  0.4332013904379157  0.3839494324376406  0.8784661346220656
  0.4776958139282738  0.3581676102435731  0.9210014057410287
  0.4579888677725303  0.3981657381123088  0.9189258656210287
  0.4579935378363935  0.4209989394089549  0.8805357959018921
  0.4777064188403738  0.4323271121168255  0.9189556716197931
  0.4974274610207671  0.4209953155028997  0.8805417215471918
  0.4974212101021148  0.3981617914219608  0.9189330732471145
  0.4777098402924915  0.3868330501492787  0.8805114698822230
  0.5222030607449895  0.3552825473752869  0.9189556716197931
  0.4331991720236580  0.4352121749851114  0.9210014057410287
  0.4134968959317781  0.4980435041504933  0.8805357959018921
  0.4134922258679152  0.4752103028538471  0.9189258656210287
  0.4529245681974990  0.4752063561634994  0.9189330732471145
  0.4332131983878760  0.4638776148908173  0.8805114698822230
  0.4529308191161520  0.4980398802444383  0.8805417215471918
  0.4777195794886850  0.4609939971791789  0.8784661346220656
  0.5025117268871628  0.4980435041504933  0.8805357959018921
  0.5025070568233000  0.4752103028538471  0.9189258656210287
  0.5419082791498068  0.2184883063158070  0.8462543054055759
  0.5419202534390376  0.2699485154342686  0.7735755375640375
  0.5419145300684595  0.2413218303967461  0.8078629537056534
  0.5667010720267354  0.2555386898789574  0.8483226378994904
  0.5667021040819125  0.2270692713875947  0.7735981359367161
  0.5914907677756073  0.2184922530061548  0.8462470977794903
  0.5914954378394706  0.2413254543028009  0.8078570280603538
  0.6112083188434511  0.2526536270106716  0.8462769037782548
  0.6112096882205810  0.2299543342558805  0.7756438700579519
  0.6112214794917619  0.2813205120730252  0.8057873667805271
  0.6309350843944224  0.2699485154342686  0.7735755375640375
  0.6309293610238439  0.2413218303967461  0.8078629537056534
  0.5469987959348548  0.3183700190443395  0.8078570280603538
  0.5222066485363775  0.2813205120730252  0.8057873667805271
  0.5222054621772971  0.3041138361291331  0.7735981359367161
  0.5469941258709919  0.2955368177476933  0.8462470977794903
  0.5667116769388355  0.3296981917522100  0.8462769037782548
  0.5667130463159661  0.3069988989974189  0.7756438700579519
  0.5667150983909529  0.2842041297846635  0.8078327020406846
  0.5667248375871468  0.3583650768145637  0.8057873667805271
  0.5864264682005762  0.2955328710573453  0.8462543054055759
  0.5864327191192288  0.3183663951382845  0.8078629537056534
  0.5864384424898070  0.3469930801758070  0.7735755375640375
  0.6112202931326819  0.3041138361291331  0.7735981359367161
  0.6112192610775046  0.3325832546204958  0.8483226378994904
  0.5864207448299978  0.2669061860198230  0.8805417215471918
  0.5469868216456243  0.2669098099258778  0.8805357959018921
  0.5667128632979158  0.3069048676961020  0.8784661346220656
  0.5667106448836583  0.3581676102435731  0.9210014057410287
  0.5222064821971069  0.3097884854077403  0.8805114698822230
  0.5419178520067301  0.3211172266804222  0.9189330732471145
  0.5419241029253827  0.3439507507613616  0.8805417215471918
  0.5915050106963935  0.3439543746674164  0.8805357959018921
  0.6112178917003742  0.3552825473752869  0.9189556716197931
  0.6309389338807668  0.3439507507613616  0.8805417215471918
  0.6112213131524916  0.3097884854077403  0.8805114698822230
  0.6557299293463372  0.2842041297846635  0.8078327020406846
  0.6557159029821195  0.2555386898789574  0.8483226378994904
  0.7199441919792284  0.2413218303967461  0.8078629537056534
  0.7002245191759653  0.2299543342558805  0.7756438700579519
  0.6557169350372970  0.2270692713875947  0.7735981359367161
  0.6805102687948549  0.2413254543028009  0.8078570280603538
  0.7002363104471464  0.2813205120730252  0.8057873667805271
  0.7199499153498068  0.2699485154342686  0.7735755375640375
  0.6557278772713504  0.3069988989974189  0.7756438700579519
  0.6360089568263765  0.2955368177476933  0.8462470977794903
  0.6557265078942205  0.3296981917522100  0.8462769037782548
  0.6360136268902398  0.3183700190443395  0.8078570280603538
  0.6557396685425311  0.3583650768145637  0.8057873667805271
  0.6754412991559605  0.2955328710573453  0.8462543054055759
  0.6754475500746131  0.3183663951382845  0.8078629537056534
  0.6754532734451915  0.3469930801758070  0.7735755375640375
  0.7002351240880662  0.3041138361291331  0.7735981359367161
  0.7250284578456239  0.3183700190443395  0.8078570280603538
  0.7002340920328887  0.3325832546204958  0.8483226378994904
  0.7250237877817608  0.2955368177476933  0.8462470977794903
  0.6557276942533004  0.3069048676961020  0.8784661346220656
  0.6805198416517781  0.3439543746674164  0.8805357959018921
  0.6112332874417228  0.3612486945262018  0.8078327020406846
  0.6309446572513454  0.3725774357988837  0.8462543054055759
  0.5667236512280663  0.3811584008706715  0.7735981359367161
  0.5222184564863380  0.3612486945262018  0.8078327020406846
  0.5915123149217612  0.3725813824892319  0.8462470977794903
  0.5419298262959606  0.3725774357988837  0.8462543054055759
  0.6112312353667355  0.3840434637389575  0.7756438700579519
  0.6112298659896047  0.4067427564937484  0.8462769037782548
  0.5222164044113505  0.3840434637389575  0.7756438700579519
  0.5222150350342203  0.4067427564937484  0.8462769037782548
  0.5419360772146132  0.3954109598798228  0.8078629537056534
  0.5915169849856240  0.3954145837858781  0.8078570280603538
  0.5667332240849896  0.4837873212352869  0.8462769037782548
  0.5419418005851913  0.4240376449173454  0.7735755375640375
  0.5222281956825312  0.4354096415561021  0.8057873667805271
  0.5470156730171460  0.4496259472307703  0.8462470977794903
  0.5470203430810091  0.4724591485274164  0.8078570280603538
  0.5222270093234508  0.4582029656122101  0.7735981359367161
  0.5667345934621200  0.4610880284804958  0.7756438700579519
  0.5667366455371072  0.4382932592677404  0.8078327020406846
  0.5864542662653827  0.4724555246213614  0.8078629537056534
  0.5864480153467299  0.4496220005404223  0.8462543054055759
  0.6112418402788355  0.4582029656122101  0.7735981359367161
  0.6112430266379160  0.4354096415561021  0.8057873667805271
  0.5222162213933003  0.3839494324376406  0.8784661346220656
  0.5222140029790427  0.4352121749851114  0.9210014057410287
  0.5470083687917779  0.4209989394089549  0.8805357959018921
  0.5470036987279151  0.3981657381123088  0.9189258656210287
  0.5667212497957589  0.4323271121168255  0.9189556716197931
  0.5667226191728888  0.4096278193620346  0.8483226378994904
  0.5864360410574991  0.3981617914219608  0.9189330732471145
  0.5864422919761517  0.4209953155028997  0.8805417215471918
  0.5667246712478761  0.3868330501492787  0.8805114698822230
  0.6112288339344275  0.4352121749851114  0.9210014057410287
  0.6112310523486850  0.3839494324376406  0.8784661346220656
  0.5222280293432607  0.4638776148908173  0.8805114698822230
  0.5419393991528838  0.4752063561634994  0.9189330732471145
  0.5419456500715364  0.4980398802444383  0.8805417215471918
  0.5222259772682737  0.4866723841035727  0.8483226378994904
  0.5667344104440695  0.4609939971791789  0.8784661346220656
  0.5915265578425476  0.4980435041504933  0.8805357959018921
  0.5915218877786845  0.4752103028538471  0.9189258656210287
  0.6112428602986453  0.4638776148908173  0.8805114698822230
  0.6112408082236587  0.4866723841035727  0.8483226378994904
  0.6309566315405761  0.4240376449173454  0.7735755375640375
  0.6557384821834511  0.3811584008706715  0.7735981359367161
  0.6309509081699980  0.3954109598798228  0.8078629537056534
  0.6557374501282736  0.4096278193620346  0.8483226378994904
  0.6805318159410088  0.3954145837858781  0.8078570280603538
  0.6805271458771459  0.3725813824892319  0.8462470977794903
  0.7002446969449895  0.4067427564937484  0.8462769037782548
  0.7002460663221196  0.3840434637389575  0.7756438700579519
  0.7199657391253823  0.3954109598798228  0.8078629537056534
  0.7199714624959607  0.4240376449173454  0.7735755375640375
  0.7002481183971067  0.3612486945262018  0.8078327020406846
  0.7199594882067297  0.3725774357988837  0.8462543054055759
  0.6557514764924920  0.4382932592677404  0.8078327020406846
  0.6360351740363939  0.4724591485274164  0.8078570280603538
  0.6360305039725308  0.4496259472307703  0.8462470977794903
  0.6557480550403741  0.4837873212352869  0.8462769037782548
  0.6557494244175047  0.4610880284804958  0.7756438700579519
  0.6754628463021146  0.4496220005404223  0.8462543054055759
  0.6754690972207672  0.4724555246213614  0.8078629537056534
  0.7002556391790432  0.4866723841035727  0.8483226378994904
  0.7002566712342204  0.4582029656122101  0.7735981359367161
  0.7250500049917782  0.4724591485274164  0.8078570280603538
  0.7250453349279151  0.4496259472307703  0.8462470977794903
  0.7002578575933003  0.4354096415561021  0.8057873667805271
  0.6557360807511434  0.4323271121168255  0.9189556716197931
  0.6360185296832999  0.3981657381123088  0.9189258656210287
  0.6360231997471628  0.4209989394089549  0.8805357959018921
  0.6557395022032608  0.3868330501492787  0.8805114698822230
  0.6754571229315363  0.4209953155028997  0.8805417215471918
  0.7250380307025474  0.4209989394089549  0.8805357959018921
  0.7002458833040696  0.3839494324376406  0.8784661346220656
  0.6309604810269211  0.4980398802444383  0.8805417215471918
  0.6309542301082688  0.4752063561634994  0.9189330732471145
  0.6557492413994542  0.4609939971791789  0.8784661346220656
  0.6805367187340688  0.4752103028538471  0.9189258656210287
  0.6805413887979320  0.4980435041504933  0.8805357959018921
  0.7002576912540300  0.4638776148908173  0.8805114698822230
  0.7199753119823057  0.4980398802444383  0.8805417215471918
  0.4777076051994540  0.4095337880607177  0.9511449024636039
  0.4777194131494145  0.4894619705138942  0.9531902377237615
  0.4332109632948387  0.4865783528022558  0.9511449024636039
  0.4529188448269207  0.4465796711259766  0.9532204893887303
  0.5419336757823052  0.4465796711259766  0.9532204893887303
  0.5024997525979322  0.4465832950320318  0.9532145637434306
  0.5222257942502233  0.4865783528022558  0.9511449024636039
  0.5667342441047991  0.4894619705138942  0.9531902377237615
  0.1217011644175043  0.5131312333435727  0.2668924951671827
  0.1217117693296049  0.5872907352168253  0.2648467610459472
  0.1217129556886850  0.5644974111607175  0.2970359918897578
  0.1019869140363937  0.5245023533904933  0.2991056531695845
  0.0969179443974991  0.5787097701450378  0.3375029305148068
  0.1216997950403739  0.5358305260983639  0.3375255288874855
  0.1019822439725304  0.5016691520938471  0.3374957228887212
  0.0771925482236581  0.5387155889666496  0.3395712630087211
  0.0574736277786844  0.5272535077169238  0.4101744907302596
  0.0771911788465279  0.5614148817214407  0.4102042967290241
  0.0771946002986454  0.5159208197538941  0.3717600949914539
  0.0772043394948388  0.5900817667837944  0.3697147597312962
  0.0969122210269210  0.5500830851075151  0.3717903466564228
  0.0969059701082686  0.5272495610265761  0.4101816983563452
  0.1216987629851966  0.5642999445897264  0.4122500308502596
  0.1217127893494146  0.5929653844954326  0.3717600949914539
  0.1217009813994543  0.5130372020422560  0.3697147597312962
  0.1020037911186847  0.6557582815769241  0.3374957228887212
  0.1019918168294538  0.6042980724584623  0.4101744907302596
  0.1217107372744270  0.6157601537081882  0.3395712630087211
  0.1019964868933167  0.6271312737551086  0.3717844210111231
  0.1217093678972971  0.6384594464629791  0.4102042967290241
  0.1217213421865280  0.6899196555814407  0.3375255288874855
  0.1217225285456080  0.6671263315253327  0.3697147597312962
  0.1414208372207672  0.5244987294844383  0.2991115788148843
  0.1859390262715367  0.6015432942259769  0.2991115788148843
  0.1465051030871627  0.6015469181320314  0.2991056531695845
  0.1662214055432613  0.5673810288723559  0.2990813271499155
  0.1662193534682733  0.5901757980851113  0.2668924951671827
  0.1662215718825311  0.5389130555376404  0.2243572240482194
  0.1414265605913453  0.5531254145219606  0.2648241626732683
  0.1662084112342204  0.5102461704752870  0.2648467610459472
  0.1414328115099981  0.5759589386028998  0.2264328109733457
  0.1910017449917781  0.5245023533904933  0.2991056531695845
  0.2107300217371071  0.5417966732492787  0.2264025593083770
  0.2304413915467299  0.5531254145219606  0.2648241626732683
  0.1910090492171461  0.5531293612123088  0.2648169550471827
  0.2304476424653827  0.5759589386028998  0.2264328109733457
  0.1910137192810090  0.5759625625089547  0.2264268853280461
  0.2107266002849896  0.5872907352168253  0.2648467610459472
  0.2552232421896047  0.5102461704752870  0.2648467610459472
  0.2107159953728888  0.5131312333435727  0.2668924951671827
  0.2107277866440696  0.5644974111607175  0.2970359918897578
  0.2355199340425473  0.6015469181320314  0.2991056531695845
  0.2304356681761515  0.5244987294844383  0.2991115788148843
  0.1662094312540301  0.5159208197538941  0.3717600949914539
  0.1414145863021146  0.5016652054034991  0.3375029305148068
  0.1859208010636532  0.5272495610265761  0.4101816983563452
  0.1464884587340691  0.5272535077169238  0.4101744907302596
  0.1662073791790426  0.5387155889666496  0.3395712630087211
  0.1859270519823053  0.5500830851075151  0.3717903466564228
  0.1464931287979318  0.5500867090135702  0.3717844210111231
  0.1662060098019129  0.5614148817214407  0.4102042967290241
  0.1662191704502236  0.5900817667837944  0.3697147597312962
  0.1859327753528839  0.5787097701450378  0.3375029305148068
  0.1465004330233000  0.5787137168353857  0.3374957228887212
  0.1909970749279154  0.5016691520938471  0.3374957228887212
  0.2304294172574992  0.5016652054034991  0.3375029305148068
  0.2107158123548389  0.5130372020422560  0.3697147597312962
  0.2552242622094145  0.5159208197538941  0.3717600949914539
  0.2107146259957587  0.5358305260983639  0.3375255288874855
  0.2355032896894535  0.5272535077169238  0.4101744907302596
  0.2552222101344271  0.5387155889666496  0.3395712630087211
  0.2355079597533164  0.5500867090135702  0.3717844210111231
  0.2552208407572972  0.5614148817214407  0.4102042967290241
  0.2107135939405811  0.5642999445897264  0.4122500308502596
  0.2107276203047994  0.5929653844954326  0.3717600949914539
  0.2304389901144221  0.6042941257681146  0.4101816983563452
  0.2355152639786846  0.5787137168353857  0.3374957228887212
  0.1662299583803741  0.6643352999583639  0.2648467610459472
  0.1465124073125305  0.6301739259538471  0.2648169550471827
  0.1217247636386457  0.6444255936138945  0.2990813271499155
  0.1662333798324915  0.6188412379908171  0.2264025593083770
  0.1662311447394540  0.6415419759022558  0.2970359918897578
  0.1859447496421145  0.6301699792634992  0.2648241626732683
  0.2107397609333003  0.6159576202791790  0.2243572240482194
  0.1859510005607671  0.6530035033444384  0.2264328109733457
  0.2107395945940305  0.6444255936138945  0.2990813271499155
  0.2355272382679155  0.6301739259538471  0.2648169550471827
  0.2355319083317784  0.6530071272504931  0.2264268853280461
  0.2107375425190428  0.6672203628266496  0.2668924951671827
  0.2107515688832607  0.6958858027323557  0.2264025593083770
  0.1910305963632995  0.7072184906953856  0.2648169550471827
  0.2304629386928840  0.7072145440050376  0.2648241626732683
  0.2107255682298116  0.6157601537081882  0.3395712630087211
  0.1662179840911432  0.6128750908399022  0.3375255288874855
  0.1414361334482683  0.6557543348865761  0.3375029305148068
  0.2304509644036524  0.6557543348865761  0.3375029305148068
  0.1910186220740695  0.6557582815769241  0.3374957228887212
  0.2107373595009928  0.6671263315253327  0.3697147597312962
  0.1662309784001838  0.6700099492369711  0.3717600949914539
  0.1910113178487013  0.6271312737551086  0.3717844210111231
  0.1414304100776902  0.6271276498490538  0.3717903466564228
  0.2304452410330747  0.6271276498490538  0.3717903466564228
  0.2107241988526819  0.6384594464629791  0.4102042967290241
  0.1662169520359658  0.6413445093312651  0.4122500308502596
  0.1414241591590376  0.6042941257681146  0.4101816983563452
  0.1910066477848386  0.6042980724584623  0.4101744907302596
  0.2107361731419124  0.6899196555814407  0.3375255288874855
  0.1910232921379320  0.6785914828735701  0.2991056531695845
  0.2304572153223056  0.6785878589675153  0.2991115788148843
  0.1414423843669209  0.6785878589675153  0.2991115788148843
  0.1662289263251963  0.6928047184497268  0.3395712630087211
  0.1465146759440857  0.7041758384966471  0.3717844210111231
  0.2355295068994705  0.7041758384966471  0.3717844210111231
  0.1859485991284596  0.7041722145905921  0.3717903466564228
  0.1859423482098068  0.6813386905096530  0.4101816983563452
  0.2355248368356076  0.6813426372000008  0.4101744907302596
  0.1465100058802228  0.6813426372000008  0.4101744907302596
  0.2107351410867352  0.7183890740728036  0.4122500308502596
  0.1662275569480663  0.7155040112045177  0.4102042967290241
  0.0574758964102395  0.6012554202597240  0.5171419566942000
  0.0523973539144221  0.5528339166496529  0.4828604661978838
  0.0524036048330749  0.5756674407305923  0.4444691144979612
  0.1019845126040858  0.5756710646366471  0.4444631888526615
  0.1217008150601839  0.5415051753769711  0.4444388628329924
  0.0771923652056085  0.5386215576653329  0.4423935275728348
  0.1019798425402229  0.5528378633400008  0.4828532585717980
  0.1216973936080664  0.5869992373445176  0.4828830645705625
  0.0771792045572970  0.5099546726029792  0.4828830645705625
  0.0771901467913503  0.5898843002128036  0.4849287986917979
  0.1216867886959661  0.5128397354712650  0.4849287986917979
  0.0771921988663374  0.5670895310000482  0.5171176306745308
  0.1019725383148551  0.5242108555181854  0.5171419566942000
  0.1216985799671464  0.5642059132884099  0.5150722954143732
  0.0523853796251917  0.5013737075311915  0.5555392340394222
  0.0523916305438440  0.5242072316121306  0.5171478823394997
  0.0574712263463766  0.5784222189630778  0.5555320264133365
  0.0771781725021196  0.5384240910943421  0.5576075665333365
  0.0771802245771069  0.5156293218815865  0.5897963985160694
  0.0574592520571457  0.5269620098446163  0.6282107942548749
  0.0574639221210088  0.5497952111412625  0.5898207245357385
  0.1414064614992286  0.5242072316121306  0.5171478823394997
  0.0969098195946132  0.6012517963536692  0.5171478823394997
  0.1216854193188353  0.5355390282260561  0.5555618324121010
  0.0969035686759604  0.5784182722727298  0.5555392340394222
  0.1414002105805758  0.5013737075311915  0.5555392340394222
  0.1019678682509924  0.5013776542215395  0.5555320264133365
  0.0771899637733003  0.5897902689114867  0.5877510632559118
  0.1216866056779154  0.5127457041699481  0.5877510632559118
  0.1414097834374994  0.6040026278958069  0.6282180018809608
  0.1216984136278759  0.5926738866231250  0.5897963985160694
  0.0968978453053825  0.5497915872352073  0.5898266501810381
  0.0968915943867302  0.5269580631542683  0.6282180018809608
  0.1019774411079149  0.6040065745861549  0.6282107942548749
  0.0574832006356076  0.6298824280815395  0.4828532585717980
  0.0772041731555685  0.6185497401185094  0.4444388628329924
  0.0772019380625313  0.6412504780299484  0.5150722954143732
  0.1217105542563775  0.6156661224068712  0.4423935275728348
  0.0969155429651916  0.6298784813911915  0.4828604661978838
  0.0772007517034511  0.6640438020860560  0.4828830645705625
  0.1217083358421195  0.6669288649543420  0.4849287986917979
  0.1020013896863768  0.7069269928230780  0.4828532585717980
  0.1217223622063378  0.6955943048600480  0.4444388628329924
  0.1217201271133003  0.7182950427714867  0.5150722954143732
  0.1019894153971458  0.6554667837046164  0.5555320264133365
  0.1217103879171068  0.6441340957415865  0.5171176306745308
  0.1019940854610087  0.6782999850012625  0.5171419566942000
  0.1216963615528888  0.6154686558358805  0.5576075665333365
  0.0771887774142202  0.6125835929675947  0.5555618324121010
  0.1217069664649894  0.6896281577091331  0.5555618324121010
  0.1217081528240698  0.6668348336530253  0.5877510632559118
  0.1019821111717780  0.6268397758828008  0.5898207245357385
  0.0969131415328836  0.6810471926373453  0.6282180018809608
  0.0969193924515362  0.7038807167182842  0.5898266501810381
  0.1662070298217224  0.5670895310000482  0.5171176306745308
  0.1464907273656243  0.6012554202597240  0.5171419566942000
  0.1661940355126817  0.5099546726029792  0.4828830645705625
  0.1414121848698071  0.5528339166496529  0.4828604661978838
  0.1662049777467351  0.5898843002128036  0.4849287986917979
  0.1414184357884597  0.5756674407305923  0.4444691144979612
  0.1662071961609929  0.5386215576653329  0.4423935275728348
  0.1909946734956074  0.5528378633400008  0.4828532585717980
  0.1909873692702396  0.5242108555181854  0.5171419566942000
  0.1909993435594703  0.5756710646366471  0.4444631888526615
  0.2107016196513502  0.5128397354712650  0.4849287986917979
  0.2552088664680665  0.5099546726029792  0.4828830645705625
  0.2107156460155684  0.5415051753769711  0.4444388628329924
  0.2552220271163774  0.5386215576653329  0.4423935275728348
  0.2304270158251915  0.5528339166496529  0.4828604661978838
  0.2107134109225312  0.5642059132884099  0.5150722954143732
  0.2552218607771067  0.5670895310000482  0.5171176306745308
  0.2107122245634510  0.5869992373445176  0.4828830645705625
  0.2304332667438440  0.5756674407305923  0.4444691144979612
  0.2355055583210091  0.6012554202597240  0.5171419566942000
  0.2552198087021196  0.5898843002128036  0.4849287986917979
  0.1464860573017614  0.5784222189630778  0.5555320264133365
  0.1859246505499980  0.6012517963536692  0.5171478823394997
  0.1661930034575044  0.5384240910943421  0.5576075665333365
  0.1859183996313452  0.5784182722727298  0.5555392340394222
  0.1909826992063765  0.5013776542215395  0.5555320264133365
  0.1464740830125307  0.5269620098446163  0.6282107942548749
  0.1662047947286847  0.5897902689114867  0.5877510632559118
  0.1661950555324915  0.5156293218815865  0.5897963985160694
  0.1464787530763934  0.5497952111412625  0.5898207245357385
  0.1859064253421143  0.5269580631542683  0.6282180018809608
  0.1859126762607671  0.5497915872352073  0.5898266501810381
  0.2304212924546133  0.5242072316121306  0.5171478823394997
  0.2107002502742200  0.5355390282260561  0.5555618324121010
  0.2355008882571455  0.5784222189630778  0.5555320264133365
  0.2552078344128887  0.5384240910943421  0.5576075665333365
  0.2304150415359608  0.5013737075311915  0.5555392340394222
  0.2107132445832611  0.5926738866231250  0.5897963985160694
  0.2107014366333002  0.5127457041699481  0.5877510632559118
  0.2552196256840696  0.5897902689114867  0.5877510632559118
  0.2552098864878762  0.5156293218815865  0.5897963985160694
  0.2354889139679152  0.5269620098446163  0.6282107942548749
  0.2354935840317781  0.5497952111412625  0.5898207245357385
  0.1859303739205761  0.6298784813911915  0.4828604661978838
  0.1662190041109533  0.6185497401185094  0.4444388628329924
  0.1464980315909923  0.6298824280815395  0.4828532585717980
  0.1662167690179156  0.6412504780299484  0.5150722954143732
  0.1859366248392289  0.6527120054721307  0.4444691144979612
  0.1465027016548548  0.6527156293781856  0.4444631888526615
  0.1662287433071467  0.6927106871484097  0.4423935275728348
  0.1662155826588354  0.6640438020860560  0.4828830645705625
  0.1414337320159608  0.7069230461327298  0.4828604661978838
  0.2107253852117621  0.6156661224068712  0.4423935275728348
  0.2107252188724916  0.6441340957415865  0.5171176306745308
  0.2355128625463767  0.6298824280815395  0.4828532585717980
  0.2107231667975043  0.6669288649543420  0.4849287986917979
  0.2355175326102396  0.6527156293781856  0.4444631888526615
  0.1910089164163933  0.6782999850012625  0.5171419566942000
  0.2107371931617223  0.6955943048600480  0.4444388628329924
  0.2304485629713453  0.7069230461327298  0.4828604661978838
  0.1910162206417615  0.7069269928230780  0.4828532585717980
  0.2107349580686846  0.7182950427714867  0.5150722954143732
  0.1414160343561517  0.6268361519767458  0.5898266501810381
  0.1414217577267301  0.6554628370142683  0.5555392340394222
  0.1662166026786451  0.6697184513646635  0.5897963985160694
  0.1662036083696047  0.6125835929675947  0.5555618324121010
  0.1909922720632997  0.6040065745861549  0.6282107942548749
  0.2304365886821146  0.6554628370142683  0.5555392340394222
  0.2552184393249897  0.6125835929675947  0.5555618324121010
  0.1414280086453827  0.6782963610952075  0.5171478823394997
  0.1464956301586841  0.6810511393276932  0.6282107942548749
  0.1465003002225473  0.7038843406243395  0.5898207245357385
  0.1662145506036578  0.6925132205774188  0.5576075665333365
  0.1859279724882686  0.6810471926373453  0.6282180018809608
  0.1859342234069210  0.7038807167182842  0.5898266501810381
  0.2304428396007672  0.6782963610952075  0.5171478823394997
  0.2107217974203742  0.6896281577091331  0.5555618324121010
  0.2355104611140691  0.6810511393276932  0.6282107942548749
  0.2552293815590426  0.6925132205774188  0.5576075665333365
  0.2355151311779322  0.7038843406243395  0.5898207245357385
  0.2304691896115361  0.7300480680859769  0.2264328109733457
  0.1662429526894149  0.7214701583554330  0.2990813271499155
  0.2107493337902235  0.7185865406437945  0.2970359918897578
  0.2107481474311433  0.7413798646999022  0.2648467610459472
  0.2355487854140692  0.7842630554369241  0.2648169550471827
  0.2355414811887014  0.7556360476151086  0.2991056531695845
  0.1859605734176901  0.7556324237090538  0.2991115788148843
  0.1662395312372973  0.7669642203229792  0.3375255288874855
  0.1859543224990375  0.7327988996281144  0.3375029305148068
  0.1465219801694539  0.7328028463184625  0.3374957228887212
  0.2355368111248385  0.7328028463184625  0.3374957228887212
  0.1662407175963772  0.7441708962668714  0.3697147597312962
  0.2107491674509530  0.7470545139785097  0.3717600949914539
  0.1414457063051915  0.7583832552511913  0.4101816983563452
  0.1910281949309922  0.7583872019415391  0.4101744907302596
  0.2304605372605761  0.7583832552511913  0.4101816983563452
  0.2304725115498067  0.8098434643696530  0.3375029305148068
  0.2107471153759659  0.7698492831912651  0.3395712630087211
  0.2107589066471467  0.8212154610084099  0.3697147597312962
  0.1910328649948549  0.7812204032381855  0.3717844210111231
  0.2304667881792288  0.7812167793321307  0.3717903466564228
  0.2355463839817614  0.8354317666830779  0.4101744907302596
  0.1217203101313502  0.7183890740728036  0.4122500308502596
  0.1217189407542203  0.7410883668275946  0.4828830645705625
  0.1217199607740300  0.7467630161062018  0.5897963985160694
  0.1662384991821197  0.7954336388143420  0.4122500308502596
  0.1414399829346134  0.7297565702136690  0.4444691144979612
  0.1662405512571070  0.7726388696015866  0.4444388628329924
  0.1465195787371458  0.7839715575646162  0.4828532585717980
  0.1662371298049895  0.8181329315691331  0.4828830645705625
  0.1662265248928887  0.7439734296958805  0.4849287986917979
  0.1662383161640695  0.7953396075130251  0.5150722954143732
  0.1910208907056242  0.7297601941197240  0.4444631888526615
  0.2304548138899981  0.7297565702136690  0.4444691144979612
  0.2107337717096046  0.7410883668275946  0.4828830645705625
  0.2107469323579162  0.7697552518899482  0.4423935275728348
  0.2355344096925308  0.7839715575646162  0.4828532585717980
  0.2107457459988356  0.7925485759460563  0.4102042967290241
  0.1859519210667300  0.7839676108742683  0.4828604661978838
  0.2107447139436580  0.8210179944374189  0.4849287986917979
  0.2355390797563932  0.8068047588612626  0.4444631888526615
  0.1859581719853826  0.8068011349552076  0.4444691144979612
  0.1859399467774991  0.7325074017558070  0.5555392340394222
  0.1662285769678761  0.7211786604831250  0.5171176306745308
  0.1662263418748388  0.7438793983945636  0.5877510632559118
  0.1465076044479151  0.7325113484461550  0.5555320264133365
  0.1465122745117780  0.7553445497428011  0.5171419566942000
  0.1859461976961517  0.7553409258367459  0.5171478823394997
  0.1414313305836528  0.7580917573788839  0.6282180018809608
  0.1910138192094536  0.7580957040692319  0.6282107942548749
  0.1662251555157586  0.7666727224506714  0.5555618324121010
  0.2107327396544270  0.7695577853189575  0.5576075665333365
  0.2355224354033001  0.7325113484461550  0.5555320264133365
  0.2304643867469211  0.8323854905782847  0.5171478823394997
  0.2355271054671627  0.7553445497428011  0.5171419566942000
  0.1910257934986843  0.8095559131876933  0.5555320264133365
  0.2304581358282685  0.8095519664973453  0.5555392340394222
  0.1910304635625472  0.8323891144843395  0.5171419566942000
  0.2107467660186453  0.7982232252246635  0.5171176306745308
  0.2107445309256080  0.8209239631361021  0.5877510632559118
  0.1910184892733165  0.7809289053658780  0.5898207245357385
  0.2107347917294148  0.7467630161062018  0.5897963985160694
  0.2304524124576902  0.7809252814598225  0.5898266501810381
  0.2304461615390376  0.7580917573788839  0.6282180018809608
  0.2107587403078762  0.8496834343431250  0.4444388628329924
  0.2304701101174995  0.8610121756158070  0.4828604661978838
  0.2107433445665278  0.8437172871922101  0.5555618324121010
  0.2355320082602228  0.8351402688107702  0.6282107942548749
  0.2355366783240859  0.8579734701074164  0.5898207245357385
  0.2749538572269212  0.6015432942259769  0.2991115788148843
  0.2800165759471628  0.5245023533904933  0.2991056531695845
  0.2800285502363933  0.5759625625089547  0.2264268853280461
  0.2800238801725307  0.5531293612123088  0.2648169550471827
  0.2552362364986456  0.5673810288723559  0.2990813271499155
  0.2552364028379156  0.5389130555376404  0.2243572240482194
  0.2552341844236581  0.5901757980851113  0.2668924951671827
  0.2997414312403742  0.5872907352168253  0.2648467610459472
  0.3194624734207672  0.5759589386028998  0.2264328109733457
  0.3442512337933004  0.5389130555376404  0.2243572240482194
  0.2997448526924916  0.5417966732492787  0.2264025593083770
  0.3194562225021145  0.5531254145219606  0.2648241626732683
  0.3442490153790428  0.5901757980851113  0.2668924951671827
  0.2997426175994541  0.5644974111607175  0.2970359918897578
  0.3442510674540304  0.5673810288723559  0.2990813271499155
  0.3245347649979320  0.6015469181320314  0.2991056531695845
  0.3639686881823055  0.6015432942259769  0.2991115788148843
  0.2997306433102236  0.5130372020422560  0.3697147597312962
  0.3194442482128838  0.5016652054034991  0.3375029305148068
  0.2749418829376901  0.5500830851075151  0.3717903466564228
  0.2997294569511431  0.5358305260983639  0.3375255288874855
  0.2800119058833002  0.5016691520938471  0.3374957228887212
  0.2749356320190379  0.5272495610265761  0.4101816983563452
  0.3245181206448383  0.5272535077169238  0.4101744907302596
  0.3245227907087012  0.5500867090135702  0.3717844210111231
  0.3442356717126818  0.5614148817214407  0.4102042967290241
  0.3442390931647992  0.5159208197538941  0.3717600949914539
  0.3639567138930748  0.5500830851075151  0.3717903466564228
  0.3639504629744222  0.5272495610265761  0.4101816983563452
  0.3442370410898117  0.5387155889666496  0.3395712630087211
  0.2800214787402232  0.6042980724584623  0.4101744907302596
  0.2552340014056081  0.5900817667837944  0.3697147597312962
  0.2749476063082684  0.5787097701450378  0.3375029305148068
  0.2552328150465279  0.6128750908399022  0.3375255288874855
  0.2997403991851963  0.6157601537081882  0.3395712630087211
  0.2997424512601837  0.5929653844954326  0.3717600949914539
  0.3194538210698071  0.6042941257681146  0.4101816983563452
  0.3442488323609926  0.5900817667837944  0.3697147597312962
  0.3442476460019127  0.6128750908399022  0.3375255288874855
  0.3639624372636530  0.5787097701450378  0.3375029305148068
  0.3245300949340694  0.5787137168353857  0.3374957228887212
  0.2552459756948386  0.6415419759022558  0.2970359918897578
  0.2749595805974989  0.6301699792634992  0.2648241626732683
  0.2997545918886849  0.6159576202791790  0.2243572240482194
  0.2552482107878763  0.6188412379908171  0.2264025593083770
  0.2749658315161519  0.6530035033444384  0.2264328109733457
  0.2552447893357586  0.6643352999583639  0.2648467610459472
  0.2997523734744273  0.6672203628266496  0.2668924951671827
  0.2800454273186843  0.7072184906953856  0.2648169550471827
  0.2997641647456078  0.7185865406437945  0.2970359918897578
  0.2552579499840695  0.6930021850207175  0.2243572240482194
  0.3639744115528839  0.6301699792634992  0.2648241626732683
  0.3442630417432608  0.6188412379908171  0.2264025593083770
  0.3639806624715365  0.6530035033444384  0.2264328109733457
  0.3245420692232999  0.6301739259538471  0.2648169550471827
  0.3442608066502233  0.6415419759022558  0.2970359918897578
  0.3245467392871628  0.6530071272504931  0.2264268853280461
  0.3442596202911432  0.6643352999583639  0.2648467610459472
  0.3442727809394543  0.6930021850207175  0.2243572240482194
  0.2997663998386455  0.6958858027323557  0.2264025593083770
  0.3194777696482684  0.7072145440050376  0.2648241626732683
  0.2552437572805810  0.6928047184497268  0.3395712630087211
  0.2552577836447995  0.7214701583554330  0.2990813271499155
  0.2800381230933165  0.6785914828735701  0.2991056531695845
  0.2749634300838437  0.7041722145905921  0.3717903466564228
  0.2997390298080664  0.6384594464629791  0.4102042967290241
  0.2800261488040858  0.6271312737551086  0.3717844210111231
  0.2552423879034509  0.7155040112045177  0.4102042967290241
  0.2749571791651914  0.6813386905096530  0.4101816983563452
  0.2552458093555686  0.6700099492369711  0.3717600949914539
  0.2997544255494148  0.6444255936138945  0.2990813271499155
  0.3442726146001840  0.7214701583554330  0.2990813271499155
  0.3442585882359658  0.6928047184497268  0.3395712630087211
  0.2997521904563775  0.6671263315253327  0.3697147597312962
  0.3442572188588354  0.7155040112045177  0.4102042967290241
  0.3245443378548550  0.7041758384966471  0.3717844210111231
  0.3442606403109531  0.6700099492369711  0.3717600949914539
  0.3245396677909921  0.6813426372000008  0.4101744907302596
  0.3639782610392287  0.7041722145905921  0.3717903466564228
  0.3639720101205762  0.6813386905096530  0.4101816983563452
  0.3194600719884597  0.6271276498490538  0.3717903466564228
  0.3887574485548389  0.5644974111607175  0.2970359918897578
  0.3887456572836584  0.5131312333435727  0.2668924951671827
  0.3690314069025474  0.5245023533904933  0.2991056531695845
  0.3887562621957588  0.5872907352168253  0.2648467610459472
  0.3690433811917781  0.5759625625089547  0.2264268853280461
  0.3690387111279152  0.5531293612123088  0.2648169550471827
  0.4084710534574992  0.5531254145219606  0.2648241626732683
  0.4084773043761518  0.5759589386028998  0.2264328109733457
  0.3887596836478764  0.5417966732492787  0.2264025593083770
  0.4135495959533166  0.6015469181320314  0.2991056531695845
  0.4332529041003741  0.5102461704752870  0.2648467610459472
  0.4332658984094149  0.5673810288723559  0.2990813271499155
  0.4332638463344274  0.5901757980851113  0.2668924951671827
  0.4332660647486850  0.5389130555376404  0.2243572240482194
  0.4580462378579319  0.5245023533904933  0.2991056531695845
  0.4580582121471626  0.5759625625089547  0.2264268853280461
  0.4580535420833000  0.5531293612123088  0.2648169550471827
  0.4777722795102232  0.5644974111607175  0.2970359918897578
  0.4777710931511433  0.5872907352168253  0.2648467610459472
  0.4777604882390432  0.5131312333435727  0.2668924951671827
  0.4777745146032608  0.5417966732492787  0.2264025593083770
  0.3690267368386845  0.5016691520938471  0.3374957228887212
  0.4084653300869211  0.5244987294844383  0.2991115788148843
  0.4135449258894537  0.5787137168353857  0.3374957228887212
  0.4332518720451967  0.5387155889666496  0.3395712630087211
  0.3887442879065280  0.5358305260983639  0.3375255288874855
  0.4084590791682687  0.5016652054034991  0.3375029305148068
  0.3887454742656082  0.5130372020422560  0.3697147597312962
  0.3887572822155684  0.5929653844954326  0.3717600949914539
  0.4084686520251917  0.6042941257681146  0.4101816983563452
  0.4135376216640857  0.5500867090135702  0.3717844210111231
  0.4135329516002228  0.5272535077169238  0.4101744907302596
  0.3690363096956075  0.6042980724584623  0.4101744907302596
  0.4332505026680665  0.5614148817214407  0.4102042967290241
  0.4529772682190377  0.5787097701450378  0.3375029305148068
  0.4974801610423052  0.5244987294844383  0.2991115788148843
  0.4974739101236531  0.5016652054034991  0.3375029305148068
  0.4529835191376905  0.6015432942259769  0.2991115788148843
  0.4777591188619126  0.5358305260983639  0.3375255288874855
  0.4580415677940692  0.5016691520938471  0.3374957228887212
  0.4332636633163774  0.5900817667837944  0.3697147597312962
  0.4777603052209928  0.5130372020422560  0.3697147597312962
  0.4332539241201838  0.5159208197538941  0.3717600949914539
  0.4529652939298071  0.5272495610265761  0.4101816983563452
  0.4580511406509922  0.6042980724584623  0.4101744907302596
  0.4777721131709532  0.5929653844954326  0.3717600949914539
  0.4529715448484594  0.5500830851075151  0.3717903466564228
  0.3887692565047994  0.6444255936138945  0.2990813271499155
  0.4084926006036531  0.7072145440050376  0.2648241626732683
  0.3690602582740691  0.7072184906953856  0.2648169550471827
  0.3887672044298121  0.6672203628266496  0.2668924951671827
  0.3887694228440696  0.6159576202791790  0.2243572240482194
  0.3887789957009926  0.7185865406437945  0.2970359918897578
  0.3887812307940301  0.6958858027323557  0.2264025593083770
  0.4135569001786844  0.6301739259538471  0.2648169550471827
  0.4135615702425473  0.6530071272504931  0.2264268853280461
  0.4332744512465280  0.6643352999583639  0.2648467610459472
  0.4332756376056081  0.6415419759022558  0.2970359918897578
  0.4777842537994542  0.6159576202791790  0.2243572240482194
  0.4332778726986454  0.6188412379908171  0.2264025593083770
  0.4529892425082682  0.6301699792634992  0.2648241626732683
  0.4529954934269210  0.6530035033444384  0.2264328109733457
  0.4777840874601841  0.6444255936138945  0.2990813271499155
  0.4777820353851968  0.6672203628266496  0.2668924951671827
  0.4332876118948388  0.6930021850207175  0.2243572240482194
  0.4777960617494146  0.6958858027323557  0.2264025593083770
  0.4777938266563773  0.7185865406437945  0.2970359918897578
  0.4580750892294536  0.7072184906953856  0.2648169550471827
  0.4332874455555684  0.7214701583554330  0.2990813271499155
  0.3690529540487013  0.6785914828735701  0.2991056531695845
  0.4580677850040858  0.6785914828735701  0.2991056531695845
  0.4084868772330748  0.6785878589675153  0.2991115788148843
  0.4084806263144222  0.6557543348865761  0.3375029305148068
  0.3690482839848386  0.6557582815769241  0.3374957228887212
  0.4777806660080662  0.6899196555814407  0.3375255288874855
  0.4332624769572970  0.6128750908399022  0.3375255288874855
  0.4580631149402229  0.6557582815769241  0.3374957228887212
  0.3887658350526819  0.6899196555814407  0.3375255288874855
  0.4332734191913502  0.6928047184497268  0.3395712630087211
  0.3887552301405809  0.6157601537081882  0.3395712630087211
  0.4777700610959657  0.6157601537081882  0.3395712630087211
  0.4084749029438443  0.6271276498490538  0.3717903466564228
  0.3887670214117619  0.6671263315253327  0.3697147597312962
  0.3887538607634510  0.6384594464629791  0.4102042967290241
  0.3690409797594704  0.6271312737551086  0.3717844210111231
  0.4332720498142202  0.7155040112045177  0.4102042967290241
  0.4135591688102396  0.7041758384966471  0.3717844210111231
  0.4135544987463765  0.6813426372000008  0.4101744907302596
  0.4332754712663377  0.6700099492369711  0.3717600949914539
  0.4580558107148551  0.6271312737551086  0.3717844210111231
  0.4777686917188358  0.6384594464629791  0.4102042967290241
  0.4529930919946135  0.7041722145905921  0.3717903466564228
  0.4529868410759607  0.6813386905096530  0.4101816983563452
  0.4777818523671467  0.6671263315253327  0.3697147597312962
  0.2552338350663378  0.6185497401185094  0.4444388628329924
  0.2800141745148551  0.5756710646366471  0.4444631888526615
  0.2800022002256246  0.5242108555181854  0.5171419566942000
  0.2997164506067350  0.5128397354712650  0.4849287986917979
  0.2997270555188358  0.5869992373445176  0.4828830645705625
  0.2800095044509922  0.5528378633400008  0.4828532585717980
  0.2997304769709530  0.5415051753769711  0.4444388628329924
  0.2997282418779159  0.5642059132884099  0.5150722954143732
  0.2997284248959661  0.5642999445897264  0.4122500308502596
  0.2997402161671469  0.6156661224068712  0.4423935275728348
  0.3194418467805762  0.5528339166496529  0.4828604661978838
  0.3194480976992288  0.5756674407305923  0.4444691144979612
  0.3690290054702394  0.5756710646366471  0.4444631888526615
  0.3442236974234509  0.5099546726029792  0.4828830645705625
  0.3442368580717622  0.5386215576653329  0.4423935275728348
  0.3442346396575044  0.5898843002128036  0.4849287986917979
  0.3690243354063767  0.5528378633400008  0.4828532585717980
  0.3442366917324915  0.5670895310000482  0.5171176306745308
  0.3690170311810088  0.5242108555181854  0.5171419566942000
  0.3245203892763936  0.6012554202597240  0.5171419566942000
  0.3690123611171462  0.5013776542215395  0.5555320264133365
  0.3442226653682737  0.5384240910943421  0.5576075665333365
  0.2997162675886852  0.5127457041699481  0.5877510632559118
  0.2749275072161518  0.5497915872352073  0.5898266501810381
  0.3639360872528838  0.5269580631542683  0.6282180018809608
  0.3639423381715364  0.5497915872352073  0.5898266501810381
  0.2749212562974990  0.5269580631542683  0.6282180018809608
  0.3442247174432606  0.5156293218815865  0.5897963985160694
  0.3245037449232998  0.5269620098446163  0.6282107942548749
  0.3245084149871632  0.5497952111412625  0.5898207245357385
  0.2749332305867300  0.5784182722727298  0.5555392340394222
  0.2749394815053826  0.6012517963536692  0.5171478823394997
  0.3639543124607671  0.6012517963536692  0.5171478823394997
  0.3245157192125305  0.5784222189630778  0.5555320264133365
  0.3442332702803743  0.6125835929675947  0.5555618324121010
  0.3639480615421147  0.5784182722727298  0.5555392340394222
  0.2997260234636582  0.6154686558358805  0.5576075665333365
  0.2997280755386454  0.5926738866231250  0.5897963985160694
  0.2800071030186845  0.6040065745861549  0.6282107942548749
  0.3690219339740690  0.6040065745861549  0.6282107942548749
  0.3194394453482687  0.6040026278958069  0.6282180018809608
  0.3442344566394542  0.5897902689114867  0.5877510632559118
  0.2997379977528886  0.6669288649543420  0.4849287986917979
  0.2552304136142202  0.6640438020860560  0.4828830645705625
  0.2749514557946133  0.6527120054721307  0.4444691144979612
  0.2749452048759607  0.6298784813911915  0.4828604661978838
  0.2552317829913501  0.6413445093312651  0.4122500308502596
  0.2552435742625313  0.6927106871484097  0.4423935275728348
  0.2997520241171069  0.6955943048600480  0.4444388628329924
  0.2997499720421196  0.7183890740728036  0.4122500308502596
  0.2800310515971459  0.7069269928230780  0.4828532585717980
  0.3194633939267301  0.7069230461327298  0.4828604661978838
  0.3442486660217224  0.6185497401185094  0.4444388628329924
  0.3639662867499983  0.6527120054721307  0.4444691144979612
  0.3245276935017616  0.6298824280815395  0.4828532585717980
  0.3442466139467351  0.6413445093312651  0.4122500308502596
  0.3639600358313452  0.6298784813911915  0.4828604661978838
  0.3245323635656243  0.6527156293781856  0.4444631888526615
  0.3442452445696050  0.6640438020860560  0.4828830645705625
  0.3442584052179161  0.6927106871484097  0.4423935275728348
  0.3690458825525308  0.7069269928230780  0.4828532585717980
  0.2997366283757587  0.6896281577091331  0.5555618324121010
  0.2552315999733004  0.6412504780299484  0.5150722954143732
  0.2997497890240696  0.7182950427714867  0.5150722954143732
  0.2552434079232606  0.7211786604831250  0.5171176306745308
  0.2800190773079151  0.6554667837046164  0.5555320264133365
  0.2800237473717783  0.6782999850012625  0.5171419566942000
  0.2997400498278762  0.6441340957415865  0.5171176306745308
  0.2997378147348389  0.6668348336530253  0.5877510632559118
  0.3194456962669210  0.6268361519767458  0.5898266501810381
  0.2800117730825474  0.6268397758828008  0.5898207245357385
  0.2552314336340299  0.6697184513646635  0.5897963985160694
  0.2749428034436532  0.6810471926373453  0.6282180018809608
  0.2749490543623057  0.7038807167182842  0.5898266501810381
  0.3194576705561520  0.6782963610952075  0.5171478823394997
  0.3442582388786454  0.7211786604831250  0.5171176306745308
  0.3442464309286849  0.6412504780299484  0.5150722954143732
  0.3442442125144274  0.6925132205774188  0.5576075665333365
  0.3194514196374992  0.6554628370142683  0.5555392340394222
  0.3245299621333166  0.7038843406243395  0.5898207245357385
  0.3442462645894149  0.6697184513646635  0.5897963985160694
  0.3639576343990377  0.6810471926373453  0.6282180018809608
  0.3690266040379321  0.6268397758828008  0.5898207245357385
  0.3639638853176901  0.7038807167182842  0.5898266501810381
  0.3245252920694539  0.6810511393276932  0.6282107942548749
  0.3887418864742201  0.5869992373445176  0.4828830645705625
  0.3887312815621197  0.5128397354712650  0.4849287986917979
  0.4084629286546136  0.5756674407305923  0.4444691144979612
  0.4332385283788356  0.5099546726029792  0.4828830645705625
  0.4135352202317782  0.6012554202597240  0.5171419566942000
  0.4084566777359608  0.5528339166496529  0.4828604661978838
  0.3887430728333002  0.5642059132884099  0.5150722954143732
  0.3887453079263378  0.5415051753769711  0.4444388628329924
  0.3887432558513507  0.5642999445897264  0.4122500308502596
  0.4332494706128892  0.5898843002128036  0.4849287986917979
  0.4580438364256240  0.5756710646366471  0.4444631888526615
  0.4332516890271467  0.5386215576653329  0.4423935275728348
  0.4777580868067352  0.5642999445897264  0.4122500308502596
  0.4777601388817223  0.5415051753769711  0.4444388628329924
  0.4974777596099983  0.5756674407305923  0.4444691144979612
  0.4580391663617613  0.5528378633400008  0.4828532585717980
  0.4974715086913453  0.5528339166496529  0.4828604661978838
  0.4777567174296051  0.5869992373445176  0.4828830645705625
  0.4777461125175045  0.5128397354712650  0.4849287986917979
  0.4777579037886850  0.5642059132884099  0.5150722954143732
  0.4332515226878758  0.5670895310000482  0.5171176306745308
  0.4580318621363933  0.5242108555181854  0.5171419566942000
  0.4084509543653824  0.5242072316121306  0.5171478823394997
  0.4974657853207672  0.5242072316121306  0.5171478823394997
  0.4974595344021147  0.5013737075311915  0.5555392340394222
  0.4084447034467298  0.5013737075311915  0.5555392340394222
  0.3887299121849896  0.5355390282260561  0.5555618324121010
  0.4332374963236580  0.5384240910943421  0.5576075665333365
  0.4529509182082684  0.5269580631542683  0.6282180018809608
  0.4135185758786846  0.5269620098446163  0.6282107942548749
  0.3887310985440696  0.5127457041699481  0.5877510632559118
  0.4529628924974993  0.5784182722727298  0.5555392340394222
  0.4332481012357588  0.6125835929675947  0.5555618324121010
  0.4529691434161514  0.6012517963536692  0.5171478823394997
  0.4135305501679153  0.5784222189630778  0.5555320264133365
  0.4332492875948388  0.5897902689114867  0.5877510632559118
  0.4777577374494146  0.5926738866231250  0.5897963985160694
  0.4529571691269212  0.5497915872352073  0.5898266501810381
  0.4135232459425472  0.5497952111412625  0.5898207245357385
  0.3887429064940298  0.5926738866231250  0.5897963985160694
  0.4580367649294536  0.6040065745861549  0.6282107942548749
  0.4974691072590376  0.6040026278958069  0.6282180018809608
  0.4084542763036531  0.6040026278958069  0.6282180018809608
  0.4135471945210086  0.6527156293781856  0.4444631888526615
  0.4332732361733006  0.6927106871484097  0.4423935275728348
  0.3887648029975043  0.7183890740728036  0.4122500308502596
  0.3887668550724916  0.6955943048600480  0.4444388628329924
  0.3887550471225312  0.6156661224068712  0.4423935275728348
  0.4777698780779159  0.6156661224068712  0.4423935275728348
  0.4332634969771070  0.6185497401185094  0.4444388628329924
  0.4777816860278762  0.6955943048600480  0.4444388628329924
  0.4777796339528891  0.7183890740728036  0.4122500308502596
  0.4332614449021199  0.6413445093312651  0.4122500308502596
  0.4529811177053828  0.6527120054721307  0.4444691144979612
  0.4332612618840695  0.6412504780299484  0.5150722954143732
  0.4135425244571460  0.6298824280815395  0.4828532585717980
  0.4529748667867300  0.6298784813911915  0.4828604661978838
  0.3887528287082736  0.6669288649543420  0.4849287986917979
  0.4332600755249897  0.6640438020860560  0.4828830645705625
  0.4777676596636582  0.6669288649543420  0.4849287986917979
  0.4084782248821144  0.7069230461327298  0.4828604661978838
  0.3887646199794542  0.7182950427714867  0.5150722954143732
  0.4580607135079152  0.7069269928230780  0.4828532585717980
  0.4777794509348387  0.7182950427714867  0.5150722954143732
  0.3887408544190427  0.6154686558358805  0.5576075665333365
  0.4084662505928839  0.6554628370142683  0.5555392340394222
  0.4332590434698117  0.6925132205774188  0.5576075665333365
  0.4332730698340299  0.7211786604831250  0.5171176306745308
  0.4974810815482683  0.6554628370142683  0.5555392340394222
  0.4777662902865280  0.6896281577091331  0.5555618324121010
  0.4777556853744273  0.6154686558358805  0.5576075665333365
  0.4580487392186845  0.6554667837046164  0.5555320264133365
  0.4777697117386452  0.6441340957415865  0.5171176306745308
  0.4580534092825472  0.6782999850012625  0.5171419566942000
  0.4084605272223056  0.6268361519767458  0.5898266501810381
  0.3887526456902234  0.6668348336530253  0.5877510632559118
  0.4135401230248384  0.6810511393276932  0.6282107942548749
  0.4135447930887013  0.7038843406243395  0.5898207245357385
  0.4332610955447990  0.6697184513646635  0.5897963985160694
  0.4529724653544223  0.6810471926373453  0.6282180018809608
  0.4580414349933165  0.6268397758828008  0.5898207245357385
  0.4529787162730751  0.7038807167182842  0.5898266501810381
  0.4974753581776904  0.6268361519767458  0.5898266501810381
  0.4777674766456080  0.6668348336530253  0.5877510632559118
  0.2552697579340300  0.7729303674738943  0.2264025593083770
  0.2552675228409927  0.7956311053853330  0.2970359918897578
  0.2997629783865280  0.7413798646999022  0.2648467610459472
  0.2800500973825474  0.7300516919920317  0.2264268853280461
  0.2749811277436532  0.7842591087465761  0.2648241626732683
  0.2552557315698122  0.7442649275681882  0.2668924951671827
  0.2997759726955685  0.7985147230969711  0.2990813271499155
  0.2997739206205812  0.8213094923097266  0.2668924951671827
  0.2997761390348387  0.7700467497622562  0.2243572240482194
  0.3194840205669209  0.7300480680859769  0.2264328109733457
  0.3442705625251967  0.7442649275681882  0.2668924951671827
  0.3442823537963772  0.7956311053853330  0.2970359918897578
  0.3245682864333166  0.8070962567335703  0.2264268853280461
  0.3640022096176901  0.8070926328275153  0.2264328109733457
  0.2749754043730749  0.7556324237090538  0.2991115788148843
  0.2800596702394701  0.8326806123566471  0.2991056531695845
  0.2749691534544223  0.7327988996281144  0.3375029305148068
  0.2800550001756075  0.8098474110600010  0.3374957228887212
  0.2552543621926818  0.7669642203229792  0.3375255288874855
  0.2997619463313505  0.7698492831912651  0.3395712630087211
  0.2552555485517620  0.7441708962668714  0.3697147597312962
  0.2800476959502397  0.7812204032381855  0.3717844210111231
  0.2800430258863768  0.7583872019415391  0.4101744907302596
  0.2997605769542203  0.7925485759460563  0.4102042967290241
  0.2552673565017222  0.8240990787200481  0.3717600949914539
  0.2997639984063378  0.7470545139785097  0.3717600949914539
  0.3639839844098068  0.7327988996281144  0.3375029305148068
  0.3194935934238441  0.8326769884505922  0.2991115788148843
  0.3245516420802230  0.7328028463184625  0.3374957228887212
  0.3639902353284594  0.7556324237090538  0.2991115788148843
  0.3245563121440857  0.7556360476151086  0.2991056531695845
  0.3194873425051915  0.8098434643696530  0.3375029305148068
  0.3442691931480664  0.7669642203229792  0.3375255288874855
  0.3442703795071466  0.7441708962668714  0.3697147597312962
  0.2997737376025310  0.8212154610084099  0.3697147597312962
  0.3194816191346131  0.7812167793321307  0.3717903466564228
  0.3194753682159608  0.7583832552511913  0.4101816983563452
  0.3442941617463379  0.8755592878385098  0.2990813271499155
  0.2552653044267353  0.8468938479328035  0.3395712630087211
  0.2552639350496043  0.8695931406875946  0.4102042967290241
  0.2749849772299980  0.8582613440736693  0.3717903466564228
  0.2749787263113453  0.8354278199927300  0.4101816983563452
  0.2997725512434510  0.8440087850645177  0.3375255288874855
  0.3245612149371460  0.8354317666830779  0.4101744907302596
  0.3442787660049894  0.8695931406875946  0.4102042967290241
  0.3245658850010089  0.8582649679797241  0.3717844210111231
  0.3639935572667298  0.8354278199927300  0.4101816983563452
  0.3194969153621145  0.9124723847342685  0.4101816983563452
  0.3442919266533004  0.8982600257499482  0.3697147597312962
  0.3245731892263767  0.8868919758015393  0.3374957228887212
  0.3640055315559607  0.8868880291111916  0.3375029305148068
  0.3887778093419124  0.7413798646999022  0.2648467610459472
  0.3690745011948550  0.8326806123566471  0.2991056531695845
  0.3690649283379318  0.7300516919920317  0.2264268853280461
  0.3887887515759659  0.8213094923097266  0.2668924951671827
  0.3887909699902235  0.7700467497622562  0.2243572240482194
  0.3887908036509530  0.7985147230969711  0.2990813271499155
  0.4135711430994705  0.7556360476151086  0.2991056531695845
  0.4084988515223053  0.7300480680859769  0.2264328109733457
  0.4135831173887010  0.8070962567335703  0.2264268853280461
  0.4135784473248381  0.7842630554369241  0.2648169550471827
  0.4332853934805813  0.7442649275681882  0.2668924951671827
  0.4580797592933165  0.7300516919920317  0.2264268853280461
  0.4777926402972972  0.7413798646999022  0.2648467610459472
  0.4530107896544223  0.7842591087465761  0.2648241626732683
  0.4778058009456080  0.7700467497622562  0.2243572240482194
  0.4332994198447993  0.7729303674738943  0.2264025593083770
  0.4332971847517618  0.7956311053853330  0.2970359918897578
  0.4778056346063378  0.7985147230969711  0.2990813271499155
  0.4530170405730749  0.8070926328275153  0.2264328109733457
  0.4778035825313505  0.8213094923097266  0.2668924951671827
  0.4580893321502397  0.8326806123566471  0.2991056531695845
  0.4332959983926816  0.8184244294414409  0.2648467610459472
  0.4085084243792289  0.8326769884505922  0.2991115788148843
  0.3887767772867350  0.7698492831912651  0.3395712630087211
  0.4777916082421198  0.7698492831912651  0.3395712630087211
  0.4332840241034511  0.7669642203229792  0.3375255288874855
  0.4085021734605760  0.8098434643696530  0.3375029305148068
  0.4529988153651914  0.7327988996281144  0.3375029305148068
  0.4530050662838440  0.7556324237090538  0.2991115788148843
  0.4580846620863768  0.8098474110600010  0.3374957228887212
  0.4135664730356078  0.7328028463184625  0.3374957228887212
  0.3690698311309923  0.8098474110600010  0.3374957228887212
  0.3690578568417613  0.7583872019415391  0.4101744907302596
  0.3887754079096051  0.7925485759460563  0.4102042967290241
  0.3887788293617223  0.7470545139785097  0.3717600949914539
  0.3690625269056245  0.7812204032381855  0.3717844210111231
  0.4084901991713456  0.7583832552511913  0.4101816983563452
  0.4084964500899980  0.7812167793321307  0.3717903466564228
  0.4332852104625311  0.7441708962668714  0.3697147597312962
  0.4580773578610088  0.7812204032381855  0.3717844210111231
  0.4580726877971461  0.7583872019415391  0.4101744907302596
  0.4332970184124914  0.8240990787200481  0.3717600949914539
  0.4777936603171069  0.7470545139785097  0.3717600949914539
  0.4777902388649894  0.7925485759460563  0.4102042967290241
  0.4778033995133003  0.8212154610084099  0.3697147597312962
  0.3888027779401840  0.8499749322154326  0.2264025593083770
  0.3690818054202230  0.8613076201784625  0.2648169550471827
  0.3888005428471462  0.8726756701268714  0.2970359918897578
  0.4085141477498068  0.8613036734881145  0.2648241626732683
  0.4333091590409927  0.8470913145037945  0.2243572240482194
  0.4580966363756077  0.8613076201784625  0.2648169550471827
  0.4778176088955687  0.8499749322154326  0.2264025593083770
  0.4778153738025310  0.8726756701268714  0.2970359918897578
  0.4333089927017222  0.8755592878385098  0.2990813271499155
  0.4778141874434508  0.8954689941829794  0.2648467610459472
  0.4530203625113455  0.8868880291111916  0.3375029305148068
  0.4135880201817615  0.8868919758015393  0.3374957228887212
  0.4332949663375045  0.8468938479328035  0.3395712630087211
  0.4778022131542199  0.8440087850645177  0.3375255288874855
  0.3887873821988356  0.8440087850645177  0.3375255288874855
  0.4333067576086852  0.8982600257499482  0.3697147597312962
  0.4778152074632606  0.9011436434615865  0.3717600949914539
  0.4135760458925308  0.8354317666830779  0.4101744907302596
  0.4135807159563932  0.8582649679797241  0.3717844210111231
  0.4530083882221146  0.8354278199927300  0.4101816983563452
  0.4530146391407674  0.8582613440736693  0.3717903466564228
  0.4332935969603741  0.8695931406875946  0.4102042967290241
  0.4333055712496048  0.9210533498060561  0.3375255288874855
  0.4530266134299981  0.9097215531921308  0.2991115788148843
  0.4778131553882737  0.9239384126743421  0.3395712630087211
  0.4580989050071629  0.9353095327212626  0.3717844210111231
  0.4580942349433000  0.9124763314246163  0.4101744907302596
  0.3690794039879152  0.9124763314246163  0.4101744907302596
  0.4085117463174993  0.9124723847342685  0.4101816983563452
  0.4778117860111435  0.9466377054291332  0.4102042967290241
  0.2997617633133005  0.7697552518899482  0.4423935275728348
  0.2552519607603743  0.8181329315691331  0.4828830645705625
  0.2749730029407672  0.8068011349552076  0.4444691144979612
  0.2552533301375045  0.7954336388143420  0.4122500308502596
  0.2552413558482735  0.7439734296958805  0.4849287986917979
  0.2997486026649894  0.7410883668275946  0.4828830645705625
  0.2552531471194540  0.7953396075130251  0.5150722954143732
  0.2749667520221146  0.7839676108742683  0.4828604661978838
  0.2552553822124916  0.7726388696015866  0.4444388628329924
  0.2800357216610090  0.7297601941197240  0.4444631888526615
  0.3442681610928890  0.7954336388143420  0.4122500308502596
  0.3639878338961519  0.8068011349552076  0.4444691144979612
  0.3245539107117780  0.8068047588612626  0.4444631888526615
  0.3194696448453823  0.7297565702136690  0.4444691144979612
  0.3442702131678763  0.7726388696015866  0.4444388628329924
  0.3245492406479153  0.7839715575646162  0.4828532585717980
  0.3639815829774991  0.7839676108742683  0.4828604661978838
  0.3442679780748388  0.7953396075130251  0.5150722954143732
  0.3442561868036583  0.7439734296958805  0.4849287986917979
  0.2552651214086850  0.8467998166314868  0.4423935275728348
  0.3442667917157589  0.8181329315691331  0.4828830645705625
  0.3442799523640697  0.8467998166314868  0.4423935275728348
  0.2997595448990427  0.8210179944374189  0.4849287986917979
  0.2997735712632608  0.8496834343431250  0.4444388628329924
  0.2997713361702232  0.8723841722545637  0.5150722954143732
  0.2800525987433000  0.8610161223061548  0.4828532585717980
  0.3194849410728838  0.8610121756158070  0.4828604661978838
  0.3194911919915364  0.8838456996967462  0.4444691144979612
  0.2997715191882737  0.8724782035558806  0.4122500308502596
  0.2800572688071624  0.8838493236028010  0.4444631888526615
  0.2997701498111433  0.8951774963106718  0.4828830645705625
  0.3442917603140302  0.9267279990846635  0.4444388628329924
  0.3640031301236530  0.9380567403573454  0.4828604661978838
  0.3442777339498120  0.8980625591789575  0.4849287986917979
  0.2552399864711434  0.7666727224506714  0.5555618324121010
  0.2800406244540691  0.8095559131876933  0.5555320264133365
  0.2800452945179320  0.8323891144843395  0.5171419566942000
  0.2749610286515364  0.7553409258367459  0.5171478823394997
  0.2749547777328836  0.7325074017558070  0.5555392340394222
  0.2997475706098121  0.7695577853189575  0.5576075665333365
  0.2552529807801840  0.8238075808477404  0.5897963985160694
  0.2800333202287013  0.7809289053658780  0.5898207245357385
  0.2800286501648384  0.7580957040692319  0.6282107942548749
  0.2997496226847992  0.7467630161062018  0.5897963985160694
  0.2552411728302236  0.7438793983945636  0.5877510632559118
  0.3442548174265279  0.7666727224506714  0.5555618324121010
  0.3245419364225475  0.7553445497428011  0.5171419566942000
  0.3194792177023056  0.8323854905782847  0.5171478823394997
  0.3245372663586844  0.7325113484461550  0.5555320264133365
  0.3194729667836528  0.8095519664973453  0.5555392340394222
  0.3639696086882684  0.7325074017558070  0.5555392340394222
  0.2997615969740300  0.7982232252246635  0.5171176306745308
  0.3639758596069210  0.7553409258367459  0.5171478823394997
  0.3442560037856079  0.7438793983945636  0.5877510632559118
  0.2997593618809930  0.8209239631361021  0.5877510632559118
  0.3442678117355684  0.8238075808477404  0.5897963985160694
  0.3194609924944224  0.7580917573788839  0.6282180018809608
  0.3194672434130748  0.7809252814598225  0.5898266501810381
  0.2749763248790377  0.8865965312388839  0.5555392340394222
  0.2552509287051965  0.8466023500604958  0.5576075665333365
  0.2552649550694145  0.8752677899662018  0.5171176306745308
  0.2997581755219126  0.8437172871922101  0.5555618324121010
  0.3245588135048383  0.8866004779292319  0.5555320264133365
  0.3245634835687012  0.9094336792258778  0.5171419566942000
  0.3639911558344221  0.8865965312388839  0.5555392340394222
  0.3442797860247993  0.8752677899662018  0.5171176306745308
  0.3639974067530748  0.9094300553198231  0.5171478823394997
  0.3442657596605813  0.8466023500604958  0.5576075665333365
  0.3442763645726814  0.9207618519337486  0.5555618324121010
  0.2749643505898071  0.8351363221204222  0.6282180018809608
  0.2749706015084594  0.8579698462013616  0.5898266501810381
  0.2997711698309530  0.9008521455892790  0.5897963985160694
  0.3245468392156076  0.8351402688107702  0.6282107942548749
  0.3245515092794702  0.8579734701074164  0.5898207245357385
  0.3639854324638442  0.8579698462013616  0.5898266501810381
  0.3442775509317615  0.8979685278776406  0.5877510632559118
  0.3639791815451916  0.8351363221204222  0.6282180018809608
  0.3887634336203742  0.7410883668275946  0.4828830645705625
  0.4777782645757585  0.7410883668275946  0.4828830645705625
  0.4332710177590426  0.7439734296958805  0.4849287986917979
  0.3690505526163937  0.7297601941197240  0.4444631888526615
  0.4084844758007672  0.7297565702136690  0.4444691144979612
  0.4580653835717781  0.7297601941197240  0.4444631888526615
  0.3887765942686850  0.7697552518899482  0.4423935275728348
  0.4332850441232609  0.7726388696015866  0.4444388628329924
  0.4777914252240698  0.7697552518899482  0.4423935275728348
  0.3887743758544275  0.8210179944374189  0.4849287986917979
  0.4332816226711434  0.8181329315691331  0.4828830645705625
  0.4135687416671626  0.8068047588612626  0.4444631888526615
  0.4135640716032999  0.7839715575646162  0.4828532585717980
  0.4332828090302234  0.7953396075130251  0.5150722954143732
  0.4332829920482735  0.7954336388143420  0.4122500308502596
  0.4332947833194540  0.8467998166314868  0.4423935275728348
  0.4777892068098123  0.8210179944374189  0.4849287986917979
  0.4530026648515367  0.8068011349552076  0.4444691144979612
  0.4529964139328836  0.7839676108742683  0.4828604661978838
  0.3887863501436580  0.8724782035558806  0.4122500308502596
  0.3887884022186453  0.8496834343431250  0.4444388628329924
  0.3887981414148389  0.9238443813730252  0.4423935275728348
  0.3690720997625472  0.8838493236028010  0.4444631888526615
  0.4085060229469211  0.8838456996967462  0.4444691144979612
  0.3887849807665283  0.8951774963106718  0.4828830645705625
  0.4084997720282683  0.8610121756158070  0.4828604661978838
  0.3690674296986843  0.8610161223061548  0.4828532585717980
  0.3887861671256080  0.8723841722545637  0.5150722954143732
  0.4778129723702233  0.9238443813730252  0.4423935275728348
  0.4778011810990430  0.8724782035558806  0.4122500308502596
  0.4580869307179318  0.8838493236028010  0.4444631888526615
  0.4333065912694150  0.9267279990846635  0.4444388628329924
  0.4778032331740301  0.8496834343431250  0.4444388628329924
  0.4580822606540691  0.8610161223061548  0.4828532585717980
  0.4530179610790377  0.9380567403573454  0.4828604661978838
  0.4332925649051965  0.8980625591789575  0.4849287986917979
  0.4778009980809928  0.8723841722545637  0.5150722954143732
  0.4777998117219126  0.8951774963106718  0.4828830645705625
  0.4135856187494535  0.9380606870476934  0.4828532585717980
  0.3887624015651966  0.7695577853189575  0.5576075665333365
  0.3690601254733167  0.8323891144843395  0.5171419566942000
  0.3690554554094534  0.8095559131876933  0.5555320264133365
  0.4135520973140687  0.7325113484461550  0.5555320264133365
  0.4084940486576906  0.8323854905782847  0.5171478823394997
  0.4084877977390379  0.8095519664973453  0.5555392340394222
  0.3887764279294144  0.7982232252246635  0.5171176306745308
  0.4135567673779318  0.7553445497428011  0.5171419566942000
  0.4529906905623053  0.7553409258367459  0.5171478823394997
  0.4580702863648382  0.8095559131876933  0.5555320264133365
  0.4777912588847992  0.7982232252246635  0.5171176306745308
  0.3887741928363773  0.8209239631361021  0.5877510632559118
  0.3690434811202231  0.7580957040692319  0.6282107942548749
  0.3690481511840860  0.7809289053658780  0.5898207245357385
  0.3887644536401839  0.7467630161062018  0.5897963985160694
  0.4084820743684593  0.7809252814598225  0.5898266501810381
  0.4084758234498069  0.7580917573788839  0.6282180018809608
  0.4580583120756077  0.7580957040692319  0.6282107942548749
  0.4332826426909531  0.8238075808477404  0.5897963985160694
  0.4580629821394703  0.7809289053658780  0.5898207245357385
  0.4777890237917619  0.8209239631361021  0.5877510632559118
  0.4777792845955687  0.7467630161062018  0.5897963985160694
  0.4135736444602230  0.8866004779292319  0.5555320264133365
  0.4135783145240859  0.9094336792258778  0.5171419566942000
  0.3887839487113507  0.9236469148020344  0.5576075665333365
  0.4332805906159658  0.8466023500604958  0.5576075665333365
  0.3887730064772973  0.8437172871922101  0.5555618324121010
  0.3887860007863376  0.9008521455892790  0.5897963985160694
  0.4135663402348550  0.8579734701074164  0.5898207245357385
  0.4084973705959606  0.9121808868619607  0.6282180018809608
  0.3690650282663768  0.9121848335523088  0.6282107942548749
  0.4135616701709921  0.8351402688107702  0.6282107942548749
  0.4085036215146134  0.9350144109428999  0.5898266501810381
  0.4777987796667352  0.9236469148020344  0.5576075665333365
  0.4332946169801838  0.8752677899662018  0.5171176306745308
  0.4580749564287015  0.8323891144843395  0.5171419566942000
  0.4777878374326819  0.8437172871922101  0.5555618324121010
  0.4530122377084599  0.9094300553198231  0.5171478823394997
  0.4530059867898071  0.8865965312388839  0.5555392340394222
  0.4332911955280662  0.9207618519337486  0.5555618324121010
  0.4778008317417226  0.9008521455892790  0.5897963985160694
  0.4332923818871465  0.8979685278776406  0.5877510632559118
  0.4530002634192287  0.8579698462013616  0.5898266501810381
  0.4580845292856243  0.9350180348489550  0.5898207245357385
  0.4580798592217616  0.9121848335523088  0.6282107942548749
  0.4529940125005761  0.8351363221204222  0.6282180018809608
  0.5470610688133170  0.5245023533904933  0.2991056531695845
  0.4974858844128835  0.5531254145219606  0.2648241626732683
  0.5419983500930751  0.6015432942259769  0.2991115788148843
  0.5222808957040693  0.5389130555376404  0.2243572240482194
  0.4974921353315364  0.5759589386028998  0.2264328109733457
  0.5222807293647993  0.5673810288723559  0.2990813271499155
  0.5025644269087012  0.6015469181320314  0.2991056531695845
  0.5222786772898119  0.5901757980851113  0.2668924951671827
  0.5222677350557589  0.5102461704752870  0.2648467610459472
  0.5470730431025475  0.5759625625089547  0.2264268853280461
  0.5470683730386845  0.5531293612123088  0.2648169550471827
  0.6112825660111434  0.5102461704752870  0.2648467610459472
  0.5864949919976900  0.5244987294844383  0.2991115788148843
  0.5667753191944277  0.5131312333435727  0.2668924951671827
  0.5667893455586455  0.5417966732492787  0.2264025593083770
  0.6112957266594541  0.5389130555376404  0.2243572240482194
  0.5865007153682683  0.5531254145219606  0.2648241626732683
  0.5667871104656078  0.5644974111607175  0.2970359918897578
  0.6112955603201843  0.5673810288723559  0.2990813271499155
  0.5865069662869211  0.5759589386028998  0.2264328109733457
  0.5915792578640859  0.6015469181320314  0.2991056531695845
  0.5667859241065281  0.5872907352168253  0.2648467610459472
  0.6112935082451967  0.5901757980851113  0.2668924951671827
  0.5222653336234508  0.5614148817214407  0.4102042967290241
  0.5025477825556076  0.5272535077169238  0.4101744907302596
  0.5222687550755681  0.5159208197538941  0.3717600949914539
  0.5025524526194702  0.5500867090135702  0.3717844210111231
  0.5025597568448384  0.5787137168353857  0.3374957228887212
  0.5222667030005808  0.5387155889666496  0.3395712630087211
  0.5419920991744220  0.5787097701450378  0.3375029305148068
  0.5222784942717620  0.5900817667837944  0.3697147597312962
  0.5419863758038441  0.5500830851075151  0.3717903466564228
  0.5419801248851913  0.5272495610265761  0.4101816983563452
  0.5470563987494538  0.5016691520938471  0.3374957228887212
  0.6112835860309529  0.5159208197538941  0.3717600949914539
  0.5915626135109919  0.5272535077169238  0.4101744907302596
  0.6112801645788356  0.5614148817214407  0.4102042967290241
  0.5915745878002230  0.5787137168353857  0.3374957228887212
  0.6112933252271463  0.5900817667837944  0.3697147597312962
  0.5667869441263376  0.5929653844954326  0.3717600949914539
  0.5420040734636530  0.6301699792634992  0.2648241626732683
  0.5223022765109532  0.7214701583554330  0.2990813271499155
  0.5025764011979321  0.6530071272504931  0.2264268853280461
  0.5222892822019125  0.6643352999583639  0.2648467610459472
  0.5223024428502236  0.6930021850207175  0.2243572240482194
  0.4975074315590379  0.7072145440050376  0.2648241626732683
  0.5025717311340689  0.6301739259538471  0.2648169550471827
  0.5222927036540301  0.6188412379908171  0.2264025593083770
  0.5222904685609927  0.6415419759022558  0.2970359918897578
  0.5420103243823056  0.6530035033444384  0.2264328109733457
  0.5470826159594704  0.6785914828735701  0.2991056531695845
  0.5470899201848384  0.7072184906953856  0.2648169550471827
  0.5667990847548390  0.6159576202791790  0.2243572240482194
  0.5668086576117617  0.7185865406437945  0.2970359918897578
  0.5915912321533167  0.6530071272504931  0.2264268853280461
  0.5865222625144222  0.7072145440050376  0.2648241626732683
  0.5915865620894537  0.6301739259538471  0.2648169550471827
  0.5668108927047995  0.6958858027323557  0.2264025593083770
  0.5667968663405816  0.6672203628266496  0.2668924951671827
  0.5667989184155687  0.6444255936138945  0.2990813271499155
  0.5470706416702394  0.6271312737551086  0.3717844210111231
  0.5470659716063766  0.6042980724584623  0.4101744907302596
  0.5222773079126818  0.6128750908399022  0.3375255288874855
  0.4974954572698067  0.6557543348865761  0.3375029305148068
  0.4974834829805760  0.6042941257681146  0.4101816983563452
  0.4974897338992286  0.6271276498490538  0.3717903466564228
  0.5470779458956079  0.6557582815769241  0.3374957228887212
  0.5667835226742201  0.6384594464629791  0.4102042967290241
  0.5667848920513506  0.6157601537081882  0.3395712630087211
  0.5667966833225314  0.6671263315253327  0.3697147597312962
  0.5864983139359609  0.6042941257681146  0.4101816983563452
  0.5865102882251917  0.6557543348865761  0.3375029305148068
  0.6112921388680665  0.6128750908399022  0.3375255288874855
  0.5865045648546136  0.6271276498490538  0.3717903466564228
  0.4975017081884595  0.6785878589675153  0.2991115788148843
  0.5865165391438441  0.6785878589675153  0.2991115788148843
  0.5667954969634510  0.6899196555814407  0.3375255288874855
  0.5222882501467350  0.6928047184497268  0.3395712630087211
  0.5222903022217225  0.6700099492369711  0.3717600949914539
  0.5420016720313453  0.6813386905096530  0.4101816983563452
  0.5222868807696049  0.7155040112045177  0.4102042967290241
  0.5915841606571460  0.6813426372000008  0.4101744907302596
  0.5915888307210089  0.7041758384966471  0.3717844210111231
  0.5025739997656243  0.7041758384966471  0.3717844210111231
  0.5025693297017615  0.6813426372000008  0.4101744907302596
  0.5420079229499978  0.7041722145905921  0.3717903466564228
  0.6113075346094148  0.6188412379908171  0.2264025593083770
  0.6310131810484594  0.6015432942259769  0.2991115788148843
  0.6558019414209926  0.5644974111607175  0.2970359918897578
  0.6360758997687013  0.5245023533904933  0.2991056531695845
  0.6360878740579318  0.5759625625089547  0.2264268853280461
  0.6557901501498120  0.5131312333435727  0.2668924951671827
  0.6360832039940688  0.5531293612123088  0.2648169550471827
  0.6558007550619126  0.5872907352168253  0.2648467610459472
  0.6558139157102235  0.6159576202791790  0.2243572240482194
  0.6558041765140301  0.5417966732492787  0.2264025593083770
  0.6755098229530747  0.5244987294844383  0.2991115788148843
  0.6755155463236531  0.5531254145219606  0.2648241626732683
  0.6755217972423057  0.5759589386028998  0.2264328109733457
  0.6805940888194707  0.6015469181320314  0.2991056531695845
  0.7002973969665282  0.5102461704752870  0.2648467610459472
  0.7003103912755688  0.5673810288723559  0.2990813271499155
  0.7003105576148388  0.5389130555376404  0.2243572240482194
  0.7003083392005812  0.5901757980851113  0.2668924951671827
  0.7200280120038441  0.6015432942259769  0.2991115788148843
  0.7250980349494536  0.5531293612123088  0.2648169550471827
  0.7251027050133165  0.5759625625089547  0.2264268853280461
  0.7250907307240860  0.5245023533904933  0.2991056531695845
  0.6310012067592284  0.5500830851075151  0.3717903466564228
  0.6309949558405765  0.5272495610265761  0.4101816983563452
  0.6557899671317621  0.5130372020422560  0.3697147597312962
  0.6360712297048382  0.5016691520938471  0.3374957228887212
  0.6557887807726817  0.5358305260983639  0.3375255288874855
  0.6755035720344221  0.5016652054034991  0.3375029305148068
  0.6805774444663767  0.5272535077169238  0.4101744907302596
  0.7002963649113504  0.5387155889666496  0.3395712630087211
  0.7002984169863377  0.5159208197538941  0.3717600949914539
  0.7200097867959609  0.5272495610265761  0.4101816983563452
  0.7200160377146133  0.5500830851075151  0.3717903466564228
  0.7250860606602230  0.5016691520938471  0.3374957228887212
  0.6360808025617614  0.6042980724584623  0.4101744907302596
  0.6310069301298068  0.5787097701450378  0.3375029305148068
  0.6557997230067348  0.6157601537081882  0.3395712630087211
  0.6755131448913454  0.6042941257681146  0.4101816983563452
  0.6558017750817223  0.5929653844954326  0.3717600949914539
  0.6805821145302395  0.5500867090135702  0.3717844210111231
  0.6805894187556079  0.5787137168353857  0.3374957228887212
  0.7002949955342205  0.5614148817214407  0.4102042967290241
  0.7250956335171461  0.6042980724584623  0.4101744907302596
  0.7200217610851916  0.5787097701450378  0.3375029305148068
  0.7003081561825311  0.5900817667837944  0.3697147597312962
  0.7003069698234509  0.6128750908399022  0.3375255288874855
  0.6113172738056082  0.6930021850207175  0.2243572240482194
  0.6113052995163772  0.6415419759022558  0.2970359918897578
  0.6113041131572973  0.6643352999583639  0.2648467610459472
  0.6310189044190377  0.6301699792634992  0.2648241626732683
  0.6310251553376903  0.6530035033444384  0.2264328109733457
  0.6558234885671469  0.7185865406437945  0.2970359918897578
  0.6361047511402229  0.7072184906953856  0.2648169550471827
  0.6558116972959661  0.6672203628266496  0.2668924951671827
  0.6755370934698069  0.7072145440050376  0.2648241626732683
  0.6806060631087012  0.6530071272504931  0.2264268853280461
  0.6806013930448382  0.6301739259538471  0.2648169550471827
  0.7003189441126818  0.6643352999583639  0.2648467610459472
  0.7003201304717618  0.6415419759022558  0.2970359918897578
  0.7003223655647993  0.6188412379908171  0.2264025593083770
  0.7200399862930746  0.6530035033444384  0.2264328109733457
  0.7200337353744223  0.6301699792634992  0.2648241626732683
  0.7251195820956073  0.7072184906953856  0.2648169550471827
  0.6558103279188358  0.6899196555814407  0.3375255288874855
  0.6558137493709535  0.6444255936138945  0.2990813271499155
  0.6113030811021199  0.6928047184497268  0.3395712630087211
  0.6360927768509925  0.6557582815769241  0.3374957228887212
  0.6113171074663379  0.7214701583554330  0.2990813271499155
  0.6360974469148551  0.6785914828735701  0.2991056531695845
  0.6113051331771072  0.6700099492369711  0.3717600949914539
  0.6558115142779157  0.6671263315253327  0.3697147597312962
  0.6310227539053826  0.7041722145905921  0.3717903466564228
  0.6360854726256244  0.6271312737551086  0.3717844210111231
  0.6557983536296049  0.6384594464629791  0.4102042967290241
  0.6310165029867301  0.6813386905096530  0.4101816983563452
  0.6113017117249894  0.7155040112045177  0.4102042967290241
  0.6755313700992284  0.6785878589675153  0.2991115788148843
  0.7251122778702397  0.6785914828735701  0.2991056531695845
  0.7003319384217227  0.7214701583554330  0.2990813271499155
  0.7003179120575040  0.6928047184497268  0.3395712630087211
  0.7251076078063771  0.6557582815769241  0.3374957228887212
  0.6755251191805760  0.6557543348865761  0.3375029305148068
  0.7003199641324915  0.6700099492369711  0.3717600949914539
  0.7251003035810092  0.6271312737551086  0.3717844210111231
  0.6806036616763934  0.7041758384966471  0.3717844210111231
  0.7200375848607674  0.7041722145905921  0.3717903466564228
  0.6755193958099980  0.6271276498490538  0.3717903466564228
  0.7200313339421146  0.6813386905096530  0.4101816983563452
  0.6805989916125306  0.6813426372000008  0.4101744907302596
  0.7003165426803741  0.7155040112045177  0.4102042967290241
  0.5222665199825313  0.5386215576653329  0.4423935275728348
  0.5667729177621200  0.5642999445897264  0.4122500308502596
  0.5864925905653827  0.5756674407305923  0.4444691144979612
  0.5667749698371071  0.5415051753769711  0.4444388628329924
  0.5470586673810089  0.5756710646366471  0.4444631888526615
  0.5470539973171459  0.5528378633400008  0.4828532585717980
  0.5864863396467299  0.5528339166496529  0.4828604661978838
  0.5222663536432608  0.5670895310000482  0.5171176306745308
  0.5222533593342203  0.5099546726029792  0.4828830645705625
  0.5222643015682737  0.5898843002128036  0.4849287986917979
  0.5025500511871624  0.6012554202597240  0.5171419566942000
  0.5419839743715364  0.6012517963536692  0.5171478823394997
  0.5470466930917780  0.5242108555181854  0.5171419566942000
  0.5667609434728889  0.5128397354712650  0.4849287986917979
  0.5915648821425473  0.6012554202597240  0.5171419566942000
  0.5667727347440695  0.5642059132884099  0.5150722954143732
  0.5864806162761518  0.5242072316121306  0.5171478823394997
  0.5667715483849897  0.5869992373445176  0.4828830645705625
  0.6112681902896050  0.5099546726029792  0.4828830645705625
  0.5222543793540301  0.5156293218815865  0.5897963985160694
  0.5222523272790428  0.5384240910943421  0.5576075665333365
  0.5419720000823055  0.5497915872352073  0.5898266501810381
  0.5419657491636529  0.5269580631542683  0.6282180018809608
  0.5470420230279152  0.5013776542215395  0.5555320264133365
  0.5915482377894534  0.5269620098446163  0.6282107942548749
  0.5667595740957587  0.5355390282260561  0.5555618324121010
  0.6112671582344273  0.5384240910943421  0.5576075665333365
  0.5667607604548391  0.5127457041699481  0.5877510632559118
  0.5864743653574990  0.5013737075311915  0.5555392340394222
  0.6112692103094145  0.5156293218815865  0.5897963985160694
  0.5025453811232996  0.5784222189630778  0.5555320264133365
  0.5025380768979321  0.5497952111412625  0.5898207245357385
  0.5419777234528836  0.5784182722727298  0.5555392340394222
  0.5222641185502236  0.5897902689114867  0.5877510632559118
  0.5222629321911432  0.6125835929675947  0.5555618324121010
  0.5470515958848383  0.6040065745861549  0.6282107942548749
  0.5667705163298122  0.6154686558358805  0.5576075665333365
  0.5864839382144221  0.6040026278958069  0.6282180018809608
  0.5667725684047993  0.5926738866231250  0.5897963985160694
  0.5915529078533166  0.5497952111412625  0.5898207245357385
  0.6112777631465282  0.6125835929675947  0.5555618324121010
  0.5915602120786844  0.5784222189630778  0.5555320264133365
  0.6557898007924914  0.5415051753769711  0.4444388628329924
  0.6557877487175046  0.5642999445897264  0.4122500308502596
  0.6112813509379162  0.5386215576653329  0.4423935275728348
  0.6360734983363935  0.5756710646366471  0.4444631888526615
  0.6360688282725304  0.5528378633400008  0.4828532585717980
  0.6557863793403742  0.5869992373445176  0.4828830645705625
  0.6557757744282738  0.5128397354712650  0.4849287986917979
  0.6112791325236581  0.5898843002128036  0.4849287986917979
  0.6557875656994542  0.5642059132884099  0.5150722954143732
  0.6112811845986451  0.5670895310000482  0.5171176306745308
  0.6360615240471629  0.5242108555181854  0.5171419566942000
  0.6309988053269210  0.6012517963536692  0.5171478823394997
  0.6755011706021147  0.5528339166496529  0.4828604661978838
  0.6754954472315361  0.5242072316121306  0.5171478823394997
  0.7250763550025476  0.5242108555181854  0.5171419566942000
  0.7002830212449895  0.5099546726029792  0.4828830645705625
  0.7002961818933006  0.5386215576653329  0.4423935275728348
  0.7250836592279152  0.5528378633400008  0.4828532585717980
  0.7002960155540301  0.5670895310000482  0.5171176306745308
  0.6755074215207675  0.5756674407305923  0.4444691144979612
  0.7250883292917781  0.5756710646366471  0.4444631888526615
  0.7002939634790428  0.5898843002128036  0.4849287986917979
  0.6805797130979321  0.6012554202597240  0.5171419566942000
  0.7200136362823057  0.6012517963536692  0.5171478823394997
  0.6309868310376903  0.5497915872352073  0.5898266501810381
  0.6360568539832999  0.5013776542215395  0.5555320264133365
  0.6309805801190375  0.5269580631542683  0.6282180018809608
  0.6805630687448382  0.5269620098446163  0.6282107942548749
  0.7199954110744222  0.5269580631542683  0.6282180018809608
  0.7200016619930748  0.5497915872352073  0.5898266501810381
  0.7250716849386842  0.5013776542215395  0.5555320264133365
  0.7002840412647993  0.5156293218815865  0.5897963985160694
  0.6754987691698069  0.6040026278958069  0.6282180018809608
  0.6557853472851970  0.6154686558358805  0.5576075665333365
  0.6360664268402226  0.6040065745861549  0.6282107942548749
  0.6309925544082682  0.5784182722727298  0.5555392340394222
  0.6557873993601837  0.5926738866231250  0.5897963985160694
  0.6112789495056081  0.5897902689114867  0.5877510632559118
  0.6805750430340689  0.5784222189630778  0.5555320264133365
  0.7002925941019129  0.6125835929675947  0.5555618324121010
  0.7002937804609927  0.5897902689114867  0.5877510632559118
  0.7200073853636529  0.5784182722727298  0.5555392340394222
  0.7250812577956074  0.6040065745861549  0.6282107942548749
  0.5222783279324915  0.6185497401185094  0.4444388628329924
  0.5025620254763934  0.6527156293781856  0.4444631888526615
  0.5222762758575042  0.6413445093312651  0.4122500308502596
  0.5025573554125305  0.6298824280815395  0.4828532585717980
  0.5419896977421146  0.6298784813911915  0.4828604661978838
  0.5419959486607676  0.6527120054721307  0.4444691144979612
  0.5667847090333005  0.6156661224068712  0.4423935275728348
  0.5915721863679155  0.6298824280815395  0.4828532585717980
  0.5915768564317779  0.6527156293781856  0.4444631888526615
  0.5222880671286851  0.6927106871484097  0.4423935275728348
  0.5222749064803741  0.6640438020860560  0.4828830645705625
  0.4974993067561520  0.7297565702136690  0.4444691144979612
  0.4974930558374992  0.7069230461327298  0.4828604661978838
  0.5470755444632998  0.7069269928230780  0.4828532585717980
  0.5470802145271626  0.7297601941197240  0.4444631888526615
  0.5667965169832607  0.6955943048600480  0.4444388628329924
  0.5667824906190430  0.6669288649543420  0.4849287986917979
  0.5667944649082735  0.7183890740728036  0.4122500308502596
  0.6112897374357589  0.6640438020860560  0.4828830645705625
  0.5865141377115364  0.7297565702136690  0.4444691144979612
  0.5865078867928836  0.7069230461327298  0.4828604661978838
  0.5470682402379322  0.6782999850012625  0.5171419566942000
  0.5470635701740690  0.6554667837046164  0.5555320264133365
  0.4974873324669209  0.6782963610952075  0.5171478823394997
  0.5222760928394542  0.6412504780299484  0.5150722954143732
  0.5222738744251965  0.6925132205774188  0.5576075665333365
  0.5222879007894144  0.7211786604831250  0.5171176306745308
  0.5667811212419124  0.6896281577091331  0.5555618324121010
  0.5667845426940298  0.6441340957415865  0.5171176306745308
  0.5667942818902234  0.7182950427714867  0.5150722954143732
  0.5865021634223059  0.6782963610952075  0.5171478823394997
  0.5864959125036531  0.6554628370142683  0.5555392340394222
  0.6112909237948390  0.6412504780299484  0.5150722954143732
  0.6112887053805812  0.6925132205774188  0.5576075665333365
  0.5419935472284596  0.7038807167182842  0.5898266501810381
  0.5222759265001838  0.6697184513646635  0.5897963985160694
  0.5025549539802228  0.6810511393276932  0.6282107942548749
  0.5025596240440857  0.7038843406243395  0.5898207245357385
  0.5419872963098068  0.6810471926373453  0.6282180018809608
  0.5470562659487010  0.6268397758828008  0.5898207245357385
  0.5864901891330747  0.6268361519767458  0.5898266501810381
  0.5915744549994705  0.7038843406243395  0.5898207245357385
  0.5915697849356075  0.6810511393276932  0.6282107942548749
  0.6112907574555686  0.6697184513646635  0.5897963985160694
  0.5667823076009926  0.6668348336530253  0.5877510632559118
  0.6310107796161522  0.6527120054721307  0.4444691144979612
  0.6112931588878763  0.6185497401185094  0.4444388628329924
  0.6112911068128892  0.6413445093312651  0.4122500308502596
  0.6310045286974989  0.6298784813911915  0.4828604661978838
  0.6557995399886852  0.6156661224068712  0.4423935275728348
  0.6805870173233001  0.6298824280815395  0.4828532585717980
  0.6805916873871627  0.6527156293781856  0.4444631888526615
  0.7003045683911434  0.6640438020860560  0.4828830645705625
  0.7200256105715369  0.6527120054721307  0.4444691144979612
  0.7003059377682735  0.6413445093312651  0.4122500308502596
  0.7003079898432610  0.6185497401185094  0.4444388628329924
  0.7200193596528837  0.6298784813911915  0.4828604661978838
  0.6557973215744273  0.6669288649543420  0.4849287986917979
  0.6360903754186847  0.7069269928230780  0.4828532585717980
  0.6113028980840699  0.6927106871484097  0.4423935275728348
  0.6360950454825474  0.7297601941197240  0.4444631888526615
  0.6558092958636584  0.7183890740728036  0.4122500308502596
  0.6558113479386455  0.6955943048600480  0.4444388628329924
  0.6755227177482683  0.7069230461327298  0.4828604661978838
  0.6755289686669211  0.7297565702136690  0.4444691144979612
  0.7003177290394544  0.6927106871484097  0.4423935275728348
  0.7251052063740691  0.7069269928230780  0.4828532585717980
  0.7251098764379320  0.7297601941197240  0.4444631888526615
  0.6557959521972971  0.6896281577091331  0.5555618324121010
  0.6360830711933165  0.6782999850012625  0.5171419566942000
  0.6360784011294536  0.6554667837046164  0.5555320264133365
  0.6113027317447990  0.7211786604831250  0.5171176306745308
  0.6558091128456081  0.7182950427714867  0.5150722954143732
  0.6557993736494145  0.6441340957415865  0.5171176306745308
  0.6755107434590374  0.6554628370142683  0.5555392340394222
  0.6755169943776904  0.6782963610952075  0.5171478823394997
  0.7003175627001839  0.7211786604831250  0.5171176306745308
  0.7003057547502234  0.6412504780299484  0.5150722954143732
  0.7250932320848383  0.6554667837046164  0.5555320264133365
  0.7250979021487013  0.6782999850012625  0.5171419566942000
  0.7003035363359660  0.6925132205774188  0.5576075665333365
  0.6557971385563776  0.6668348336530253  0.5877510632559118
  0.6310083781838439  0.7038807167182842  0.5898266501810381
  0.6360710969040858  0.6268397758828008  0.5898207245357385
  0.6310021272651913  0.6810471926373453  0.6282180018809608
  0.6755050200884595  0.6268361519767458  0.5898266501810381
  0.6805846158909918  0.6810511393276932  0.6282107942548749
  0.6805892859548550  0.7038843406243395  0.5898207245357385
  0.7200232091392287  0.7038807167182842  0.5898266501810381
  0.7003055884109529  0.6697184513646635  0.5897963985160694
  0.7250859278594703  0.6268397758828008  0.5898207245357385
  0.7200169582205759  0.6810471926373453  0.6282180018809608
  0.5420256206098066  0.7842591087465761  0.2648241626732683
  0.5025932782802228  0.7842630554369241  0.2648169550471827
  0.5223108293480666  0.8184244294414409  0.2648467610459472
  0.5025979483440858  0.8070962567335703  0.2264268853280461
  0.5223002244359660  0.7442649275681882  0.2668924951671827
  0.5223120157071466  0.7956311053853330  0.2970359918897578
  0.5223142508001839  0.7729303674738943  0.2264025593083770
  0.4975136824776900  0.7300480680859769  0.2264328109733457
  0.5420318715284594  0.8070926328275153  0.2264328109733457
  0.6113150553913503  0.7442649275681882  0.2668924951671827
  0.5470945902487013  0.7300516919920317  0.2264268853280461
  0.5668074712526819  0.7413798646999022  0.2648467610459472
  0.5865285134330748  0.7300480680859769  0.2264328109733457
  0.5668206319009926  0.7700467497622562  0.2243572240482194
  0.5916127792994705  0.8070962567335703  0.2264268853280461
  0.5668184134867352  0.8213094923097266  0.2668924951671827
  0.5916081092356076  0.7842630554369241  0.2648169550471827
  0.6113256603034511  0.8184244294414409  0.2648467610459472
  0.5470994930417612  0.8098474110600010  0.3374957228887212
  0.5025859740548551  0.7556360476151086  0.2991056531695845
  0.5420198972392287  0.7556324237090538  0.2991115788148843
  0.4975232553346132  0.8326769884505922  0.2991115788148843
  0.5420136463205759  0.7327988996281144  0.3375029305148068
  0.5025813039909923  0.7328028463184625  0.3374957228887212
  0.4975170044159606  0.8098434643696530  0.3375029305148068
  0.5222988550588354  0.7669642203229792  0.3375255288874855
  0.5223000414179159  0.7441708962668714  0.3697147597312962
  0.5223118493678761  0.8240990787200481  0.3717600949914539
  0.5470875187525307  0.7583872019415391  0.4101744907302596
  0.5470921888163935  0.7812204032381855  0.3717844210111231
  0.4975112810453827  0.7812167793321307  0.3717903466564228
  0.4975050301267301  0.7583832552511913  0.4101816983563452
  0.5865318353713453  0.8098434643696530  0.3375029305148068
  0.5915961349463770  0.7328028463184625  0.3374957228887212
  0.5916008050102396  0.7556360476151086  0.2991056531695845
  0.5668204655617226  0.7985147230969711  0.2990813271499155
  0.6113136860142202  0.7669642203229792  0.3375255288874855
  0.5668064391975044  0.7698492831912651  0.3395712630087211
  0.6113148723733004  0.7441708962668714  0.3697147597312962
  0.5668084912724917  0.7470545139785097  0.3717600949914539
  0.5668182304686848  0.8212154610084099  0.3697147597312962
  0.5865198610821147  0.7583832552511913  0.4101816983563452
  0.5865261120007671  0.7812167793321307  0.3717903466564228
  0.5668050698203742  0.7925485759460563  0.4102042967290241
  0.5223239899963773  0.8470913145037945  0.2243572240482194
  0.5471114673309920  0.8613076201784625  0.2648169550471827
  0.5865438096605758  0.8613036734881145  0.2648241626732683
  0.5471041631056243  0.8326806123566471  0.2991056531695845
  0.4975289787051915  0.8613036734881145  0.2648241626732683
  0.5865380862899979  0.8326769884505922  0.2991115788148843
  0.5223238236571071  0.8755592878385098  0.2990813271499155
  0.5668302047579158  0.8726756701268714  0.2970359918897578
  0.5420414443853824  0.9097215531921308  0.2991115788148843
  0.5026075212010089  0.9097251770981858  0.2991056531695845
  0.5223097972928893  0.8468938479328035  0.3395712630087211
  0.5025908768479151  0.8354317666830779  0.4101744907302596
  0.5420232191774990  0.8354278199927300  0.4101816983563452
  0.5025955469117780  0.8582649679797241  0.3717844210111231
  0.5420294700961519  0.8582613440736693  0.3717903466564228
  0.5223084279157587  0.8695931406875946  0.4102042967290241
  0.5420351934667300  0.8868880291111916  0.3375029305148068
  0.5026028511371461  0.8868919758015393  0.3374957228887212
  0.5223215885640697  0.8982600257499482  0.3697147597312962
  0.4975328281915364  0.9353059088152077  0.3717903466564228
  0.4975265772728838  0.9124723847342685  0.4101816983563452
  0.5223204022049895  0.9210533498060561  0.3375255288874855
  0.5916057078032999  0.8354317666830779  0.4101744907302596
  0.5916103778671628  0.8582649679797241  0.3717844210111231
  0.6113246282482736  0.8468938479328035  0.3395712630087211
  0.5668170441096051  0.8440087850645177  0.3375255288874855
  0.5916176820925304  0.8868919758015393  0.3374957228887212
  0.6113232588711435  0.8695931406875946  0.4102042967290241
  0.5668300384186453  0.9011436434615865  0.3717600949914539
  0.5865414082282686  0.9124723847342685  0.4101816983563452
  0.5471090658986844  0.9124763314246163  0.4101744907302596
  0.5668279863436581  0.9239384126743421  0.3395712630087211
  0.5668266169665279  0.9466377054291332  0.4102042967290241
  0.5471137359625472  0.9353095327212626  0.3717844210111231
  0.6361094212040861  0.7300516919920317  0.2264268853280461
  0.6558223022080667  0.7413798646999022  0.2648467610459472
  0.6113290817555687  0.7729303674738943  0.2264025593083770
  0.6558354628563774  0.7700467497622562  0.2243572240482194
  0.6310404515651914  0.7842591087465761  0.2648241626732683
  0.6310467024838440  0.8070926328275153  0.2264328109733457
  0.6113268466625313  0.7956311053853330  0.2970359918897578
  0.6558352965171074  0.7985147230969711  0.2990813271499155
  0.6361189940610088  0.8326806123566471  0.2991056531695845
  0.6558332444421197  0.8213094923097266  0.2668924951671827
  0.6806156359656244  0.7556360476151086  0.2991056531695845
  0.7251242521594704  0.7300516919920317  0.2264268853280461
  0.7003298863467352  0.7442649275681882  0.2668924951671827
  0.7200552825205762  0.7842591087465761  0.2648241626732683
  0.7003439127109534  0.7729303674738943  0.2264025593083770
  0.6806229401909923  0.7842630554369241  0.2648169550471827
  0.7003416776179161  0.7956311053853330  0.2970359918897578
  0.6806276102548553  0.8070962567335703  0.2264268853280461
  0.7251338250163936  0.8326806123566471  0.2991056531695845
  0.7003404912588359  0.8184244294414409  0.2648467610459472
  0.6310347281946135  0.7556324237090538  0.2991115788148843
  0.6361143239971460  0.8098474110600010  0.3374957228887212
  0.6558212701528887  0.7698492831912651  0.3395712630087211
  0.6310284772759607  0.7327988996281144  0.3375029305148068
  0.6558330614240696  0.8212154610084099  0.3697147597312962
  0.6113266803232604  0.8240990787200481  0.3717600949914539
  0.6361070197717783  0.7812204032381855  0.3717844210111231
  0.6558233222278764  0.7470545139785097  0.3717600949914539
  0.6755409429561519  0.7812167793321307  0.3717903466564228
  0.6558199007757586  0.7925485759460563  0.4102042967290241
  0.6755346920374995  0.7583832552511913  0.4101816983563452
  0.6361023497079155  0.7583872019415391  0.4101744907302596
  0.6755529172453827  0.8326769884505922  0.2991115788148843
  0.7200495591499978  0.7556324237090538  0.2991115788148843
  0.7003285169696050  0.7669642203229792  0.3375255288874855
  0.7251291549525307  0.8098474110600010  0.3374957228887212
  0.7200433082313455  0.7327988996281144  0.3375029305148068
  0.6806109659017615  0.7328028463184625  0.3374957228887212
  0.6755466663267302  0.8098434643696530  0.3375029305148068
  0.7003297033286849  0.7441708962668714  0.3697147597312962
  0.7003415112786456  0.8240990787200481  0.3717600949914539
  0.7251218507271626  0.7812204032381855  0.3717844210111231
  0.7251171806633002  0.7583872019415391  0.4101744907302596
  0.7200528810882685  0.8354278199927300  0.4101816983563452
  0.6558450357133006  0.8726756701268714  0.2970359918897578
  0.6113386546124918  0.8755592878385098  0.2990813271499155
  0.6113388209517618  0.8470913145037945  0.2243572240482194
  0.6361262982863768  0.8613076201784625  0.2648169550471827
  0.6558448693740301  0.9011436434615865  0.3717600949914539
  0.6113364195194541  0.8982600257499482  0.3697147597312962
  0.6310380501328837  0.8354278199927300  0.4101816983563452
  0.6558318750649894  0.8440087850645177  0.3375255288874855
  0.6310500244221150  0.8868880291111916  0.3375029305148068
  0.6310443010515363  0.8582613440736693  0.3717903466564228
  0.6361238968540691  0.9124763314246163  0.4101744907302596
  0.6755562391836534  0.9124723847342685  0.4101816983563452
  0.7003394592036579  0.8468938479328035  0.3395712630087211
  0.6806325130479152  0.8868919758015393  0.3374957228887212
  0.6806252088225475  0.8582649679797241  0.3717844210111231
  0.7200591320069206  0.8582613440736693  0.3717903466564228
  0.6806205387586847  0.8354317666830779  0.4101744907302596
  0.7003380898265282  0.8695931406875946  0.4102042967290241
  0.5420174958069210  0.8068011349552076  0.4444691144979612
  0.5025835726225470  0.8068047588612626  0.4444631888526615
  0.5222978230036583  0.7954336388143420  0.4122500308502596
  0.5222976399856079  0.7953396075130251  0.5150722954143732
  0.5420112448882685  0.7839676108742683  0.4828604661978838
  0.5222964536265282  0.8181329315691331  0.4828830645705625
  0.5222858487144274  0.7439734296958805  0.4849287986917979
  0.5025789025586846  0.7839715575646162  0.4828532585717980
  0.5222998750786454  0.7726388696015866  0.4444388628329924
  0.5667930955311433  0.7410883668275946  0.4828830645705625
  0.5668062561794543  0.7697552518899482  0.4423935275728348
  0.6113006796698122  0.7439734296958805  0.4849287986917979
  0.5915984035779323  0.8068047588612626  0.4444631888526615
  0.5915937335140692  0.7839715575646162  0.4828532585717980
  0.5668060898401837  0.7982232252246635  0.5171176306745308
  0.6113112845819130  0.8181329315691331  0.4828830645705625
  0.6113124709409927  0.7953396075130251  0.5150722954143732
  0.6113126539590431  0.7954336388143420  0.4122500308502596
  0.5470970916094534  0.8610161223061548  0.4828532585717980
  0.5223096142748388  0.8467998166314868  0.4423935275728348
  0.5668040377651966  0.8210179944374189  0.4849287986917979
  0.5668180641294148  0.8496834343431250  0.4444388628329924
  0.4975146029836533  0.8610121756158070  0.4828604661978838
  0.5865294339390377  0.8610121756158070  0.4828604661978838
  0.5223094479355683  0.8752677899662018  0.5171176306745308
  0.5668158290363772  0.8723841722545637  0.5150722954143732
  0.5668160120544276  0.8724782035558806  0.4122500308502596
  0.5865356848576903  0.8838456996967462  0.4444691144979612
  0.4975208539023059  0.8838456996967462  0.4444691144979612
  0.5471017616733163  0.8838493236028010  0.4444631888526615
  0.5668146426772974  0.8951774963106718  0.4828830645705625
  0.5916152806602226  0.9380606870476934  0.4828532585717980
  0.5223214222247993  0.9267279990846635  0.4444388628329924
  0.5668278033256080  0.9238443813730252  0.4423935275728348
  0.4975026286944226  0.8095519664973453  0.5555392340394222
  0.5025669282694537  0.7325113484461550  0.5555320264133365
  0.5470851173202229  0.8095559131876933  0.5555320264133365
  0.4975088796130750  0.8323854905782847  0.5171478823394997
  0.5470897873840859  0.8323891144843395  0.5171419566942000
  0.5419992705990375  0.7325074017558070  0.5555392340394222
  0.5420055215176901  0.7553409258367459  0.5171478823394997
  0.5025715983333167  0.7553445497428011  0.5171419566942000
  0.5222844793372968  0.7666727224506714  0.5555618324121010
  0.5222974736463379  0.8238075808477404  0.5897963985160694
  0.5222856656963775  0.7438793983945636  0.5877510632559118
  0.5470778130948551  0.7809289053658780  0.5898207245357385
  0.4974969053238443  0.7809252814598225  0.5898266501810381
  0.4974906544051912  0.7580917573788839  0.6282180018809608
  0.5470731430309922  0.7580957040692319  0.6282107942548749
  0.5667920634759657  0.7695577853189575  0.5576075665333365
  0.5915864292887014  0.7553445497428011  0.5171419566942000
  0.5915817592248382  0.7325113484461550  0.5555320264133365
  0.6112993102926816  0.7666727224506714  0.5555618324121010
  0.5865174596498067  0.8095519664973453  0.5555392340394222
  0.5865237105684598  0.8323854905782847  0.5171478823394997
  0.6113004966517618  0.7438793983945636  0.5877510632559118
  0.5668038547471467  0.8209239631361021  0.5877510632559118
  0.5865054853605762  0.7580917573788839  0.6282180018809608
  0.6113123046017223  0.8238075808477404  0.5897963985160694
  0.5865117362792288  0.7809252814598225  0.5898266501810381
  0.5667941155509530  0.7467630161062018  0.5897963985160694
  0.5223060264834509  0.9207618519337486  0.5555618324121010
  0.5420208177451916  0.8865965312388839  0.5555392340394222
  0.5025884754156076  0.8866004779292319  0.5555320264133365
  0.5222954215713506  0.8466023500604958  0.5576075665333365
  0.5025931454794708  0.9094336792258778  0.5171419566942000
  0.5223072128425311  0.8979685278776406  0.5877510632559118
  0.5025811711902400  0.8579734701074164  0.5898207245357385
  0.5420150943746133  0.8579698462013616  0.5898266501810381
  0.4975184524699982  0.9350144109428999  0.5898266501810381
  0.5420088434559607  0.8351363221204222  0.6282180018809608
  0.4975122015513456  0.9121808868619607  0.6282180018809608
  0.6113102525267353  0.8466023500604958  0.5576075665333365
  0.5916079764348551  0.9094336792258778  0.5171419566942000
  0.5916033063709921  0.8866004779292319  0.5555320264133365
  0.5668136106221198  0.9236469148020344  0.5576075665333365
  0.5668026683880660  0.8437172871922101  0.5555618324121010
  0.5668156626971071  0.9008521455892790  0.5897963985160694
  0.5915960021456241  0.8579734701074164  0.5898207245357385
  0.5470993602410088  0.9350180348489550  0.5898207245357385
  0.5470946901771461  0.9121848335523088  0.6282107942548749
  0.5915913320817614  0.8351402688107702  0.6282107942548749
  0.5865270325067299  0.9121808868619607  0.6282180018809608
  0.5865332834253825  0.9350144109428999  0.5898266501810381
  0.6558210871348389  0.7697552518899482  0.4423935275728348
  0.7003155106251963  0.7439734296958805  0.4849287986917979
  0.6558079264865281  0.7410883668275946  0.4828830645705625
  0.6113147060340299  0.7726388696015866  0.4444388628329924
  0.7003295369894147  0.7726388696015866  0.4444388628329924
  0.6806085644694535  0.7839715575646162  0.4828532585717980
  0.7200409067990373  0.7839676108742683  0.4828604661978838
  0.6310260758436530  0.7839676108742683  0.4828604661978838
  0.6113244452302236  0.8467998166314868  0.4423935275728348
  0.6310323267623058  0.8068011349552076  0.4444691144979612
  0.6558209207955683  0.7982232252246635  0.5171176306745308
  0.6558188687205814  0.8210179944374189  0.4849287986917979
  0.6806132345333167  0.8068047588612626  0.4444631888526615
  0.7003261155372973  0.8181329315691331  0.4828830645705625
  0.7003273018963773  0.7953396075130251  0.5150722954143732
  0.7003274849144274  0.7954336388143420  0.4122500308502596
  0.7003392761856083  0.8467998166314868  0.4423935275728348
  0.7200471577176906  0.8068011349552076  0.4444691144979612
  0.6558306599917619  0.8723841722545637  0.5150722954143732
  0.6113242788909532  0.8752677899662018  0.5171176306745308
  0.6361119225648382  0.8610161223061548  0.4828532585717980
  0.6310476229898069  0.9380567403573454  0.4828604661978838
  0.6113362531801840  0.9267279990846635  0.4444388628329924
  0.6113222268159658  0.8980625591789575  0.4849287986917979
  0.6558294736326817  0.8951774963106718  0.4828830645705625
  0.6361165926287016  0.8838493236028010  0.4444631888526615
  0.6558328950847991  0.8496834343431250  0.4444388628329924
  0.6558308430098123  0.8724782035558806  0.4122500308502596
  0.7251314235840859  0.8838493236028010  0.4444631888526615
  0.6558426342809928  0.9238443813730252  0.4423935275728348
  0.6755505158130750  0.8838456996967462  0.4444691144979612
  0.6755442648944220  0.8610121756158070  0.4828604661978838
  0.7003370577713506  0.8980625591789575  0.4849287986917979
  0.7251267535202229  0.8610161223061548  0.4828532585717980
  0.7003391098463375  0.8752677899662018  0.5171176306745308
  0.6755322906051917  0.8095519664973453  0.5555392340394222
  0.6360999482756072  0.8095559131876933  0.5555320264133365
  0.6806012602440857  0.7553445497428011  0.5171419566942000
  0.7251194492948549  0.8323891144843395  0.5171419566942000
  0.7200351834284594  0.7553409258367459  0.5171478823394997
  0.7251147792309920  0.8095559131876933  0.5555320264133365
  0.6310203524730749  0.7553409258367459  0.5171478823394997
  0.6805965901802228  0.7325113484461550  0.5555320264133365
  0.6361046183394706  0.8323891144843395  0.5171419566942000
  0.7200289325098068  0.7325074017558070  0.5555392340394222
  0.6755385415238441  0.8323854905782847  0.5171478823394997
  0.7003141412480663  0.7666727224506714  0.5555618324121010
  0.6310141015544223  0.7325074017558070  0.5555392340394222
  0.6558068944313507  0.7695577853189575  0.5576075665333365
  0.6558186857025312  0.8209239631361021  0.5877510632559118
  0.6360926440502397  0.7809289053658780  0.5898207245357385
  0.6558089465063378  0.7467630161062018  0.5897963985160694
  0.6310236744113454  0.8351363221204222  0.6282180018809608
  0.6360879739863767  0.7580957040692319  0.6282107942548749
  0.6755203163159605  0.7580917573788839  0.6282180018809608
  0.6755265672346131  0.7809252814598225  0.5898266501810381
  0.7003271355571070  0.8238075808477404  0.5897963985160694
  0.7003153276071465  0.7438793983945636  0.5877510632559118
  0.7251028049417616  0.7580957040692319  0.6282107942548749
  0.7251074750056242  0.7809289053658780  0.5898207245357385
  0.6558174993434508  0.8437172871922101  0.5555618324121010
  0.6310356487005764  0.8865965312388839  0.5555392340394222
  0.6310418996192290  0.9094300553198231  0.5171478823394997
  0.6113208574388352  0.9207618519337486  0.5555618324121010
  0.6558284415775045  0.9236469148020344  0.5576075665333365
  0.6113220437979159  0.8979685278776406  0.5877510632559118
  0.6558304936524915  0.9008521455892790  0.5897963985160694
  0.6310299253299980  0.8579698462013616  0.5898266501810381
  0.6361095211325308  0.9121848335523088  0.6282107942548749
  0.7003250834821196  0.8466023500604958  0.5576075665333365
  0.6806228073902398  0.9094336792258778  0.5171419566942000
  0.7200504796559607  0.8865965312388839  0.5555392340394222
  0.6806181373263769  0.8866004779292319  0.5555320264133365
  0.7003368747533006  0.8979685278776406  0.5877510632559118
  0.6806108331010089  0.8579734701074164  0.5898207245357385
  0.7200447562853828  0.8579698462013616  0.5898266501810381
  0.7200385053667298  0.8351363221204222  0.6282180018809608
  0.6806061630371461  0.8351402688107702  0.6282107942548749
  0.0771779894840696  0.5383300597930252  0.6604298310974501
  0.0771768031249895  0.5611233838491331  0.6282406002536393
  0.1019654668186844  0.5525463654676934  0.7008895620964134
  0.0969074181623059  0.6524205075998232  0.6625054180225765
  0.1216843872636586  0.5640084467174190  0.6302863343748750
  0.1661916340803738  0.5611233838491331  0.6282406002536393
  0.1216864393386457  0.5412136775046633  0.6624751663576077
  0.1661928204394544  0.5383300597930252  0.6604298310974501
  0.1909849678379319  0.5753795667643393  0.6624994923772769
  0.1019701368825473  0.5753795667643393  0.6624994923772769
  0.1909802977740690  0.5525463654676934  0.7008895620964134
  0.1414040600669211  0.5753759428582846  0.6625054180225765
  0.1413978091482685  0.5525424187773452  0.7008967697224990
  0.1216830178865280  0.5867077394722101  0.7009193680951779
  0.1661796597911431  0.5096631747306718  0.7009193680951779
  0.1216724129744270  0.5125482375989573  0.7029651022164133
  0.1662025763144276  0.6410530114589573  0.6302863343748750
  0.1216949921757587  0.6381679485906716  0.6282406002536393
  0.1216961785348389  0.6153746245345636  0.6604298310974501
  0.1662046283894147  0.6182582422462020  0.6624751663576077
  0.1464883259333166  0.6524241315058777  0.6624994923772769
  0.1859222491176903  0.6524205075998232  0.6625054180225765
  0.1464836558694534  0.6295909302092317  0.7008895620964134
  0.1662012069372972  0.6637523042137488  0.7009193680951779
  0.1859159981990377  0.6295869835188838  0.7008967697224990
  0.1216939601205813  0.6666373670820342  0.7029651022164133
  0.1661906020251964  0.5895928023404959  0.7029651022164133
  0.1216842042456079  0.5639144154161021  0.7331085989389885
  0.1413920857776901  0.5239157337398229  0.7351841858641148
  0.1464763516440858  0.6009639223874162  0.7351782602188154
  0.1661926541001835  0.5667980331277405  0.7351539341991460
  0.1909729935487010  0.5239193576458779  0.7351782602188154
  0.1464716815802228  0.5781307210907703  0.7735683299379519
  0.1909683234848383  0.5010861563492317  0.7735683299379519
  0.1859102748284593  0.6009602984813615  0.7351841858641148
  0.1858983005392287  0.5495000893629000  0.8078629537056534
  0.1661806798109530  0.5153378240092790  0.8078327020406846
  0.1661786277359655  0.5381325932220342  0.7756438700579519
  0.1859040239098065  0.5781267744004224  0.7735755375640375
  0.1661904190071465  0.5894987710391790  0.8057873667805271
  0.1661892326480663  0.6122920950952868  0.7735981359367161
  0.1909898706309920  0.6551752858323087  0.7735683299379519
  0.1662023932963774  0.6409589801576403  0.7331085989389885
  0.1909945406948549  0.6780084871289549  0.7351782602188154
  0.1909825664056242  0.6265482780104934  0.8078570280603538
  0.1662131812265279  0.7152125133322100  0.6282406002536393
  0.1662143675856083  0.6924191892761021  0.6604298310974501
  0.1217079864847991  0.6953028069877403  0.6624751663576077
  0.1414256072130751  0.7294650723413617  0.6625054180225765
  0.1217059344098118  0.7180975762004957  0.6302863343748750
  0.1910065149840858  0.7294686962474163  0.6624994923772769
  0.1662261755355681  0.7723473717292787  0.6624751663576077
  0.1910018449202229  0.7066354949507702  0.7008895620964134
  0.1414193562944221  0.7066315482604222  0.7008967697224990
  0.1662121491713505  0.7436819318235728  0.7029651022164133
  0.2304188910223058  0.5753759428582846  0.6625054180225765
  0.2799997987933169  0.5753795667643393  0.6624994923772769
  0.2552064650357586  0.5611233838491331  0.6282406002536393
  0.2107012702940302  0.5412136775046633  0.6624751663576077
  0.2552076513948390  0.5383300597930252  0.6604298310974501
  0.2106992182190431  0.5640084467174190  0.6302863343748750
  0.2304126401036530  0.5525424187773452  0.7008967697224990
  0.2799951287294538  0.5525463654676934  0.7008895620964134
  0.2106978488419123  0.5867077394722101  0.7009193680951779
  0.2551944907465281  0.5096631747306718  0.7009193680951779
  0.2799831544402230  0.5010861563492317  0.7735683299379519
  0.2304006658144223  0.5010822096588837  0.7735755375640375
  0.2304069167330749  0.5239157337398229  0.7351841858641148
  0.2106872439298120  0.5125482375989573  0.7029651022164133
  0.2799878245040858  0.5239193576458779  0.7351782602188154
  0.2106990352009923  0.5639144154161021  0.7331085989389885
  0.2552074850555687  0.5667980331277405  0.7351539341991460
  0.2749188548651915  0.5781267744004224  0.7735755375640375
  0.2354865125356075  0.5781307210907703  0.7735683299379519
  0.2552054329805814  0.5895928023404959  0.7029651022164133
  0.2749251057838441  0.6009602984813615  0.7351841858641148
  0.2354911825994704  0.6009639223874162  0.7351782602188154
  0.3690099596848383  0.5525463654676934  0.7008895620964134
  0.2997126797972973  0.5867077394722101  0.7009193680951779
  0.2997161012494148  0.5412136775046633  0.6624751663576077
  0.2997140491744272  0.5640084467174190  0.6302863343748750
  0.3194274710590376  0.5525424187773452  0.7008967697224990
  0.3690146297487016  0.5753795667643393  0.6624994923772769
  0.3442224823502235  0.5383300597930252  0.6604298310974501
  0.3442093217019127  0.5096631747306718  0.7009193680951779
  0.3194337219776906  0.5753759428582846  0.6625054180225765
  0.3442212959911433  0.5611233838491331  0.6282406002536393
  0.2997020748851967  0.5125482375989573  0.7029651022164133
  0.3689979853956076  0.5010861563492317  0.7735683299379519
  0.3194154967698069  0.5010822096588837  0.7735755375640375
  0.3194217476884597  0.5239157337398229  0.7351841858641148
  0.3690026554594703  0.5239193576458779  0.7351782602188154
  0.2997138661563772  0.5639144154161021  0.7331085989389885
  0.3442223160109535  0.5667980331277405  0.7351539341991460
  0.3245013434909923  0.5781307210907703  0.7735683299379519
  0.3639336858205761  0.5781267744004224  0.7735755375640375
  0.3639399367392286  0.6009602984813615  0.7351841858641148
  0.3245060135548552  0.6009639223874162  0.7351782602188154
  0.3442202639359659  0.5895928023404959  0.7029651022164133
  0.2749370800730750  0.6524205075998232  0.6625054180225765
  0.2107228174401839  0.6953028069877403  0.6624751663576077
  0.2552280121819127  0.7152125133322100  0.6282406002536393
  0.2552291985409929  0.6924191892761021  0.6604298310974501
  0.2107207653651968  0.7180975762004957  0.6302863343748750
  0.2354984868248382  0.6295909302092317  0.7008895620964134
  0.2552172242517617  0.6409589801576403  0.7331085989389885
  0.2749308291544222  0.6295869835188838  0.7008967697224990
  0.2107108431509527  0.6438425978692789  0.7351539341991460
  0.2304222129605758  0.6551713391419607  0.7735755375640375
  0.2800047015863767  0.6551752858323087  0.7735683299379519
  0.2552160378926815  0.6637523042137488  0.7009193680951779
  0.2304341872498069  0.7066315482604222  0.7008967697224990
  0.2304284638792286  0.6780048632228999  0.7351841858641148
  0.2107205823471464  0.7180035448991788  0.7331085989389885
  0.2800093716502396  0.6780084871289549  0.7351782602188154
  0.2107087910759657  0.6666373670820342  0.7029651022164133
  0.2800166758756076  0.7066354949507702  0.7008895620964134
  0.3442342903001840  0.6182582422462020  0.6624751663576077
  0.2997246540865280  0.6381679485906716  0.6282406002536393
  0.2997258404456084  0.6153746245345636  0.6604298310974501
  0.3442322382251967  0.6410530114589573  0.6302863343748750
  0.3639519110284598  0.6524205075998232  0.6625054180225765
  0.3245179878440861  0.6524241315058777  0.6624994923772769
  0.3442440294963776  0.6924191892761021  0.6604298310974501
  0.3442428431372970  0.7152125133322100  0.6282406002536393
  0.2997376483955687  0.6953028069877403  0.6624751663576077
  0.2997355963205813  0.7180975762004957  0.6302863343748750
  0.3690195325417611  0.6551752858323087  0.7735683299379519
  0.3194370439159609  0.6551713391419607  0.7735755375640375
  0.3639456601098070  0.6295869835188838  0.7008967697224990
  0.2997256741063377  0.6438425978692789  0.7351539341991460
  0.3245133177802230  0.6295909302092317  0.7008895620964134
  0.3442320552071467  0.6409589801576403  0.7331085989389885
  0.3442308688480665  0.6637523042137488  0.7009193680951779
  0.3194432948346133  0.6780048632228999  0.7351841858641148
  0.2997236220313506  0.6666373670820342  0.7029651022164133
  0.3690242026056244  0.6780084871289549  0.7351782602188154
  0.2997354133025310  0.7180035448991788  0.7331085989389885
  0.3194490182051917  0.7066315482604222  0.7008967697224990
  0.3690315068309924  0.7066354949507702  0.7008895620964134
  0.2106858745526814  0.5352475303537485  0.7735981359367161
  0.2551955107663378  0.5153378240092790  0.8078327020406846
  0.2106870609117620  0.5124542062976406  0.8057873667805271
  0.2749131314946134  0.5495000893629000  0.8078629537056534
  0.2551934586913505  0.5381325932220342  0.7756438700579519
  0.2354792083102395  0.5495037132689548  0.8078570280603538
  0.2552052499625312  0.5894987710391790  0.8057873667805271
  0.2106988688617223  0.5923823887508172  0.8078327020406846
  0.2106968167867349  0.6151771579635728  0.7756438700579519
  0.2552040636034506  0.6122920950952868  0.7735981359367161
  0.2749068805759609  0.5266665652819607  0.8462543054055759
  0.2354745382463766  0.5266705119723089  0.8462470977794903
  0.2551932756733003  0.5380385619207175  0.8784661346220656
  0.2551920893142197  0.5608318859768253  0.8462769037782548
  0.2996996734528890  0.5637169488451113  0.8483226378994904
  0.2106848424975042  0.5637169488451113  0.8483226378994904
  0.2799927272971460  0.6037150767138469  0.8462470977794903
  0.2304102386713453  0.6037111300234992  0.8462543054055759
  0.2799854230717782  0.5750880688920317  0.8805357959018921
  0.3442082896467353  0.5381325932220342  0.7756438700579519
  0.3442103417217226  0.5153378240092790  0.8078327020406846
  0.2997007055080666  0.5352475303537485  0.7735981359367161
  0.2997018918671466  0.5124542062976406  0.8057873667805271
  0.3639279624499982  0.5495000893629000  0.8078629537056534
  0.3244940392656243  0.5495037132689548  0.8078570280603538
  0.2997136998171070  0.5923823887508172  0.8078327020406846
  0.3442200809179158  0.5894987710391790  0.8057873667805271
  0.3442188945588358  0.6122920950952868  0.7735981359367161
  0.2997116477421199  0.6151771579635728  0.7756438700579519
  0.3244893692017614  0.5266705119723089  0.8462470977794903
  0.3639217115313454  0.5266665652819607  0.8462543054055759
  0.2997017255278761  0.5409221796323559  0.8805114698822230
  0.3442081066286851  0.5380385619207175  0.8784661346220656
  0.3194130953374996  0.5522509209050375  0.9189330732471145
  0.3689955839632999  0.5522548675953857  0.9189258656210287
  0.3442069202696049  0.5608318859768253  0.8462769037782548
  0.3194193462561519  0.5750844449859769  0.8805417215471918
  0.2997114647240695  0.6150831266622558  0.8784661346220656
  0.3690002540271628  0.5750880688920317  0.8805357959018921
  0.3194250696267301  0.6037111300234992  0.8462543054055759
  0.3690075582525306  0.6037150767138469  0.8462470977794903
  0.3887145044082740  0.5637169488451113  0.8483226378994904
  0.2799973973610087  0.6265482780104934  0.8078570280603538
  0.2304164895899979  0.6265446541044384  0.8078629537056534
  0.2107086080579157  0.6665433357807173  0.8057873667805271
  0.2552170579124915  0.6694269534923557  0.8078327020406846
  0.2749284277221145  0.6807556947650378  0.8462543054055759
  0.2107074216988355  0.6893366598368253  0.7735981359367161
  0.2355007554563934  0.7035928427520317  0.8078570280603538
  0.2749346786407671  0.7035892188459767  0.8078629537056534
  0.2552150058375042  0.6922217227051114  0.7756438700579519
  0.2552030315482735  0.6407615135866497  0.8483226378994904
  0.2997102783649894  0.6378764507183640  0.8462769037782548
  0.3690122283163935  0.6265482780104934  0.8078570280603538
  0.3194313205453826  0.6265446541044384  0.8078629537056534
  0.3442318888678763  0.6694269534923557  0.8078327020406846
  0.2997234390133005  0.6665433357807173  0.8057873667805271
  0.3639432586774990  0.6807556947650378  0.8462543054055759
  0.3245109163479150  0.6807596414553856  0.8462470977794903
  0.2997222526542198  0.6893366598368253  0.7735981359367161
  0.3639495095961519  0.7035892188459767  0.8078629537056534
  0.3245155864117779  0.7035928427520317  0.8078570280603538
  0.3442298367928889  0.6922217227051114  0.7756438700579519
  0.3442284674157588  0.7149210154599023  0.8462769037782548
  0.3639375353069211  0.6521290097275153  0.8805417215471918
  0.3639312843882688  0.6292954856465763  0.9189330732471145
  0.3442178625036582  0.6407615135866497  0.8483226378994904
  0.3442199145786455  0.6179667443738942  0.8805114698822230
  0.3245036121225472  0.6521326336335702  0.8805357959018921
  0.3442296537748387  0.6921276914037945  0.8784661346220656
  0.2997212205990427  0.7178060783281882  0.8483226378994904
  0.2107193959880664  0.7407968689552871  0.7009193680951779
  0.2800213459394703  0.7294686962474163  0.6624994923772769
  0.2304404381684595  0.7294650723413617  0.6625054180225765
  0.2107325566363773  0.7694637540176406  0.6604298310974501
  0.2552410064909531  0.7723473717292787  0.6624751663576077
  0.2749523763005759  0.7836761130019607  0.7008967697224990
  0.2355200339709921  0.7836800596923087  0.7008895620964134
  0.2107313702772971  0.7922570780737483  0.6282406002536393
  0.2552389544159660  0.7951421409420343  0.6302863343748750
  0.2355247040348550  0.8065132609889549  0.6624994923772769
  0.2749586272192287  0.8065096370828999  0.6625054180225765
  0.2552375850388356  0.8178414336968257  0.7009193680951779
  0.2552269801267353  0.7436819318235728  0.7029651022164133
  0.2355080596817612  0.7322198505738471  0.7735683299379519
  0.2749404020113450  0.7322159038834990  0.7735755375640375
  0.2552290322017222  0.7208871626108174  0.7351539341991460
  0.2749466529299980  0.7550494279644384  0.7351841858641148
  0.2355127297456241  0.7550530518704932  0.7351782602188154
  0.2552387713979154  0.7950481096407174  0.7331085989389885
  0.3194552691238443  0.7294650723413617  0.6625054180225765
  0.3690361768948553  0.7294686962474163  0.6624994923772769
  0.2997473875917621  0.7694637540176406  0.6604298310974501
  0.3442558374463376  0.7723473717292787  0.6624751663576077
  0.3639734581746135  0.8065096370828999  0.6625054180225765
  0.2997462012326819  0.7922570780737483  0.6282406002536393
  0.3245395349902397  0.8065132609889549  0.6624994923772769
  0.3442537853713508  0.7951421409420343  0.6302863343748750
  0.2997342269434510  0.7407968689552871  0.7009193680951779
  0.3245348649263769  0.7836800596923087  0.7008895620964134
  0.3639672072559609  0.7836761130019607  0.7008967697224990
  0.3442524159942202  0.8178414336968257  0.7009193680951779
  0.3442418110821199  0.7436819318235728  0.7029651022164133
  0.3639552329667302  0.7322159038834990  0.7735755375640375
  0.3245228906371462  0.7322198505738471  0.7735683299379519
  0.3442438631571071  0.7208871626108174  0.7351539341991460
  0.3639614838853826  0.7550494279644384  0.7351841858641148
  0.3245275607010086  0.7550530518704932  0.7351782602188154
  0.2997472212524916  0.7979317273523557  0.7351539341991460
  0.3442536023533004  0.7950481096407174  0.7331085989389885
  0.3194585910621147  0.8092604686250376  0.7735755375640375
  0.3690410796879154  0.8092644153153856  0.7735683299379519
  0.2997451691775043  0.8207264965651112  0.7029651022164133
  0.2552495593280661  0.8693016428152869  0.6282406002536393
  0.2552507456871465  0.8465083187591789  0.6604298310974501
  0.3442655766425315  0.8465083187591789  0.6604298310974501
  0.3442643902834511  0.8693016428152869  0.6282406002536393
  0.2997571434667350  0.8721867056835729  0.6302863343748750
  0.3690577240410088  0.8835578257304935  0.6624994923772769
  0.3194768162699977  0.8835542018244384  0.6625054180225765
  0.2997591955417223  0.8493919364708172  0.6624751663576077
  0.3194648419807672  0.8320939927059768  0.7351841858641148
  0.3690457497517781  0.8320976166120317  0.7351782602188154
  0.3194705653513453  0.8607206777434991  0.7008967697224990
  0.3690530539771461  0.8607246244338471  0.7008895620964134
  0.2552256107496047  0.7663812245783640  0.7735981359367161
  0.2552267971086849  0.7435879005222560  0.8057873667805271
  0.3690291053986843  0.7578042061969237  0.8462470977794903
  0.2997352469632607  0.7464715182338943  0.8078327020406846
  0.3442416280640697  0.7435879005222560  0.8057873667805271
  0.2997331948882738  0.7692662874466497  0.7756438700579519
  0.3442404417049895  0.7663812245783640  0.7735981359367161
  0.3194528676915363  0.7806337835875153  0.8078629537056534
  0.3690337754625476  0.7806374074935701  0.8078570280603538
  0.4332373133056083  0.5383300597930252  0.6604298310974501
  0.4580294607040860  0.5753795667643393  0.6624994923772769
  0.4332361269465277  0.5611233838491331  0.6282406002536393
  0.3887288801298122  0.5640084467174190  0.6302863343748750
  0.3887309322047993  0.5412136775046633  0.6624751663576077
  0.4084485529330749  0.5753759428582846  0.6625054180225765
  0.4084423020144223  0.5525424187773452  0.7008967697224990
  0.4580247906402231  0.5525463654676934  0.7008895620964134
  0.3887275107526819  0.5867077394722101  0.7009193680951779
  0.4332241526572976  0.5096631747306718  0.7009193680951779
  0.3887169058405813  0.5125482375989573  0.7029651022164133
  0.4580128163509919  0.5010861563492317  0.7735683299379519
  0.4084303277251917  0.5010822096588837  0.7735755375640375
  0.4580174864148548  0.5239193576458779  0.7351782602188154
  0.4084365786438442  0.5239157337398229  0.7351841858641148
  0.4332371469663378  0.5667980331277405  0.7351539341991460
  0.3887286971117618  0.5639144154161021  0.7331085989389885
  0.4529485167759609  0.5781267744004224  0.7735755375640375
  0.4529547676946135  0.6009602984813615  0.7351841858641148
  0.4135161744463768  0.5781307210907703  0.7735683299379519
  0.4135208445102400  0.6009639223874162  0.7351782602188154
  0.4332350948913505  0.5895928023404959  0.7029651022164133
  0.5470396215956074  0.5525463654676934  0.7008895620964134
  0.4974571329698069  0.5525424187773452  0.7008967697224990
  0.5222389836126820  0.5096631747306718  0.7009193680951779
  0.4777317367959659  0.5125482375989573  0.7029651022164133
  0.5470442916594710  0.5753795667643393  0.6624994923772769
  0.4777437110851970  0.5640084467174190  0.6302863343748750
  0.4777555023563775  0.6153746245345636  0.6604298310974501
  0.4777423417080666  0.5867077394722101  0.7009193680951779
  0.5222499258467350  0.5895928023404959  0.7029651022164133
  0.4974451586805760  0.5010822096588837  0.7735755375640375
  0.5470323173702398  0.5239193576458779  0.7351782602188154
  0.4974514095992288  0.5239157337398229  0.7351841858641148
  0.4777435280671464  0.5639144154161021  0.7331085989389885
  0.5222519779217224  0.5667980331277405  0.7351539341991460
  0.5419633477313454  0.5781267744004224  0.7735755375640375
  0.5025356754656243  0.6009639223874162  0.7351782602188154
  0.5025310054017614  0.5781307210907703  0.7735683299379519
  0.5419695986499979  0.6009602984813615  0.7351841858641148
  0.3887406714009927  0.6153746245345636  0.6604298310974501
  0.4332491212555685  0.6182582422462020  0.6624751663576077
  0.4332470691805816  0.6410530114589573  0.6302863343748750
  0.3887394850419126  0.6381679485906716  0.6282406002536393
  0.4529667419838441  0.6524205075998232  0.6625054180225765
  0.4135328187994708  0.6524241315058777  0.6624994923772769
  0.3887524793509534  0.6953028069877403  0.6624751663576077
  0.3887504272759659  0.7180975762004957  0.6302863343748750
  0.4332576740926818  0.7152125133322100  0.6282406002536393
  0.4332588604517624  0.6924191892761021  0.6604298310974501
  0.4332468861625313  0.6409589801576403  0.7331085989389885
  0.4135281487356076  0.6295909302092317  0.7008895620964134
  0.4529604910651918  0.6295869835188838  0.7008967697224990
  0.3887405050617225  0.6438425978692789  0.7351539341991460
  0.4580343634971460  0.6551752858323087  0.7735683299379519
  0.4084518748713455  0.6551713391419607  0.7735755375640375
  0.4332456998034511  0.6637523042137488  0.7009193680951779
  0.3887384529867354  0.6666373670820342  0.7029651022164133
  0.4580390335610094  0.6780084871289549  0.7351782602188154
  0.4084581257899981  0.6780048632228999  0.7351841858641148
  0.3887502442579157  0.7180035448991788  0.7331085989389885
  0.4084638491605760  0.7066315482604222  0.7008967697224990
  0.5222639522109533  0.6182582422462020  0.6624751663576077
  0.5222619001359662  0.6410530114589573  0.6302863343748750
  0.5222736914071467  0.6924191892761021  0.6604298310974501
  0.4777543159972969  0.6381679485906716  0.6282406002536393
  0.5222725050480665  0.7152125133322100  0.6282406002536393
  0.4777652582313507  0.7180975762004957  0.6302863343748750
  0.5025476497548552  0.6524241315058777  0.6624994923772769
  0.4777673103063377  0.6953028069877403  0.6624751663576077
  0.5419815729392289  0.6524205075998232  0.6625054180225765
  0.4580463377863770  0.7066354949507702  0.7008895620964134
  0.4974786801159608  0.7066315482604222  0.7008967697224990
  0.4777553360171071  0.6438425978692789  0.7351539341991460
  0.4777650752133005  0.7180035448991788  0.7331085989389885
  0.4777532839421200  0.6666373670820342  0.7029651022164133
  0.4974729567453827  0.6780048632228999  0.7351841858641148
  0.4974667058267303  0.6551713391419607  0.7735755375640375
  0.5025429796909923  0.6295909302092317  0.7008895620964134
  0.5222617171179158  0.6409589801576403  0.7331085989389885
  0.5222605307588361  0.6637523042137488  0.7009193680951779
  0.5419753220205761  0.6295869835188838  0.7008967697224990
  0.5470538645163935  0.6780084871289549  0.7351782602188154
  0.5470611687417615  0.7066354949507702  0.7008895620964134
  0.3887167228225313  0.5124542062976406  0.8057873667805271
  0.4332251726771074  0.5153378240092790  0.8078327020406846
  0.3887155364634509  0.5352475303537485  0.7735981359367161
  0.4529427934053827  0.5495000893629000  0.8078629537056534
  0.4332231206021198  0.5381325932220342  0.7756438700579519
  0.4135088702210090  0.5495037132689548  0.8078570280603538
  0.3887285307724918  0.5923823887508172  0.8078327020406846
  0.4332349118733005  0.5894987710391790  0.8057873667805271
  0.3887264786975045  0.6151771579635728  0.7756438700579519
  0.4332337255142202  0.6122920950952868  0.7735981359367161
  0.3887165564832609  0.5409221796323559  0.8805114698822230
  0.4135042001571461  0.5266705119723089  0.8462470977794903
  0.4332229375840694  0.5380385619207175  0.8784661346220656
  0.4529365424867299  0.5266665652819607  0.8462543054055759
  0.4084279262928839  0.5522509209050375  0.9189330732471145
  0.4580104149186844  0.5522548675953857  0.9189258656210287
  0.4084341772115367  0.5750844449859769  0.8805417215471918
  0.4580150849825471  0.5750880688920317  0.8805357959018921
  0.4332217512249897  0.5608318859768253  0.8462769037782548
  0.3887262956794543  0.6150831266622558  0.8784661346220656
  0.4084399005821148  0.6037111300234992  0.8462543054055759
  0.4580223892079153  0.6037150767138469  0.8462470977794903
  0.4777315537779159  0.5124542062976406  0.8057873667805271
  0.5222400036324917  0.5153378240092790  0.8078327020406846
  0.5419576243607673  0.5495000893629000  0.8078629537056534
  0.5222379515575044  0.5381325932220342  0.7756438700579519
  0.4777303674188360  0.5352475303537485  0.7735981359367161
  0.5025237011763936  0.5495037132689548  0.8078570280603538
  0.4777433617278761  0.5923823887508172  0.8078327020406846
  0.5222497428286851  0.5894987710391790  0.8057873667805271
  0.4777413096528890  0.6151771579635728  0.7756438700579519
  0.5222485564696049  0.6122920950952868  0.7735981359367161
  0.5470252458740692  0.5522548675953857  0.9189258656210287
  0.5025190311125305  0.5266705119723089  0.8462470977794903
  0.4777313874386456  0.5409221796323559  0.8805114698822230
  0.5419513734421147  0.5266665652819607  0.8462543054055759
  0.4974427572482687  0.5522509209050375  0.9189330732471145
  0.5222377685394541  0.5380385619207175  0.8784661346220656
  0.5222365821803743  0.5608318859768253  0.8462769037782548
  0.4777293353636586  0.5637169488451113  0.8483226378994904
  0.4974490081669212  0.5750844449859769  0.8805417215471918
  0.5470372201632999  0.6037150767138469  0.8462470977794903
  0.4777411266348391  0.6150831266622558  0.8784661346220656
  0.4974547315374994  0.6037111300234992  0.8462543054055759
  0.5470299159379322  0.5750880688920317  0.8805357959018921
  0.4084461515007674  0.6265446541044384  0.8078629537056534
  0.4580270592717784  0.6265482780104934  0.8078570280603538
  0.4332467198232610  0.6694269534923557  0.8078327020406846
  0.3887251093203741  0.6378764507183640  0.8462769037782548
  0.3887382699686852  0.6665433357807173  0.8057873667805271
  0.4529580896328840  0.6807556947650378  0.8462543054055759
  0.4135257473032998  0.6807596414553856  0.8462470977794903
  0.3887370836096050  0.6893366598368253  0.7735981359367161
  0.4332446677482735  0.6922217227051114  0.7756438700579519
  0.4529643405515364  0.7035892188459767  0.8078629537056534
  0.4332432983711433  0.7149210154599023  0.8462769037782548
  0.4135304173671627  0.7035928427520317  0.8078570280603538
  0.4332326934590430  0.6407615135866497  0.8483226378994904
  0.4135137730140691  0.6292994323369239  0.9189258656210287
  0.4332347455340303  0.6179667443738942  0.8805114698822230
  0.4529461153436531  0.6292954856465763  0.9189330732471145
  0.4135184430779322  0.6521326336335702  0.8805357959018921
  0.4529523662623057  0.6521290097275153  0.8805417215471918
  0.4332444847302235  0.6921276914037945  0.8784661346220656
  0.3887381036294147  0.6950113091154326  0.8805114698822230
  0.3887360515544275  0.7178060783281882  0.8483226378994904
  0.5222615507786453  0.6694269534923557  0.8078327020406846
  0.4777399402757589  0.6378764507183640  0.8462769037782548
  0.4974609824561517  0.6265446541044384  0.8078629537056534
  0.5470418902271628  0.6265482780104934  0.8078570280603538
  0.4777531009240698  0.6665433357807173  0.8057873667805271
  0.4777519145649894  0.6893366598368253  0.7735981359367161
  0.5222581293265282  0.7149210154599023  0.8462769037782548
  0.5025452483225474  0.7035928427520317  0.8078570280603538
  0.5025286039694539  0.6292994323369239  0.9189258656210287
  0.5222495764894151  0.6179667443738942  0.8805114698822230
  0.5419609462990379  0.6292954856465763  0.9189330732471145
  0.5222475244144276  0.6407615135866497  0.8483226378994904
  0.5025332740333169  0.6521326336335702  0.8805357959018921
  0.4777529345847995  0.6950113091154326  0.8805114698822230
  0.4777508825098125  0.7178060783281882  0.8483226378994904
  0.6112538145680667  0.5096631747306718  0.7009193680951779
  0.5667605941155687  0.5412136775046633  0.6624751663576077
  0.6112669752163774  0.5383300597930252  0.6604298310974501
  0.5864719639251914  0.5525424187773452  0.7008967697224990
  0.6360544525509922  0.5525463654676934  0.7008895620964134
  0.6112657888572972  0.5611233838491331  0.6282406002536393
  0.6112787831663379  0.6182582422462020  0.6624751663576077
  0.5667585420405813  0.5640084467174190  0.6302863343748750
  0.5667703333117623  0.6153746245345636  0.6604298310974501
  0.6360591226148551  0.5753795667643393  0.6624994923772769
  0.5864782148438444  0.5753759428582846  0.6625054180225765
  0.5667571726634509  0.5867077394722101  0.7009193680951779
  0.6112668088771072  0.5667980331277405  0.7351539341991460
  0.5667465677513506  0.5125482375989573  0.7029651022164133
  0.6360424782617613  0.5010861563492317  0.7735683299379519
  0.6360471483256241  0.5239193576458779  0.7351782602188154
  0.5667583590225311  0.5639144154161021  0.7331085989389885
  0.6309781786867302  0.5781267744004224  0.7735755375640375
  0.5915458363571460  0.5781307210907703  0.7735683299379519
  0.5915505064210093  0.6009639223874162  0.7351782602188154
  0.6309844296053826  0.6009602984813615  0.7351841858641148
  0.6112647568021199  0.5895928023404959  0.7029651022164133
  0.7250739535702398  0.5753795667643393  0.6624994923772769
  0.7002818061717622  0.5383300597930252  0.6604298310974501
  0.6557851642671466  0.6153746245345636  0.6604298310974501
  0.7002806198126817  0.5611233838491331  0.6282406002536393
  0.6557733729959663  0.5640084467174190  0.6302863343748750
  0.6557754250709534  0.5412136775046633  0.6624751663576077
  0.6754930457992288  0.5753759428582846  0.6625054180225765
  0.6557720036188357  0.5867077394722101  0.7009193680951779
  0.6754867948805757  0.5525424187773452  0.7008967697224990
  0.7002686455234512  0.5096631747306718  0.7009193680951779
  0.7250692835063768  0.5525463654676934  0.7008895620964134
  0.6754810715099981  0.5239157337398229  0.7351841858641148
  0.6557613987067352  0.5125482375989573  0.7029651022164133
  0.7250573092171461  0.5010861563492317  0.7735683299379519
  0.6754748205913456  0.5010822096588837  0.7735755375640375
  0.6557731899779159  0.5639144154161021  0.7331085989389885
  0.7250619792810089  0.5239193576458779  0.7351782602188154
  0.7002816398324915  0.5667980331277405  0.7351539341991460
  0.7199930096421145  0.5781267744004224  0.7735755375640375
  0.6805653373763938  0.6009639223874162  0.7351782602188154
  0.6805606673125305  0.5781307210907703  0.7735683299379519
  0.7199992605607671  0.6009602984813615  0.7351841858641148
  0.7002795877575047  0.5895928023404959  0.7029651022164133
  0.6309964038946136  0.6524205075998232  0.6625054180225765
  0.5915578106463769  0.6295909302092317  0.7008895620964134
  0.5667691469526817  0.6381679485906716  0.6282406002536393
  0.6112767310913507  0.6410530114589573  0.6302863343748750
  0.5915624807102400  0.6524241315058777  0.6624994923772769
  0.5667821412617225  0.6953028069877403  0.6624751663576077
  0.6112873360034509  0.7152125133322100  0.6282406002536393
  0.6112885223625315  0.6924191892761021  0.6604298310974501
  0.5667800891867354  0.7180975762004957  0.6302863343748750
  0.6360759996971461  0.7066354949507702  0.7008895620964134
  0.5667701669724916  0.6438425978692789  0.7351539341991460
  0.6309901529759608  0.6295869835188838  0.7008967697224990
  0.6112765480733003  0.6409589801576403  0.7331085989389885
  0.6112753617142201  0.6637523042137488  0.7009193680951779
  0.5864815367821145  0.6551713391419607  0.7735755375640375
  0.6360640254079152  0.6551752858323087  0.7735683299379519
  0.5667681148975046  0.6666373670820342  0.7029651022164133
  0.6360686954717782  0.6780084871289549  0.7351782602188154
  0.5864877877007674  0.6780048632228999  0.7351841858641148
  0.5667799061686848  0.7180035448991788  0.7331085989389885
  0.6805773116656243  0.6524241315058777  0.6624994923772769
  0.6557839779080666  0.6381679485906716  0.6282406002536393
  0.7003021669588356  0.7152125133322100  0.6282406002536393
  0.6557949201421197  0.7180975762004957  0.6302863343748750
  0.6557969722171071  0.6953028069877403  0.6624751663576077
  0.7003033533179160  0.6924191892761021  0.6604298310974501
  0.7002936141217222  0.6182582422462020  0.6624751663576077
  0.7002915620467355  0.6410530114589573  0.6302863343748750
  0.7200112348499980  0.6524205075998232  0.6625054180225765
  0.7002913790286851  0.6409589801576403  0.7331085989389885
  0.6805726416017615  0.6295909302092317  0.7008895620964134
  0.7200049839313453  0.6295869835188838  0.7008967697224990
  0.7002901926696051  0.6637523042137488  0.7009193680951779
  0.6557849979278764  0.6438425978692789  0.7351539341991460
  0.6754963677374994  0.6551713391419607  0.7735755375640375
  0.7250788563632999  0.6551752858323087  0.7735683299379519
  0.7003031869786451  0.7208871626108174  0.7351539341991460
  0.7250835264271628  0.6780084871289549  0.7351782602188154
  0.6557829458528893  0.6666373670820342  0.7029651022164133
  0.6755026186561518  0.6780048632228999  0.7351841858641148
  0.6557947371240695  0.7180035448991788  0.7331085989389885
  0.6755083420267300  0.7066315482604222  0.7008967697224990
  0.7250908306525309  0.7066354949507702  0.7008895620964134
  0.6112527825128889  0.5381325932220342  0.7756438700579519
  0.5667463847333004  0.5124542062976406  0.8057873667805271
  0.6112548345878764  0.5153378240092790  0.8078327020406846
  0.6309724553161521  0.5495000893629000  0.8078629537056534
  0.5915385321317783  0.5495037132689548  0.8078570280603538
  0.6112645737840696  0.5894987710391790  0.8057873667805271
  0.5667581926832609  0.5923823887508172  0.8078327020406846
  0.6112633874249896  0.6122920950952868  0.7735981359367161
  0.5667561406082736  0.6151771579635728  0.7756438700579519
  0.5864575882036530  0.5522509209050375  0.9189330732471145
  0.5915338620679153  0.5266705119723089  0.8462470977794903
  0.5667462183940299  0.5409221796323559  0.8805114698822230
  0.6309662043974993  0.5266665652819607  0.8462543054055759
  0.6112525994948389  0.5380385619207175  0.8784661346220656
  0.6360400768294535  0.5522548675953857  0.9189258656210287
  0.6112514131357588  0.5608318859768253  0.8462769037782548
  0.5667441663190429  0.5637169488451113  0.8483226378994904
  0.6360520511186845  0.6037150767138469  0.8462470977794903
  0.5864638391223056  0.5750844449859769  0.8805417215471918
  0.5864695624928840  0.6037111300234992  0.8462543054055759
  0.6360447468933169  0.5750880688920317  0.8805357959018921
  0.5667559575902233  0.6150831266622558  0.8784661346220656
  0.6557612156886852  0.5124542062976406  0.8057873667805271
  0.6557600293296050  0.5352475303537485  0.7735981359367161
  0.7002696655432612  0.5153378240092790  0.8078327020406846
  0.7002676134682737  0.5381325932220342  0.7756438700579519
  0.7199872862715366  0.5495000893629000  0.8078629537056534
  0.6805533630871629  0.5495037132689548  0.8078570280603538
  0.7002794047394544  0.5894987710391790  0.8057873667805271
  0.6557730236386454  0.5923823887508172  0.8078327020406846
  0.7002782183803741  0.6122920950952868  0.7735981359367161
  0.6557709715636584  0.6151771579635728  0.7756438700579519
  0.6805486930233000  0.5266705119723089  0.8462470977794903
  0.6557610493494147  0.5409221796323559  0.8805114698822230
  0.7199810353528836  0.5266665652819607  0.8462543054055759
  0.7002674304502238  0.5380385619207175  0.8784661346220656
  0.6754724191590378  0.5522509209050375  0.9189330732471145
  0.7002662440911436  0.5608318859768253  0.8462769037782548
  0.6557589972744279  0.5637169488451113  0.8483226378994904
  0.6754786700776906  0.5750844449859769  0.8805417215471918
  0.6557707885456082  0.6150831266622558  0.8784661346220656
  0.7250595778487012  0.5750880688920317  0.8805357959018921
  0.6754843934482685  0.6037111300234992  0.8462543054055759
  0.7250668820740692  0.6037150767138469  0.8462470977794903
  0.5864758134115365  0.6265446541044384  0.8078629537056534
  0.5667547712311435  0.6378764507183640  0.8462769037782548
  0.6360567211825473  0.6265482780104934  0.8078570280603538
  0.6112763817340301  0.6694269534923557  0.8078327020406846
  0.6309877515436532  0.6807556947650378  0.8462543054055759
  0.5915554092140689  0.6807596414553856  0.8462470977794903
  0.5667667455203743  0.6893366598368253  0.7735981359367161
  0.6112729602819127  0.7149210154599023  0.8462769037782548
  0.5915600792779320  0.7035928427520317  0.8078570280603538
  0.6309940024623057  0.7035892188459767  0.8078629537056534
  0.6112743296590430  0.6922217227051114  0.7756438700579519
  0.6112623553698121  0.6407615135866497  0.8483226378994904
  0.6309757772544222  0.6292954856465763  0.9189330732471145
  0.5915434349248386  0.6292994323369239  0.9189258656210287
  0.6112644074447994  0.6179667443738942  0.8805114698822230
  0.5915481049887014  0.6521326336335702  0.8805357959018921
  0.6309820281730748  0.6521290097275153  0.8805417215471918
  0.6112741466409927  0.6921276914037945  0.8784661346220656
  0.5667677655401840  0.6950113091154326  0.8805114698822230
  0.5667657134651968  0.7178060783281882  0.8483226378994904
  0.6557696021865280  0.6378764507183640  0.8462769037782548
  0.6754906443669213  0.6265446541044384  0.8078629537056534
  0.7250715521379322  0.6265482780104934  0.8078570280603538
  0.6557827628348388  0.6665433357807173  0.8057873667805271
  0.7002912126894146  0.6694269534923557  0.8078327020406846
  0.7200025824990377  0.6807556947650378  0.8462543054055759
  0.6805702401694537  0.6807596414553856  0.8462470977794903
  0.6557815764757592  0.6893366598368253  0.7735981359367161
  0.7200088334176905  0.7035892188459767  0.8078629537056534
  0.7002891606144274  0.6922217227051114  0.7756438700579519
  0.6805749102333164  0.7035928427520317  0.8078570280603538
  0.7002877912372975  0.7149210154599023  0.8462769037782548
  0.7002792384001840  0.6179667443738942  0.8805114698822230
  0.7002771863251969  0.6407615135866497  0.8483226378994904
  0.6805629359440863  0.6521326336335702  0.8805357959018921
  0.6557805444205815  0.7178060783281882  0.8483226378994904
  0.4580510078502401  0.7294686962474163  0.6624994923772769
  0.3887622185471466  0.7694637540176406  0.6604298310974501
  0.4135543659456246  0.8065132609889549  0.6624994923772769
  0.3887610321880662  0.7922570780737483  0.6282406002536393
  0.4332706684017224  0.7723473717292787  0.6624751663576077
  0.4332686163267351  0.7951421409420343  0.6302863343748750
  0.4529882891299982  0.8065096370828999  0.6625054180225765
  0.4529820382113455  0.7836761130019607  0.7008967697224990
  0.4135496958817617  0.7836800596923087  0.7008895620964134
  0.4084701000792290  0.7294650723413617  0.6625054180225765
  0.4332586941124917  0.7208871626108174  0.7351539341991460
  0.4332566420375044  0.7436819318235728  0.7029651022164133
  0.3887490578988357  0.7407968689552871  0.7009193680951779
  0.4777638888542203  0.7407968689552871  0.7009193680951779
  0.4135377215925309  0.7322198505738471  0.7735683299379519
  0.4529763148407673  0.7550494279644384  0.7351841858641148
  0.4135423916563936  0.7550530518704932  0.7351782602188154
  0.4332684333086849  0.7950481096407174  0.7331085989389885
  0.4332672469496049  0.8178414336968257  0.7009193680951779
  0.4580559106433001  0.8092644153153856  0.7735683299379519
  0.3887620522078764  0.7979317273523557  0.7351539341991460
  0.3887600001328891  0.8207264965651112  0.7029651022164133
  0.5419968691667300  0.7836761130019607  0.7008967697224990
  0.5470658388056242  0.7294686962474163  0.6624994923772769
  0.5025691969010095  0.8065132609889549  0.6624994923772769
  0.5420031200853828  0.8065096370828999  0.6625054180225765
  0.4777758631434503  0.7922570780737483  0.6282406002536393
  0.4974849310346138  0.7294650723413617  0.6625054180225765
  0.4777770495025312  0.7694637540176406  0.6604298310974501
  0.5222854993571072  0.7723473717292787  0.6624751663576077
  0.5025645268371461  0.7836800596923087  0.7008895620964134
  0.5222834472821201  0.7951421409420343  0.6302863343748750
  0.5222735250678763  0.7208871626108174  0.7351539341991460
  0.5222714729928890  0.7436819318235728  0.7029651022164133
  0.5025525525479155  0.7322198505738471  0.7735683299379519
  0.5419911457961518  0.7550494279644384  0.7351841858641148
  0.5025572226117784  0.7550530518704932  0.7351782602188154
  0.5222820779049895  0.8178414336968257  0.7009193680951779
  0.4777768831632612  0.7979317273523557  0.7351539341991460
  0.5222832642640695  0.7950481096407174  0.7331085989389885
  0.4777748310882738  0.8207264965651112  0.7029651022164133
  0.3887719744221197  0.8721867056835729  0.6302863343748750
  0.4332792212388357  0.8693016428152869  0.6282406002536393
  0.4084916472253824  0.8835542018244384  0.6625054180225765
  0.4332922155478763  0.9264365012123559  0.6624751663576077
  0.4332804075979160  0.8465083187591789  0.6604298310974501
  0.3887740264971069  0.8493919364708172  0.6624751663576077
  0.4580678849325309  0.8607246244338471  0.7008895620964134
  0.4084796729361520  0.8320939927059768  0.7351841858641148
  0.4580605807071628  0.8320976166120317  0.7351782602188154
  0.4084853963067301  0.8607206777434991  0.7008967697224990
  0.4332802412586454  0.8749762920938942  0.7351539341991460
  0.3887717914040698  0.8720926743822560  0.7331085989389885
  0.3887706050449896  0.8948859984383640  0.7009193680951779
  0.4332781891836581  0.8977710613066497  0.7029651022164133
  0.4580725549963938  0.8835578257304935  0.6624994923772769
  0.5470873859517781  0.8835578257304935  0.6624994923772769
  0.5223070465032609  0.9264365012123559  0.6624751663576077
  0.5222940521942204  0.8693016428152869  0.6282406002536393
  0.4777888574524916  0.8493919364708172  0.6624751663576077
  0.4777985966486851  0.9235528835007175  0.6604298310974501
  0.5222950722140302  0.8749762920938942  0.7351539341991460
  0.5470827158879152  0.8607246244338471  0.7008895620964134
  0.4777866223594541  0.8720926743822560  0.7331085989389885
  0.4974945038915365  0.8320939927059768  0.7351841858641148
  0.4975002272621147  0.8607206777434991  0.7008967697224990
  0.5470754116625474  0.8320976166120317  0.7351782602188154
  0.4777854360003744  0.8948859984383640  0.7009193680951779
  0.5222930201390429  0.8977710613066497  0.7029651022164133
  0.4332552726603745  0.7663812245783640  0.7735981359367161
  0.4332564590194544  0.7435879005222560  0.8057873667805271
  0.4529700639221145  0.7322159038834990  0.7735755375640375
  0.3887500779186455  0.7464715182338943  0.8078327020406846
  0.3887480258436584  0.7692662874466497  0.7756438700579519
  0.4084676986469211  0.7806337835875153  0.8078629537056534
  0.4580486064179319  0.7806374074935701  0.8078570280603538
  0.4084734220174994  0.8092604686250376  0.7735755375640375
  0.3887598171148389  0.8206324652637945  0.8057873667805271
  0.4332682669694147  0.8235160829754324  0.8078327020406846
  0.3887586307557587  0.8434257893199023  0.7735981359367161
  0.4084614477282685  0.7578002595065759  0.8462543054055759
  0.4580366321287012  0.7291771983751086  0.8805357959018921
  0.4084557243576903  0.7291735744690536  0.8805417215471918
  0.4580439363540693  0.7578042061969237  0.8462470977794903
  0.5470587673094538  0.7578042061969237  0.8462470977794903
  0.5419848948774993  0.7322159038834990  0.7735755375640375
  0.4777649088740304  0.7464715182338943  0.8078327020406846
  0.5222712899748390  0.7435879005222560  0.8057873667805271
  0.5222701036157588  0.7663812245783640  0.7735981359367161
  0.4777628567990425  0.7692662874466497  0.7756438700579519
  0.4974825296023058  0.7806337835875153  0.8078629537056534
  0.5470634373733169  0.7806374074935701  0.8078570280603538
  0.4777746480702234  0.8206324652637945  0.8057873667805271
  0.4777734617111435  0.8434257893199023  0.7735981359367161
  0.4974882529728835  0.8092604686250376  0.7735755375640375
  0.5470514630840860  0.7291771983751086  0.8805357959018921
  0.4974705553130749  0.7291735744690536  0.8805417215471918
  0.4974762786836530  0.7578002595065759  0.8462543054055759
  0.4777614874219125  0.7919655802014409  0.8462769037782548
  0.5222690715605814  0.7948506430697266  0.8483226378994904
  0.4332662148944276  0.8463108521881881  0.7756438700579519
  0.6360806697610092  0.7294686962474163  0.6624994923772769
  0.5915840278563936  0.8065132609889549  0.6624994923772769
  0.5667918804579160  0.7694637540176406  0.6604298310974501
  0.5667906940988353  0.7922570780737483  0.6282406002536393
  0.6112982782375046  0.7951421409420343  0.6302863343748750
  0.6113003303124915  0.7723473717292787  0.6624751663576077
  0.6310179510407673  0.8065096370828999  0.6625054180225765
  0.6310117001221146  0.7836761130019607  0.7008967697224990
  0.5915793577925308  0.7836800596923087  0.7008895620964134
  0.5864997619899981  0.7294650723413617  0.6625054180225765
  0.6310059767515369  0.7550494279644384  0.7351841858641148
  0.6309997258328839  0.7322159038834990  0.7735755375640375
  0.5915673835032998  0.7322198505738471  0.7735683299379519
  0.6112980952194542  0.7950481096407174  0.7331085989389885
  0.5667917141186455  0.7979317273523557  0.7351539341991460
  0.6360855725540693  0.8092644153153856  0.7735683299379519
  0.5667896620436584  0.8207264965651112  0.7029651022164133
  0.5865030839282686  0.8092604686250376  0.7735755375640375
  0.6112969088603738  0.8178414336968257  0.7009193680951779
  0.6557935507649896  0.7407968689552871  0.7009193680951779
  0.7003151612678763  0.7723473717292787  0.6624751663576077
  0.6755145929453829  0.7294650723413617  0.6625054180225765
  0.6558067114133005  0.7694637540176406  0.6604298310974501
  0.7250955007163935  0.7294686962474163  0.6624994923772769
  0.7200265310774994  0.7836761130019607  0.7008967697224990
  0.6558055250542201  0.7922570780737483  0.6282406002536393
  0.6805941887479151  0.7836800596923087  0.7008895620964134
  0.6805988588117784  0.8065132609889549  0.6624994923772769
  0.7003131091928892  0.7951421409420343  0.6302863343748750
  0.7200327819961521  0.8065096370828999  0.6625054180225765
  0.7003117398157589  0.8178414336968257  0.7009193680951779
  0.7003011349036583  0.7436819318235728  0.7029651022164133
  0.7200145567882684  0.7322159038834990  0.7735755375640375
  0.6805822144586846  0.7322198505738471  0.7735683299379519
  0.7200208077069212  0.7550494279644384  0.7351841858641148
  0.6805868845225475  0.7550530518704932  0.7351782602188154
  0.7003129261748388  0.7950481096407174  0.7331085989389885
  0.6558065450740300  0.7979317273523557  0.7351539341991460
  0.6755179148836531  0.8092604686250376  0.7735755375640375
  0.6558044929990430  0.8207264965651112  0.7029651022164133
  0.5668036884078764  0.8493919364708172  0.6624751663576077
  0.6113100695086852  0.8465083187591789  0.6604298310974501
  0.6360975468433000  0.8607246244338471  0.7008895620964134
  0.6113088831496047  0.8693016428152869  0.6282406002536393
  0.5668016363328888  0.8721867056835729  0.6302863343748750
  0.5865213091361515  0.8835542018244384  0.6625054180225765
  0.5668134276040698  0.9235528835007175  0.6604298310974501
  0.5865150582174996  0.8607206777434991  0.7008967697224990
  0.5865093348469211  0.8320939927059768  0.7351841858641148
  0.6360902426179319  0.8320976166120317  0.7351782602188154
  0.5668014533148387  0.8720926743822560  0.7331085989389885
  0.6113099031694149  0.8749762920938942  0.7351539341991460
  0.5668002669557587  0.8948859984383640  0.7009193680951779
  0.6113078510944276  0.8977710613066497  0.7029651022164133
  0.6558185193632607  0.8493919364708172  0.6624751663576077
  0.6558164672882737  0.8721867056835729  0.6302863343748750
  0.6755361400915367  0.8835542018244384  0.6625054180225765
  0.6361022169071628  0.8835578257304935  0.6624994923772769
  0.7003249004640699  0.8465083187591789  0.6604298310974501
  0.7003237141049895  0.8693016428152869  0.6282406002536393
  0.6755241658023059  0.8320939927059768  0.7351841858641148
  0.6755298891728840  0.8607206777434991  0.7008967697224990
  0.6360735982648386  0.7578042061969237  0.8462470977794903
  0.6112861209302233  0.7435879005222560  0.8057873667805271
  0.5667797398294150  0.7464715182338943  0.8078327020406846
  0.5667776877544275  0.7692662874466497  0.7756438700579519
  0.6112849345711434  0.7663812245783640  0.7735981359367161
  0.5864973605576904  0.7806337835875153  0.8078629537056534
  0.5667894790256079  0.8206324652637945  0.8057873667805271
  0.6112979288801842  0.8235160829754324  0.8078327020406846
  0.5667882926665279  0.8434257893199023  0.7735981359367161
  0.5864911096390378  0.7578002595065759  0.8462543054055759
  0.5864853862684595  0.7291735744690536  0.8805417215471918
  0.5667763183772974  0.7919655802014409  0.8462769037782548
  0.6557925187098123  0.7692662874466497  0.7756438700579519
  0.7002997655265282  0.7663812245783640  0.7735981359367161
  0.6557945707848000  0.7464715182338943  0.8078327020406846
  0.7003009518856083  0.7435879005222560  0.8057873667805271
  0.6360782683287013  0.7806374074935701  0.8078570280603538
  0.6755121915130750  0.7806337835875153  0.8078629537056534
  0.6112958768051969  0.8463108521881881  0.7756438700579519
  0.3441949459803742  0.5093716768583638  0.9189556716197931
  0.3442058882144275  0.5893013044681882  0.9210014057410287
  0.4332207191698123  0.5893013044681882  0.9210014057410287
  0.4332097769357587  0.5093716768583638  0.9189556716197931
  0.3887131350311436  0.5864162415999025  0.9189556716197931
  0.3887025301190429  0.5122567397266499  0.9210014057410287
  0.4580031106933171  0.5236278597735702  0.9532145637434306
  0.5222355501251968  0.5893013044681882  0.9210014057410287
  0.4777173610744276  0.5122567397266499  0.9210014057410287
  0.4777279659865279  0.5864162415999025  0.9189556716197931
  0.5222376022001839  0.5665065352554328  0.9531902377237615
  0.4974370338776903  0.5236242358675154  0.9532204893887303
  0.4777291523456084  0.5636229175437945  0.9511449024636039
  0.5222246078911436  0.5093716768583638  0.9189556716197931
  0.4332313240819126  0.6634608063414408  0.9189556716197931
  0.5222461550372972  0.6634608063414408  0.9189556716197931
  0.4777389082205813  0.6663458692097266  0.9210014057410287
  0.6112394388465281  0.5093716768583638  0.9189556716197931
  0.5667427969419130  0.5864162415999025  0.9189556716197931
  0.5667439833009927  0.5636229175437945  0.9511449024636039
  0.5470179416487014  0.5236278597735702  0.9532145637434306
  0.6112503810805814  0.5893013044681882  0.9210014057410287
  0.5667321920298122  0.5122567397266499  0.9210014057410287
  0.6557470229851967  0.5122567397266499  0.9210014057410287
  0.6557576278972973  0.5864162415999025  0.9189556716197931
  0.7447519645986452  0.1306979960462019  0.3717600949914539
  0.7447365688572973  0.1247318488952869  0.4828830645705625
  0.7447618868128888  0.2049529743774191  0.2668924951671827
  0.7447759131771067  0.2336184142831250  0.2264025593083770
  0.7644935339053824  0.2677806796367461  0.2264328109733457
  0.7447736780840694  0.2563191521945635  0.2970359918897578
  0.7644872829867299  0.2449471555558069  0.2648241626732683
  0.7447724917249896  0.2791124762506715  0.2648467610459472
  0.7892800758636580  0.2819975391189574  0.2668924951671827
  0.7447639388878766  0.1821582051646635  0.2990813271499155
  0.7447499125236580  0.1534927652589574  0.3395712630087211
  0.7644695853269210  0.1648602613998229  0.3717903466564228
  0.7447617037948389  0.2048589430761022  0.3697147597312962
  0.7644753086974989  0.1934869464373453  0.3375029305148068
  0.7892701536494144  0.2077425607877402  0.3717600949914539
  0.8089877743776903  0.2419048261413613  0.3717903466564228
  0.7447605174357591  0.2276522671322101  0.3375255288874855
  0.7644815596161515  0.2163204705182847  0.2991115788148843
  0.7892681015744272  0.2305373300004960  0.3395712630087211
  0.7695538511933163  0.2419084500474164  0.3717844210111231
  0.7892821279386454  0.2592027699062020  0.2990813271499155
  0.7892798928456081  0.2819035078176405  0.3697147597312962
  0.7695611554186848  0.2705354578692318  0.3374957228887212
  0.8089934977482686  0.2705315111788839  0.3375029305148068
  0.8089997486669216  0.2933650352598231  0.2991115788148843
  0.7695658254825477  0.2933686591658778  0.2991056531695845
  0.7447735117447993  0.2847871255292788  0.3717600949914539
  0.8337885090394546  0.2563191521945635  0.2970359918897578
  0.8585806564379320  0.2933686591658778  0.2991056531695845
  0.8337753483911430  0.2276522671322101  0.3375255288874855
  0.8585686821487011  0.2419084500474164  0.3717844210111231
  0.8782947238009933  0.2819035078176405  0.3697147597312962
  0.8337883427001836  0.2847871255292788  0.3717600949914539
  0.8585759863740692  0.2705354578692318  0.3374957228887212
  0.7892561272851967  0.1790771208820343  0.4122500308502596
  0.7644633344082684  0.1420267373188838  0.4101816983563452
  0.7695418769040858  0.1904482409289549  0.4444631888526615
  0.7447485431465277  0.1761920580137485  0.4102042967290241
  0.7447497295056079  0.1533987339576405  0.4423935275728348
  0.7892581793601844  0.1562823516692789  0.4444388628329924
  0.8089758000884594  0.1904446170229000  0.4444691144979612
  0.7695372068402230  0.1676150396323088  0.4828532585717980
  0.7447495631663374  0.1818667072923558  0.5171176306745308
  0.7695299026148550  0.1389880318104932  0.5171419566942000
  0.7447475110913502  0.2046614765051113  0.4849287986917979
  0.7644671838946133  0.2160289726459770  0.5171478823394997
  0.7892547579080665  0.2017764136368254  0.4828830645705625
  0.7892559442671463  0.1789830895807174  0.5150722954143732
  0.8140480916656242  0.2160325965520318  0.5171419566942000
  0.8534820148499981  0.2160289726459770  0.5171478823394997
  0.8337623420467349  0.2046614765051113  0.4849287986917979
  0.8089695491698068  0.1676110929419606  0.4828604661978838
  0.8337643941217218  0.1818667072923558  0.5171176306745308
  0.7695491811294539  0.2190752487507702  0.4101744907302596
  0.7644791581838438  0.2674891817644383  0.4444691144979612
  0.7447615374555684  0.2333269164108172  0.4444388628329924
  0.7447594853805811  0.2561216856235729  0.4122500308502596
  0.7892667321972970  0.2532366227552870  0.4102042967290241
  0.7892679185563771  0.2304432986991791  0.4423935275728348
  0.8140600659548550  0.2674928056704934  0.4444631888526615
  0.8089815234590377  0.2190713020604222  0.4101816983563452
  0.8337743163359659  0.2561216856235729  0.4122500308502596
  0.8337763684109536  0.2333269164108172  0.4444388628329924
  0.8534939891392286  0.2674891817644383  0.4444691144979612
  0.7447593023625311  0.2560276543222560  0.5150722954143732
  0.8089853729453825  0.2930735373875152  0.5171478823394997
  0.8337729469588357  0.2788209783783639  0.4828830645705625
  0.8534877382205760  0.2446556576834991  0.4828604661978838
  0.8337741333179155  0.2560276543222560  0.5150722954143732
  0.8140553958909917  0.2446596043738472  0.4828532585717980
  0.8782815631526818  0.2532366227552870  0.4102042967290241
  0.8782825831724915  0.2589112720338943  0.5171176306745308
  0.8980002039007673  0.2930735373875152  0.5171478823394997
  0.8585662807163934  0.2930771612935703  0.5171419566942000
  0.8782805310975041  0.2817060412466497  0.4849287986917979
  0.7892427836188352  0.1503162045183639  0.5555618324121010
  0.7644552096053824  0.1645687635275152  0.5898266501810381
  0.7892417515636579  0.1787856230097267  0.6302863343748750
  0.7447341674249887  0.1759005601414407  0.6282406002536393
  0.7447473280733002  0.2045674452037944  0.5877510632559118
  0.7644609329759607  0.1931954485650378  0.5555392340394222
  0.7892557779278763  0.2074510629154327  0.5897963985160694
  0.7892655171240694  0.2816120099453330  0.5877510632559118
  0.7695467796971457  0.2702439599969241  0.5555320264133365
  0.7892537258528889  0.2302458321281882  0.5576075665333365
  0.7447461417142200  0.2273607692599024  0.5555618324121010
  0.8089791220267299  0.2702400133065760  0.5555392340394222
  0.7447591360232607  0.2844956276569710  0.5897963985160694
  0.7695394754717781  0.2416169521751088  0.5898207245357385
  0.8089733986561516  0.2416133282690539  0.5898266501810381
  0.7695348054079152  0.2187837508784625  0.6282107942548749
  0.7447451096590428  0.2558301877512651  0.6302863343748750
  0.8089671477374990  0.2187798041881147  0.6282180018809608
  0.7892523564757588  0.2529451248829792  0.6282406002536393
  0.8140434216017612  0.1931993952553856  0.5555320264133365
  0.8337621590286850  0.2045674452037944  0.5877510632559118
  0.8585616106525304  0.2702439599969241  0.5555320264133365
  0.8337609726696048  0.2273607692599024  0.5555618324121010
  0.8782803480794542  0.2816120099453330  0.5877510632559118
  0.8337739669786455  0.2844956276569710  0.5897963985160694
  0.8585543064271625  0.2416169521751088  0.5898207245357385
  0.8337599406144273  0.2558301877512651  0.6302863343748750
  0.7447353537840693  0.1531072360853329  0.6604298310974501
  0.7695275011825472  0.1901567430566471  0.6624994923772769
  0.7447331353698116  0.2043699786328037  0.7029651022164133
  0.7644647824623055  0.2671976838921308  0.6625054180225765
  0.7447471617340298  0.2330354185385097  0.6624751663576077
  0.7892535428348385  0.2301518008268713  0.6604298310974501
  0.7447437402819123  0.2785294805060562  0.7009193680951779
  0.7644585315436530  0.2443641598111916  0.7008967697224990
  0.7892513244205808  0.2814145433743420  0.7029651022164133
  0.7695370740394704  0.2927856634212626  0.7351782602188154
  0.7644528081730747  0.2157374747736691  0.7351841858641148
  0.7447449266409925  0.2557361564499482  0.7331085989389885
  0.8534796134176899  0.2671976838921308  0.6625054180225765
  0.8337619926894145  0.2330354185385097  0.6624751663576077
  0.8140410201694536  0.2443681065015395  0.7008895620964134
  0.8140456902333164  0.2672013077981857  0.6624994923772769
  0.8337585712372970  0.2785294805060562  0.7009193680951779
  0.7447317659926814  0.2270692713875947  0.7735981359367161
  0.7447447603017220  0.2842041297846635  0.8078327020406846
  0.8140913187586845  0.3990402317292316  0.2648169550471827
  0.8090117229561516  0.3448252443782844  0.2264328109733457
  0.8140959888225474  0.4218734330258778  0.2264268853280461
  0.7645150810515365  0.4218698091198228  0.2264328109733457
  0.7447856523733003  0.3077793613130251  0.2243572240482194
  0.7695777997717782  0.3448288682843395  0.2264268853280461
  0.7447974603232608  0.3877075437662018  0.2264025593083770
  0.7892941022278763  0.3106629790246634  0.2264025593083770
  0.7695731297079152  0.3219956669876933  0.2648169550471827
  0.7893038414240695  0.3848239260545637  0.2243572240482194
  0.8090054720374991  0.3219917202973453  0.2648241626732683
  0.7892918671348390  0.3333637169361022  0.2970359918897578
  0.7447854860340303  0.3362473346477405  0.2990813271499155
  0.7644968558436530  0.3475760759204222  0.3375029305148068
  0.8140793444694536  0.3475800226107702  0.3374957228887212
  0.7447834339590429  0.3590421038604957  0.2668924951671827
  0.7893036750847995  0.4132918993892791  0.2990813271499155
  0.7645088301328835  0.3990362850388837  0.2648241626732683
  0.7447952252302235  0.4104082816776405  0.2970359918897578
  0.7645031067623056  0.3704096000013614  0.2991115788148843
  0.8338122912786455  0.3877075437662018  0.2264025593083770
  0.8535299120069209  0.4218698091198228  0.2264328109733457
  0.8783066980902238  0.3333637169361022  0.2970359918897578
  0.8535116867990378  0.3475760759204222  0.3375029305148068
  0.9030941754248384  0.3475800226107702  0.3374957228887212
  0.8535179377176908  0.3704096000013614  0.2991115788148843
  0.8338100561856082  0.4104082816776405  0.2970359918897578
  0.8535236610882683  0.3990362850388837  0.2648241626732683
  0.8783185060401838  0.4132918993892791  0.2990813271499155
  0.8140720402440860  0.3189530147889549  0.3717844210111231
  0.7447714596698121  0.3075818947420343  0.3395712630087211
  0.7892787064865283  0.3046968318737487  0.3375255288874855
  0.7644911324730748  0.3189493908829001  0.3717903466564228
  0.7447712766517616  0.3074878634407176  0.4423935275728348
  0.8140673701802231  0.2961198134923087  0.4101744907302596
  0.7644848815544226  0.2961158668019608  0.4101816983563452
  0.7892776744313512  0.3331662503651112  0.4122500308502596
  0.7447700902926818  0.3302811874968254  0.4102042967290241
  0.7695753983394704  0.3959975795304932  0.3717844210111231
  0.7447832509409925  0.3589480725591791  0.3697147597312962
  0.7892896487205808  0.3846264594835727  0.3395712630087211
  0.7892917007955685  0.3618316902708172  0.3717600949914539
  0.7447820645819128  0.3817413966152869  0.3375255288874855
  0.8090093215238444  0.3959939556244385  0.3717903466564228
  0.7695707282756076  0.3731643782338473  0.4101744907302596
  0.8090030706051914  0.3731604315434991  0.4101816983563452
  0.7892882793434511  0.4073257522383638  0.4102042967290241
  0.7447810325267352  0.4102108151066498  0.4122500308502596
  0.7892894657025312  0.3845324281822560  0.4423935275728348
  0.8337861076071463  0.3074878634407176  0.4423935275728348
  0.8782935374419126  0.3046968318737487  0.3375255288874855
  0.9030822011356074  0.2961198134923087  0.4101744907302596
  0.8534997125098074  0.2961158668019608  0.4101816983563452
  0.8337849212480662  0.3302811874968254  0.4102042967290241
  0.8535059634284595  0.3189493908829001  0.3717903466564228
  0.8782925053867351  0.3331662503651112  0.4122500308502596
  0.8337862906251968  0.3075818947420343  0.3395712630087211
  0.9030868711994707  0.3189530147889549  0.3717844210111231
  0.8783065317509533  0.3618316902708172  0.3717600949914539
  0.8337980818963773  0.3589480725591791  0.3697147597312962
  0.8337968955372971  0.3817413966152869  0.3375255288874855
  0.8783044796759660  0.3846264594835727  0.3395712630087211
  0.8585902292948552  0.3959975795304932  0.3717844210111231
  0.8980241524792287  0.3959939556244385  0.3717903466564228
  0.8585855592309923  0.3731643782338473  0.4101744907302596
  0.8337958634821204  0.4102108151066498  0.4122500308502596
  0.8980179015605761  0.3731604315434991  0.4101816983563452
  0.8783031102988355  0.4073257522383638  0.4102042967290241
  0.8783042966579160  0.3845324281822560  0.4423935275728348
  0.7448071995194544  0.4618684907961020  0.2243572240482194
  0.7893253885702236  0.5389130555376404  0.2243572240482194
  0.7695993469179319  0.4989179977674164  0.2264268853280461
  0.8090332701023057  0.4989143738613614  0.2264328109733457
  0.7893156493740300  0.4647521085077404  0.2264025593083770
  0.7448190074694149  0.5417966732492787  0.2264025593083770
  0.7893016230098121  0.4360866686020343  0.2668924951671827
  0.7447940388711433  0.4332016057337486  0.2648467610459472
  0.8090270191836532  0.4760808497804223  0.2648241626732683
  0.7893122279219125  0.5102461704752870  0.2648467610459472
  0.7695946768540689  0.4760847964707702  0.2648169550471827
  0.7448049811051966  0.5131312333435727  0.2668924951671827
  0.7448070331801839  0.4903364641308173  0.2990813271499155
  0.7893134142809927  0.4874528464191791  0.2970359918897578
  0.7695873726287014  0.4474577886489547  0.2991056531695845
  0.8090212958130752  0.4474541647429000  0.2991115788148843
  0.7695827025648385  0.4246245873523087  0.3374957228887212
  0.7645246539084593  0.5244987294844383  0.2991115788148843
  0.8338220304748387  0.4618684907961020  0.2243572240482194
  0.8586141778733166  0.4989179977674164  0.2264268853280461
  0.8338338384247996  0.5417966732492787  0.2264025593083770
  0.8586095078094538  0.4760847964707702  0.2648169550471827
  0.8338198120605814  0.5131312333435727  0.2668924951671827
  0.8783270588772977  0.5102461704752870  0.2648467610459472
  0.8338088698265285  0.4332016057337486  0.2648467610459472
  0.8783164539651965  0.4360866686020343  0.2668924951671827
  0.8586022035840861  0.4474577886489547  0.2991056531695845
  0.8585975335202233  0.4246245873523087  0.3374957228887212
  0.8535394848638445  0.5244987294844383  0.2991115788148843
  0.9031203926348553  0.5245023533904933  0.2991056531695845
  0.8783282452363774  0.4874528464191791  0.2970359918897578
  0.9031157225709925  0.5016691520938471  0.3374957228887212
  0.8338218641355687  0.4903364641308173  0.2990813271499155
  0.8980361267684600  0.4474541647429000  0.2991115788148843
  0.8141055616794706  0.5245023533904933  0.2991056531695845
  0.7447930068159657  0.4616710242251112  0.3395712630087211
  0.8090150448944222  0.4246206406619605  0.3375029305148068
  0.7893002536326820  0.4587859613568253  0.3375255288874855
  0.7447950588909530  0.4388762550123556  0.3717600949914539
  0.7893014399917622  0.4359926373007175  0.3697147597312962
  0.8140935873902396  0.4730421442720318  0.3717844210111231
  0.7645126796192289  0.4730385203659768  0.3717903466564228
  0.7447916374388356  0.4843703169799023  0.4102042967290241
  0.7645064287005763  0.4502049962850377  0.4101816983563452
  0.7447928237979157  0.4615769929237943  0.4423935275728348
  0.7893111958667349  0.5387155889666496  0.3395712630087211
  0.7893132479417222  0.5159208197538941  0.3717600949914539
  0.8090246177513459  0.5272495610265761  0.4101816983563452
  0.7695922754217612  0.5272535077169238  0.4101744907302596
  0.7893110128486853  0.5386215576653329  0.4423935275728348
  0.7892992215775044  0.4872553798481881  0.4122500308502596
  0.8338078377713505  0.4616710242251112  0.3395712630087211
  0.8980298758498071  0.4246206406619605  0.3375029305148068
  0.8783150845880667  0.4587859613568253  0.3375255288874855
  0.8338098898463377  0.4388762550123556  0.3717600949914539
  0.8783162709471465  0.4359926373007175  0.3697147597312962
  0.9031084183456244  0.4730421442720318  0.3717844210111231
  0.8535275105746132  0.4730385203659768  0.3717903466564228
  0.9031037482817615  0.4502089429753854  0.4101744907302596
  0.8535212596559606  0.4502049962850377  0.4101816983563452
  0.8783140525328892  0.4872553798481881  0.4122500308502596
  0.8783260268221197  0.5387155889666496  0.3395712630087211
  0.8535332339451915  0.5016652054034991  0.3375029305148068
  0.8783280788971070  0.5159208197538941  0.3717600949914539
  0.8586117764410088  0.5500867090135702  0.3717844210111231
  0.8980456996253828  0.5500830851075151  0.3717903466564228
  0.8586071063771460  0.5272535077169238  0.4101744907302596
  0.8783258438040698  0.5386215576653329  0.4423935275728348
  0.8980394487067298  0.5272495610265761  0.4101816983563452
  0.7695587539863766  0.3217041691153856  0.4828532585717980
  0.7892797265063376  0.3103714811523557  0.4444388628329924
  0.7695634240502399  0.3445373704120318  0.4444631888526615
  0.7447830846017225  0.3874160458938941  0.4444388628329924
  0.8089973472346135  0.3445337465059770  0.4444691144979612
  0.7644944544113453  0.3987447871665762  0.4828604661978838
  0.7892763050542202  0.3558655431199023  0.4828830645705625
  0.8140769430371458  0.3987487338569244  0.4828532585717980
  0.8089910963159609  0.3217002224250378  0.4828604661978838
  0.7447690582375043  0.3587506059881880  0.4849287986917979
  0.7892774914132999  0.3330722190637945  0.5150722954143732
  0.8337719149036577  0.3072903968697268  0.5576075665333365
  0.7447570839482733  0.3072903968697268  0.5576075665333365
  0.7892643307649893  0.3044053340014408  0.5555618324121010
  0.8140649687479145  0.3472885247384625  0.5555320264133365
  0.7447711103124915  0.3359558367754328  0.5171176306745308
  0.7644824801221144  0.3472845780481145  0.5555392340394222
  0.7644887310407670  0.3701181021290537  0.5171478823394997
  0.8140696388117783  0.3701217260351086  0.5171419566942000
  0.7892892993632608  0.4130004015169710  0.5171176306745308
  0.7447808495086852  0.4101167838053328  0.5150722954143732
  0.7447676888603741  0.3814498987429792  0.5555618324121010
  0.7892752729990425  0.3843349616112654  0.5576075665333365
  0.8782945574617228  0.3103714811523557  0.4444388628329924
  0.8980121781899978  0.3445337465059770  0.4444691144979612
  0.8585782550056247  0.3445373704120318  0.4444631888526615
  0.8337979155571072  0.3874160458938941  0.4444388628329924
  0.8585735849417614  0.3217041691153856  0.4828532585717980
  0.8980059272713456  0.3217002224250378  0.4828604661978838
  0.8337838891928890  0.3587506059881880  0.4849287986917979
  0.8782911360096050  0.3558655431199023  0.4828830645705625
  0.8535092853667301  0.3987447871665762  0.4828604661978838
  0.8782923223686847  0.3330722190637945  0.5150722954143732
  0.8782791617203740  0.3044053340014408  0.5555618324121010
  0.9030797997032997  0.3472885247384625  0.5555320264133365
  0.8534973110774992  0.3472845780481145  0.5555392340394222
  0.8337859412678760  0.3359558367754328  0.5171176306745308
  0.8535035619961517  0.3701181021290537  0.5171478823394997
  0.9030844697671626  0.3701217260351086  0.5171419566942000
  0.8337825198157589  0.3814498987429792  0.5555618324121010
  0.8782901039544273  0.3843349616112654  0.5576075665333365
  0.9227973507711432  0.3814498987429792  0.5555618324121010
  0.8337956804640696  0.4101167838053328  0.5150722954143732
  0.8783041303186456  0.4130004015169710  0.5171176306745308
  0.7644705058328839  0.2958243689296530  0.6282180018809608
  0.8140529944586844  0.2958283156200010  0.6282107942548749
  0.7644767567515365  0.3186578930105922  0.5898266501810381
  0.8140576645225474  0.3186615169166472  0.5898207245357385
  0.8337705455265280  0.3299896896245177  0.6282406002536393
  0.7892632987098120  0.3328747524928037  0.6302863343748750
  0.7892653507847994  0.3100799832800480  0.6624751663576077
  0.7695490483287009  0.3442458725397241  0.6624994923772769
  0.8089829715130747  0.3442422486336690  0.6625054180225765
  0.7695610226179327  0.3957060816581855  0.5898207245357385
  0.7892773250740299  0.3615401923985098  0.5897963985160694
  0.8089886948836531  0.3728689336711914  0.6282180018809608
  0.7695563525540688  0.3728728803615394  0.6282107942548749
  0.8089949458023057  0.3957024577521308  0.5898266501810381
  0.7892739036219124  0.4070342543660561  0.6282406002536393
  0.7447666568051965  0.4099193172343421  0.6302863343748750
  0.7447687088801839  0.3871245480215866  0.6624751663576077
  0.7892750899809926  0.3842409303099480  0.6604298310974501
  0.7644863296084596  0.4212868133752076  0.6625054180225765
  0.8140672373794705  0.4212904372812624  0.6624994923772769
  0.8534915877069208  0.3186578930105922  0.5898266501810381
  0.9030724954779317  0.3186615169166472  0.5898207245357385
  0.8534853367882682  0.2958243689296530  0.6282180018809608
  0.8782781296651972  0.3328747524928037  0.6302863343748750
  0.8782801817401842  0.3100799832800480  0.6624751663576077
  0.8585638792840856  0.3442458725397241  0.6624994923772769
  0.8979978024684592  0.3442422486336690  0.6625054180225765
  0.8337717318856077  0.3071963655684097  0.6604298310974501
  0.8337837061748387  0.3586565746868712  0.5877510632559118
  0.8980097767576904  0.3957024577521308  0.5898266501810381
  0.8782921560294147  0.3615401923985098  0.5897963985160694
  0.8585758535733170  0.3957060816581855  0.5898207245357385
  0.8980035258390374  0.3728689336711914  0.6282180018809608
  0.8585711835094537  0.3728728803615394  0.6282107942548749
  0.8782887345772972  0.4070342543660561  0.6282406002536393
  0.8337814877605814  0.4099193172343421  0.6302863343748750
  0.9227963187159666  0.4099193172343421  0.6302863343748750
  0.8782899209363769  0.3842409303099480  0.6604298310974501
  0.8337835398355682  0.3871245480215866  0.6624751663576077
  0.8535011605638441  0.4212868133752076  0.6625054180225765
  0.9030820683348553  0.4212904372812624  0.6624994923772769
  0.7645007053299984  0.4215783112475153  0.4444691144979612
  0.8140816131010088  0.4215819351535701  0.4444631888526615
  0.7447796631496051  0.4329101078614407  0.4828830645705625
  0.7695803011325307  0.4757932985984625  0.4828532585717980
  0.8090126434621145  0.4757893519081146  0.4828604661978838
  0.7892872472882735  0.4357951707297266  0.4849287986917979
  0.8337944941049894  0.4329101078614407  0.4828830645705625
  0.8090069200915366  0.4471626668705923  0.5171478823394997
  0.7695729969071632  0.4471662907766470  0.5171419566942000
  0.7695683268432998  0.4243330894800010  0.5555320264133365
  0.7892858779111434  0.4584944634845178  0.5555618324121010
  0.8090006691728840  0.4243291427896528  0.5555392340394222
  0.7448046317478761  0.5415051753769711  0.4444388628329924
  0.8090188943807671  0.4986228759890537  0.4444691144979612
  0.7695849711963937  0.4986264998951087  0.4444631888526615
  0.7892978522003743  0.5099546726029792  0.4828830645705625
  0.7447906053836584  0.5128397354712650  0.4849287986917979
  0.7892990385594545  0.4871613485468714  0.5150722954143732
  0.7447926574586456  0.4900449662585096  0.5171176306745308
  0.8140911859579320  0.5242108555181854  0.5171419566942000
  0.7645102781869211  0.5242072316121306  0.5171478823394997
  0.8140865158940690  0.5013776542215395  0.5555320264133365
  0.7447892360065274  0.5355390282260561  0.5555618324121010
  0.7645040272682685  0.5013737075311915  0.5555392340394222
  0.8783020782436587  0.4357951707297266  0.4849287986917979
  0.8783161046078769  0.4644606106354327  0.4444388628329924
  0.9030964440563936  0.4215819351535701  0.4444631888526615
  0.8585951320879155  0.4757932985984625  0.4828532585717980
  0.8535155362853831  0.4215783112475153  0.4444691144979612
  0.8980274744174993  0.4757893519081146  0.4828604661978838
  0.8783138695148393  0.4871613485468714  0.5150722954143732
  0.8980217510469209  0.4471626668705923  0.5171478823394997
  0.8585878278625475  0.4471662907766470  0.5171419566942000
  0.8783007088665281  0.4584944634845178  0.5555618324121010
  0.8980155001282684  0.4243291427896528  0.5555392340394222
  0.8338054363390427  0.5128397354712650  0.4849287986917979
  0.8783126831557586  0.5099546726029792  0.4828830645705625
  0.8980337253361519  0.4986228759890537  0.4444691144979612
  0.8585998021517780  0.4986264998951087  0.4444631888526615
  0.8338194627032609  0.5415051753769711  0.4444388628329924
  0.8338074884140301  0.4900449662585096  0.5171176306745308
  0.9031060169133167  0.5242108555181854  0.5171419566942000
  0.8535251091423058  0.5242072316121306  0.5171478823394997
  0.9031013468494538  0.5013776542215395  0.5555320264133365
  0.8535188582236533  0.5013737075311915  0.5555392340394222
  0.8338040669619121  0.5355390282260561  0.5555618324121010
  0.7892870642702235  0.4357011394284099  0.5877510632559118
  0.7447786310944270  0.4613795263528035  0.5576075665333365
  0.7644983038976901  0.4727470224936689  0.5898266501810381
  0.7447806831694148  0.4385847571400481  0.5897963985160694
  0.8140792116687015  0.4727506463997241  0.5898207245357385
  0.8140745416048382  0.4499174451030780  0.6282107942548749
  0.7644920529790376  0.4499134984127300  0.6282180018809608
  0.7892848458559658  0.4869638819758804  0.6302863343748750
  0.7447772617172973  0.4840788191075946  0.6282406002536393
  0.7447784480763775  0.4612854950514866  0.6604298310974501
  0.7892868979309531  0.4641691127631250  0.6624751663576077
  0.7892968201451966  0.5384240910943421  0.5576075665333365
  0.8090164929484593  0.5497915872352073  0.5898266501810381
  0.7892988722201840  0.5156293218815865  0.5897963985160694
  0.7447904223656080  0.5127457041699481  0.5877510632559118
  0.7695825697640859  0.5497952111412625  0.5898207245357385
  0.7695778997002229  0.5269620098446163  0.6282107942548749
  0.8090102420298068  0.5269580631542683  0.6282180018809608
  0.7892966371271467  0.5383300597930252  0.6604298310974501
  0.7447902560263384  0.5412136775046633  0.6624751663576077
  0.7695705954748554  0.4983350020228010  0.6624994923772769
  0.8090045186592288  0.4983313781167460  0.6625054180225765
  0.8783018952256079  0.4357011394284099  0.5877510632559118
  0.9030940426240858  0.4727506463997241  0.5898207245357385
  0.9030893725602229  0.4499174451030780  0.6282107942548749
  0.8535068839344223  0.4499134984127300  0.6282180018809608
  0.8337920926726821  0.4840788191075946  0.6282406002536393
  0.8337932790317623  0.4612854950514866  0.6604298310974501
  0.8782996768113506  0.4869638819758804  0.6302863343748750
  0.8783017288863378  0.4641691127631250  0.6624751663576077
  0.8783137031755683  0.5156293218815865  0.5897963985160694
  0.8338052533209928  0.5127457041699481  0.5877510632559118
  0.8783116511005814  0.5384240910943421  0.5576075665333365
  0.8980313239038441  0.5497915872352073  0.5898266501810381
  0.8585974007194707  0.5497952111412625  0.5898207245357385
  0.8585927306556078  0.5269620098446163  0.6282107942548749
  0.8980250729851915  0.5269580631542683  0.6282180018809608
  0.8783114680825315  0.5383300597930252  0.6604298310974501
  0.8338050869817227  0.5412136775046633  0.6624751663576077
  0.8585854264302397  0.4983350020228010  0.6624994923772769
  0.8980193496146140  0.4983313781167460  0.6625054180225765
  0.9228247208017225  0.4388762550123556  0.3717600949914539
  0.9228332736388360  0.5358305260983639  0.3375255288874855
  0.9228226687267352  0.4616710242251112  0.3395712630087211
  0.9228344599979157  0.5130372020422560  0.3697147597312962
  0.9228106944375043  0.4102108151066498  0.4122500308502596
  0.9228127465124920  0.3874160458938941  0.4444388628329924
  0.9425303672407670  0.4215783112475153  0.4444691144979612
  0.9228093250603742  0.4329101078614407  0.4828830645705625
  0.9476219373325308  0.5272535077169238  0.4101744907302596
  0.9425423415299979  0.4730385203659768  0.3717903466564228
  0.9228202672944270  0.5128397354712650  0.4849287986917979
  0.9228342936586461  0.5415051753769711  0.4444388628329924
  0.9476099630432998  0.4757932985984625  0.4828532585717980
  0.9227985371302234  0.3586565746868712  0.5877510632559118
  0.9228007722232607  0.3359558367754328  0.5171176306745308
  0.9475979887540689  0.4243330894800010  0.5555320264133365
  0.9228200842763771  0.5127457041699481  0.5877510632559118
  0.9228223193694148  0.4900449662585096  0.5171176306745308
  0.9228082930051962  0.4613795263528035  0.5576075665333365
  0.9228188979172969  0.5355390282260561  0.5555618324121010
  0.9476026588179323  0.4471662907766470  0.5171419566942000
  0.9425336891790376  0.5013737075311915  0.5555392340394222
  0.9425399400976902  0.5242072316121306  0.5171478823394997
  0.9228103450801839  0.4385847571400481  0.5897963985160694
  0.9425279658084597  0.4727470224936689  0.5898266501810381
  0.9476122316748550  0.5497952111412625  0.5898207245357385
  0.9228199179371075  0.5412136775046633  0.6624751663576077
  0.7447546825159657  0.3584591081158806  0.7029651022164133
  0.8140505930263763  0.3469970268661552  0.7735683299379519
  0.8337715655463372  0.3356643389031247  0.7351539341991460
  0.7892631156917617  0.3327807211914868  0.7331085989389885
  0.7447567345909529  0.3356643389031247  0.7351539341991460
  0.7695443782648380  0.3214126712430783  0.7008895620964134
  0.7892619293326815  0.3555740452475946  0.7009193680951779
  0.8089767205944222  0.3214087245527299  0.7008967697224990
  0.8337695134713504  0.3584591081158806  0.7029651022164133
  0.7644743553192284  0.3698266042567462  0.7351841858641148
  0.8534891862746131  0.3698266042567462  0.7351841858641148
  0.8534949096451915  0.3984532892942685  0.7008967697224990
  0.8140552630902396  0.3698302281628009  0.7351782602188154
  0.7644800786898066  0.3984532892942685  0.7008967697224990
  0.7447664737871461  0.4098252859330249  0.7331085989389885
  0.7644681044005758  0.3469930801758070  0.7735755375640375
  0.7447413388496046  0.3296981917522100  0.8462769037782548
  0.7644623810299979  0.3183663951382845  0.8078629537056534
  0.7447427082267347  0.3069988989974189  0.7756438700579519
  0.7892595279003733  0.4067427564937484  0.8462769037782548
  0.7447544994979156  0.3583650768145637  0.8057873667805271
  0.7695466468963935  0.3954145837858781  0.8078570280603538
  0.7695419768325302  0.3725813824892319  0.8462470977794903
  0.7447533131388355  0.3811584008706715  0.7735981359367161
  0.7892608972775039  0.3840434637389575  0.7756438700579519
  0.7892629493524912  0.3612486945262018  0.8078327020406846
  0.8089805700807671  0.3954109598798228  0.8078629537056534
  0.8089862934513454  0.4240376449173454  0.7735755375640375
  0.8337681440942203  0.3811584008706715  0.7735981359367161
  0.8585592092202228  0.3214126712430783  0.7008895620964134
  0.8782767602880659  0.3555740452475946  0.7009193680951779
  0.8782897545971069  0.4127089036446635  0.7351539341991460
  0.8585734521410092  0.4468747929043393  0.7351782602188154
  0.8585687820771455  0.4240415916076933  0.7735683299379519
  0.7447652874280664  0.4326186099891334  0.7009193680951779
  0.8337801183834511  0.4326186099891334  0.7009193680951779
  0.7695539511217612  0.4240415916076933  0.7735683299379519
  0.7695586211856245  0.4468747929043393  0.7351782602188154
  0.7695659254109921  0.4755018007261548  0.7008895620964134
  0.8089982677405764  0.4754978540358069  0.7008967697224990
  0.7892846628379158  0.4868698506745637  0.7331085989389885
  0.7447782817371070  0.4897534683862019  0.7351539341991460
  0.7644896515467303  0.5010822096588837  0.7735755375640375
  0.7644959024653829  0.5239157337398229  0.7351841858641148
  0.7892834764788360  0.5096631747306718  0.7009193680951779
  0.7447762296621198  0.5125482375989573  0.7029651022164133
  0.8140721401725308  0.5010861563492317  0.7735683299379519
  0.8140768102363937  0.5239193576458779  0.7351782602188154
  0.8535107334207672  0.5239157337398229  0.7351841858641148
  0.8337910606175045  0.5125482375989573  0.7029651022164133
  0.8535044825021146  0.5010822096588837  0.7735755375640375
  0.8337931126924918  0.4897534683862019  0.7351539341991460
  0.7644839281761520  0.4724555246213614  0.8078629537056534
  0.7644776772574989  0.4496220005404223  0.8462543054055759
  0.7447642553728893  0.4610880284804958  0.7756438700579519
  0.7447663074478756  0.4382932592677404  0.8078327020406846
  0.7892726885486848  0.4354096415561021  0.8057873667805271
  0.7892715021896052  0.4582029656122101  0.7735981359367161
  0.8337790863282736  0.4610880284804958  0.7756438700579519
  0.8337811384032604  0.4382932592677404  0.8078327020406846
  0.8140648359471633  0.4724591485274164  0.8078570280603538
  0.7447748602849896  0.5352475303537485  0.7735981359367161
  0.7447628859957587  0.4837873212352869  0.8462769037782548
  0.7447760466440697  0.5124542062976406  0.8057873667805271
  0.7695681940425473  0.5495037132689548  0.8078570280603538
  0.7695635239786848  0.5266705119723089  0.8462470977794903
  0.7892824444236580  0.5381325932220342  0.7756438700579519
  0.7892844964986457  0.5153378240092790  0.8078327020406846
  0.8090021172269216  0.5495000893629000  0.8078629537056534
  0.8337896912403748  0.5352475303537485  0.7735981359367161
  0.8337908775994545  0.5124542062976406  0.8057873667805271
  0.8980130986959607  0.4754978540358069  0.7008967697224990
  0.8585807563663769  0.4755018007261548  0.7008895620964134
  0.8782994937933005  0.4868698506745637  0.7331085989389885
  0.8782983074342209  0.5096631747306718  0.7009193680951779
  0.8782877025221201  0.4355036728574191  0.7029651022164133
  0.7447522810836579  0.4096278193620346  0.8483226378994904
  0.7447640723548389  0.4609939971791789  0.8784661346220656
  0.7892704701344275  0.4866723841035727  0.8483226378994904
  0.7447758803047994  0.5409221796323559  0.8805114698822230
  0.7696162240002230  0.6301739259538471  0.2648169550471827
  0.7893231701559659  0.5901757980851113  0.2668924951671827
  0.7645303772790372  0.5531254145219606  0.2648241626732683
  0.7448167723763767  0.5644974111607175  0.2970359918897578
  0.7645366281976902  0.5759589386028998  0.2264328109733457
  0.7448155860172974  0.5872907352168253  0.2648467610459472
  0.7448287466656081  0.6159576202791790  0.2243572240482194
  0.7893371965201841  0.6188412379908171  0.2264025593083770
  0.7893349614271463  0.6415419759022558  0.2970359918897578
  0.8090485663298068  0.6301699792634992  0.2648241626732683
  0.8141128659048382  0.5531293612123088  0.2648169550471827
  0.8141175359687011  0.5759625625089547  0.2264268853280461
  0.8338316033317619  0.5644974111607175  0.2970359918897578
  0.8338304169726817  0.5872907352168253  0.2648467610459472
  0.8535452082344224  0.5531254145219606  0.2648241626732683
  0.8783380011113506  0.5901757980851113  0.2668924951671827
  0.8535514591530750  0.5759589386028998  0.2264328109733457
  0.8586310549556079  0.6301739259538471  0.2648169550471827
  0.8338435776209928  0.6159576202791790  0.2243572240482194
  0.7893337750680666  0.6643352999583639  0.2648467610459472
  0.8090548172484594  0.6530035033444384  0.2264328109733457
  0.7893469357163773  0.6930021850207175  0.2243572240482194
  0.7645581753438443  0.7300480680859769  0.2264328109733457
  0.7448405546155685  0.6958858027323557  0.2264025593083770
  0.7645519244251913  0.7072145440050376  0.2648241626732683
  0.7448265282513503  0.6672203628266496  0.2668924951671827
  0.7448371331634510  0.7413798646999022  0.2648467610459472
  0.7448383195225312  0.7185865406437945  0.2970359918897578
  0.7696208940640860  0.6530071272504931  0.2264268853280461
  0.8338413592067351  0.6672203628266496  0.2668924951671827
  0.8141344130509923  0.7072184906953856  0.2648169550471827
  0.8338531504779155  0.7185865406437945  0.2970359918897578
  0.8090428429592289  0.6015432942259769  0.2991115788148843
  0.7893252222309531  0.5673810288723559  0.2990813271499155
  0.7696089197748550  0.6015469181320314  0.2991056531695845
  0.8090365920405764  0.5787097701450378  0.3375029305148068
  0.7696042497109922  0.5787137168353857  0.3374957228887212
  0.7893218007788356  0.6128750908399022  0.3375255288874855
  0.7448145539621198  0.6157601537081882  0.3395712630087211
  0.7893229871379158  0.5900817667837944  0.3697147597312962
  0.7645342267653830  0.6271276498490538  0.3717903466564228
  0.7645279758467299  0.6042941257681146  0.4101816983563452
  0.7448166060371071  0.5929653844954326  0.3717600949914539
  0.8783400531863379  0.5673810288723559  0.2990813271499155
  0.8338293849175046  0.6157601537081882  0.3395712630087211
  0.8586237507302398  0.6015469181320314  0.2991056531695845
  0.8783366317342205  0.6128750908399022  0.3375255288874855
  0.8586190806663769  0.5787137168353857  0.3374957228887212
  0.8338314369924914  0.5929653844954326  0.3717600949914539
  0.8783378180933001  0.5900817667837944  0.3697147597312962
  0.8535428068021147  0.6042941257681146  0.4101816983563452
  0.8535490577207673  0.6271276498490538  0.3717903466564228
  0.8141104644725304  0.6042980724584623  0.4101744907302596
  0.8141151345363937  0.6271312737551086  0.3717844210111231
  0.7448285803263380  0.6444255936138945  0.2990813271499155
  0.7645462010546134  0.6785878589675153  0.2991115788148843
  0.7893467693771068  0.7214701583554330  0.2990813271499155
  0.7645399501359604  0.6557543348865761  0.3375029305148068
  0.7696257968571463  0.7328028463184625  0.3374957228887212
  0.7448251588742201  0.6899196555814407  0.3375255288874855
  0.7893327430128890  0.6928047184497268  0.3395712630087211
  0.7696184926317782  0.7041758384966471  0.3717844210111231
  0.8090461648974991  0.6813386905096530  0.4101816983563452
  0.7696138225679153  0.6813426372000008  0.4101744907302596
  0.7448263452333003  0.6671263315253327  0.3697147597312962
  0.7893347950878763  0.6700099492369711  0.3717600949914539
  0.8090524158161517  0.7041722145905921  0.3717903466564228
  0.8141224387617614  0.6557582815769241  0.3374957228887212
  0.8338434112817223  0.6444255936138945  0.2990813271499155
  0.8141271088256242  0.6785914828735701  0.2991056531695845
  0.8586406278125306  0.7328028463184625  0.3374957228887212
  0.8535610320099982  0.6785878589675153  0.2991115788148843
  0.8090581391867301  0.7327988996281144  0.3375029305148068
  0.8535547810913456  0.6557543348865761  0.3375029305148068
  0.8338399898296049  0.6899196555814407  0.3375255288874855
  0.8783475739682738  0.6928047184497268  0.3395712630087211
  0.8586333235871630  0.7041758384966471  0.3717844210111231
  0.8586286535232996  0.6813426372000008  0.4101744907302596
  0.8783496260432606  0.6700099492369711  0.3717600949914539
  0.8338411761886850  0.6671263315253327  0.3697147597312962
  0.8980576739146138  0.6015432942259769  0.2991115788148843
  0.8783497923825311  0.6415419759022558  0.2970359918897578
  0.8980514229959607  0.5787097701450378  0.3375029305148068
  0.9031299654917782  0.6271312737551086  0.3717844210111231
  0.9228462679478762  0.5929653844954326  0.3717600949914539
  0.9031252954279152  0.6042980724584623  0.4101744907302596
  0.8980609958528839  0.6813386905096530  0.4101816983563452
  0.7448025796728889  0.5642999445897264  0.4122500308502596
  0.7893087944344276  0.5898843002128036  0.4849287986917979
  0.7645222524761520  0.5756674407305923  0.4444691144979612
  0.7893098264896052  0.5614148817214407  0.4102042967290241
  0.7645160015574994  0.5528339166496529  0.4828604661978838
  0.7448012102957587  0.5869992373445176  0.4828830645705625
  0.7448143709440693  0.6156661224068712  0.4423935275728348
  0.7893228207986454  0.6185497401185094  0.4444388628329924
  0.7893207687236581  0.6413445093312651  0.4122500308502596
  0.8090341906082686  0.6298784813911915  0.4828604661978838
  0.7448131845849897  0.6384594464629791  0.4102042967290241
  0.7696018482786844  0.6298824280815395  0.4828532585717980
  0.8141031602471629  0.5756710646366471  0.4444631888526615
  0.8535370834315363  0.5756674407305923  0.4444691144979612
  0.8783246574449896  0.5614148817214407  0.4102042967290241
  0.8338174106282736  0.5642999445897264  0.4122500308502596
  0.8140984901832999  0.5528378633400008  0.4828532585717980
  0.8535308325128838  0.5528339166496529  0.4828604661978838
  0.8338160412511435  0.5869992373445176  0.4828830645705625
  0.8783236253898119  0.5898843002128036  0.4849287986917979
  0.8338292018994542  0.6156661224068712  0.4423935275728348
  0.8586166792340691  0.6298824280815395  0.4828532585717980
  0.8783376517540306  0.6185497401185094  0.4444388628329924
  0.8338280155403744  0.6384594464629791  0.4102042967290241
  0.8783355996790428  0.6413445093312651  0.4122500308502596
  0.8090284672376903  0.6012517963536692  0.5171478823394997
  0.7448023966548389  0.5642059132884099  0.5150722954143732
  0.7695945440533168  0.6012554202597240  0.5171419566942000
  0.7893205857056081  0.6412504780299484  0.5150722954143732
  0.7893108465094145  0.5670895310000482  0.5171176306745308
  0.7893074250572970  0.6125835929675947  0.5555618324121010
  0.8090222163190377  0.5784182722727298  0.5555392340394222
  0.8586093750087012  0.6012554202597240  0.5171419566942000
  0.8338172276102237  0.5642059132884099  0.5150722954143732
  0.8783354166609929  0.6412504780299484  0.5150722954143732
  0.8783256774647993  0.5670895310000482  0.5171176306745308
  0.8586047049448378  0.5784222189630778  0.5555320264133365
  0.8783222560126818  0.6125835929675947  0.5555618324121010
  0.8338150091959659  0.6154686558358805  0.5576075665333365
  0.8141007588148551  0.6268397758828008  0.5898207245357385
  0.8338170612709532  0.5926738866231250  0.5897963985160694
  0.8783234423717620  0.5897902689114867  0.5877510632559118
  0.7448121525298120  0.6669288649543420  0.4849287986917979
  0.7893193993465280  0.6640438020860560  0.4828830645705625
  0.7696065183425473  0.6527156293781856  0.4444631888526615
  0.7893325599948386  0.6927106871484097  0.4423935275728348
  0.7448261788940302  0.6955943048600480  0.4444388628329924
  0.7645375487036531  0.7069230461327298  0.4828604661978838
  0.7893313736357589  0.7155040112045177  0.4102042967290241
  0.7448241268190430  0.7183890740728036  0.4122500308502596
  0.7645437996223057  0.7297565702136690  0.4444691144979612
  0.7448227574419124  0.7410883668275946  0.4828830645705625
  0.7893303415805808  0.7439734296958805  0.4849287986917979
  0.8338410098494146  0.6955943048600480  0.4444388628329924
  0.8090404415269217  0.6527120054721307  0.4444691144979612
  0.8586213492979321  0.6527156293781856  0.4444631888526615
  0.8338269834851968  0.6669288649543420  0.4849287986917979
  0.8783342303019127  0.6640438020860560  0.4828830645705625
  0.8338389577744273  0.7183890740728036  0.4122500308502596
  0.8535586305776904  0.7297565702136690  0.4444691144979612
  0.8141247073933165  0.7297601941197240  0.4444631888526615
  0.8338375883972972  0.7410883668275946  0.4828830645705625
  0.8141200373294536  0.7069269928230780  0.4828532585717980
  0.7448107831526819  0.6896281577091331  0.5555618324121010
  0.7645255744144221  0.6554628370142683  0.5555392340394222
  0.7448119695117617  0.6668348336530253  0.5877510632559118
  0.7893204193663377  0.6697184513646635  0.5897963985160694
  0.7645318253330747  0.6782963610952075  0.5171478823394997
  0.7448142046047994  0.6441340957415865  0.5171176306745308
  0.7893183672913500  0.6925132205774188  0.5576075665333365
  0.7696041169102400  0.7038843406243395  0.5898207245357385
  0.7696114211356075  0.7325113484461550  0.5555320264133365
  0.7448239438009926  0.7182950427714867  0.5150722954143732
  0.7893323936555686  0.7211786604831250  0.5171176306745308
  0.7893301585625313  0.7438793983945636  0.5877510632559118
  0.8141080630402231  0.6554667837046164  0.5555320264133365
  0.8535466562884595  0.6782963610952075  0.5171478823394997
  0.8141127331040861  0.6782999850012625  0.5171419566942000
  0.8338290355601842  0.6441340957415865  0.5171176306745308
  0.8586262520909923  0.7325113484461550  0.5555320264133365
  0.8535404053698069  0.6554628370142683  0.5555392340394222
  0.8090437634651914  0.7325074017558070  0.5555392340394222
  0.8338256141080658  0.6896281577091331  0.5555618324121010
  0.8783331982467347  0.6925132205774188  0.5576075665333365
  0.8783352503217224  0.6697184513646635  0.5897963985160694
  0.8586189478656243  0.7038843406243395  0.5898207245357385
  0.8338268004671464  0.6668348336530253  0.5877510632559118
  0.9228308722065278  0.5869992373445176  0.4828830645705625
  0.9031179912025472  0.5756710646366471  0.4444631888526615
  0.9228322415836584  0.5642999445897264  0.4122500308502596
  0.9031133211386847  0.5528378633400008  0.4828532585717980
  0.9425519143869211  0.5756674407305923  0.4444691144979612
  0.9425456634682685  0.5528339166496529  0.4828604661978838
  0.9228440328548390  0.6156661224068712  0.4423935275728348
  0.8980552724823055  0.6527120054721307  0.4444691144979612
  0.8980490215636530  0.6298784813911915  0.4828604661978838
  0.9228428464957588  0.6384594464629791  0.4102042967290241
  0.9476242059640859  0.6012554202597240  0.5171419566942000
  0.9476195359002231  0.5784222189630778  0.5555320264133365
  0.9228320585656080  0.5642059132884099  0.5150722954143732
  0.8980370472744225  0.5784182722727298  0.5555392340394222
  0.9228318922263375  0.5926738866231250  0.5897963985160694
  0.8980432981930750  0.6012517963536692  0.5171478823394997
  0.9228298401513503  0.6154686558358805  0.5576075665333365
  0.9031155897702399  0.6268397758828008  0.5898207245357385
  0.9228438665155685  0.6441340957415865  0.5171176306745308
  0.8783473909502234  0.6927106871484097  0.4423935275728348
  0.8783462045911432  0.7155040112045177  0.4102042967290241
  0.9031348682848384  0.7069269928230780  0.4828532585717980
  0.9228418144405811  0.6669288649543420  0.4849287986917979
  0.8783472246109534  0.7211786604831250  0.5171176306745308
  0.9031275640594704  0.6782999850012625  0.5171419566942000
  0.9031228939956075  0.6554667837046164  0.5555320264133365
  0.8783449895179156  0.7438793983945636  0.5877510632559118
  0.7448502938117622  0.7700467497622562  0.2243572240482194
  0.7448501274724917  0.7985147230969711  0.2990813271499155
  0.7696304669210091  0.7556360476151086  0.2991056531695845
  0.7893447173021200  0.7442649275681882  0.2668924951671827
  0.7696377711463768  0.7842630554369241  0.2648169550471827
  0.7893565085733004  0.7956311053853330  0.2970359918897578
  0.7893445342840695  0.7441708962668714  0.3697147597312962
  0.7448381531832607  0.7470545139785097  0.3717600949914539
  0.7448478923794544  0.8212154610084099  0.3697147597312962
  0.7645557739115366  0.7812167793321307  0.3717903466564228
  0.7893433479249898  0.7669642203229792  0.3375255288874855
  0.7448361011082735  0.7698492831912651  0.3395712630087211
  0.7645614972821145  0.8098434643696530  0.3375029305148068
  0.7893563422340300  0.8240990787200481  0.3717600949914539
  0.8090643901053827  0.7556324237090538  0.2991115788148843
  0.8338509320636582  0.7698492831912651  0.3395712630087211
  0.8141366816825475  0.7812204032381855  0.3717844210111231
  0.8338529841386455  0.7470545139785097  0.3717600949914539
  0.7448467060203738  0.8440087850645177  0.3375255288874855
  0.7893423158698122  0.7954336388143420  0.4122500308502596
  0.7893409464926820  0.8181329315691331  0.4828830645705625
  0.7448336996759661  0.8210179944374189  0.4849287986917979
  0.7696233954248380  0.7839715575646162  0.4828532585717980
  0.7448359180902239  0.7697552518899482  0.4423935275728348
  0.7645495229928845  0.7583832552511913  0.4101816983563452
  0.7448347317311433  0.7925485759460563  0.4102042967290241
  0.7696280654887014  0.8068047588612626  0.4444631888526615
  0.7893443679447995  0.7726388696015866  0.4444388628329924
  0.8090557377544223  0.7839676108742683  0.4828604661978838
  0.8090619886730749  0.8068011349552076  0.4444691144979612
  0.8141320116186845  0.7583872019415391  0.4101744907302596
  0.8338495626865281  0.7925485759460563  0.4102042967290241
  0.8535643539482688  0.7583832552511913  0.4101816983563452
  0.8338507490456087  0.7697552518899482  0.4423935275728348
  0.8586382263802228  0.7839715575646162  0.4828532585717980
  0.8090500143838444  0.7553409258367459  0.5171478823394997
  0.7645533724792288  0.8323854905782847  0.5171478823394997
  0.7448357517509531  0.7982232252246635  0.5171176306745308
  0.7696160911994709  0.7553445497428011  0.5171419566942000
  0.7893421328517618  0.7953396075130251  0.5150722954143732
  0.7645471215605762  0.8095519664973453  0.5555392340394222
  0.7893289722034511  0.7666727224506714  0.5555618324121010
  0.7448217253867347  0.7695577853189575  0.5576075665333365
  0.7893419665124918  0.8238075808477404  0.5897963985160694
  0.7448237774617226  0.7467630161062018  0.5897963985160694
  0.7448335166579158  0.8209239631361021  0.5877510632559118
  0.8141342802502397  0.8323891144843395  0.5171419566942000
  0.8338505827063378  0.7982232252246635  0.5171176306745308
  0.8141296101863768  0.8095559131876933  0.5555320264133365
  0.8338365563421196  0.7695577853189575  0.5576075665333365
  0.8338386084171069  0.7467630161062018  0.5897963985160694
  0.8141223059610088  0.7809289053658780  0.5898207245357385
  0.7645590958498067  0.8610121756158070  0.4828604661978838
  0.7893541071409927  0.8467998166314868  0.4423935275728348
  0.7448477260401839  0.8496834343431250  0.4444388628329924
  0.7696353697140694  0.8354317666830779  0.4101744907302596
  0.7448456739651966  0.8724782035558806  0.4122500308502596
  0.7448454909471467  0.8723841722545637  0.5150722954143732
  0.7448323302988356  0.8437172871922101  0.5555618324121010
  0.7696256640563937  0.8579734701074164  0.5898207245357385
  0.7893399144375045  0.8466023500604958  0.5576075665333365
  0.7893084450771072  0.6182582422462020  0.6624751663576077
  0.7892954507680665  0.5611233838491331  0.6282406002536393
  0.7447988088634514  0.6381679485906716  0.6282406002536393
  0.7645016258359608  0.5525424187773452  0.7008967697224990
  0.7695874725571462  0.6295909302092317  0.7008895620964134
  0.7645136001251917  0.6040026278958069  0.6282180018809608
  0.7447999952225316  0.6153746245345636  0.6604298310974501
  0.7447882039513507  0.5640084467174190  0.6302863343748750
  0.7645078767546133  0.5753759428582846  0.6625054180225765
  0.8090198148867300  0.6295869835188838  0.7008967697224990
  0.8535284310805764  0.6040026278958069  0.6282180018809608
  0.8140960887509923  0.6040065745861549  0.6282107942548749
  0.8535346819992286  0.6268361519767458  0.5898266501810381
  0.8338030349067350  0.5640084467174190  0.6302863343748750
  0.8783102817234513  0.5611233838491331  0.6282406002536393
  0.8338136398188357  0.6381679485906716  0.6282406002536393
  0.8338148261779164  0.6153746245345636  0.6604298310974501
  0.8783232760324915  0.6182582422462020  0.6624751663576077
  0.8140887845256246  0.5753795667643393  0.6624994923772769
  0.8535227077099982  0.5753759428582846  0.6625054180225765
  0.8535164567913456  0.5525424187773452  0.7008967697224990
  0.8140841144617613  0.5525463654676934  0.7008895620964134
  0.8586023035125305  0.6295909302092317  0.7008895620964134
  0.7695994468463767  0.6810511393276932  0.6282107942548749
  0.7645231729821149  0.7066315482604222  0.7008967697224990
  0.7448097510975048  0.7180975762004957  0.6302863343748750
  0.7695921426210091  0.6524241315058777  0.6624994923772769
  0.7448118031724916  0.6953028069877403  0.6624751663576077
  0.7645294239007675  0.7294650723413617  0.6625054180225765
  0.7893169979142202  0.7152125133322100  0.6282406002536393
  0.7893063930021199  0.6410530114589573  0.6302863343748750
  0.8090260658053826  0.6524205075998232  0.6625054180225765
  0.7893181842733004  0.6924191892761021  0.6604298310974501
  0.8783212239575042  0.6410530114589573  0.6302863343748750
  0.8090380400946134  0.7038807167182842  0.5898266501810381
  0.8586142778017615  0.6810511393276932  0.6282107942548749
  0.8090317891759609  0.6810471926373453  0.6282180018809608
  0.8338245820528891  0.7180975762004957  0.6302863343748750
  0.8338266341278764  0.6953028069877403  0.6624751663576077
  0.8535442548561518  0.7294650723413617  0.6625054180225765
  0.8535380039374992  0.7066315482604222  0.7008967697224990
  0.8141056616079154  0.7066354949507702  0.7008895620964134
  0.8141103316717783  0.7294686962474163  0.6624994923772769
  0.8586069735763938  0.6524241315058777  0.6624994923772769
  0.7447880209333002  0.5639144154161021  0.7331085989389885
  0.7892944187128890  0.5895928023404959  0.7029651022164133
  0.7447868345742205  0.5867077394722101  0.7009193680951779
  0.7893062099840694  0.6409589801576403  0.7331085989389885
  0.7892964707878762  0.5667980331277405  0.7351539341991460
  0.7447998288832607  0.6438425978692789  0.7351539341991460
  0.7695801683317781  0.6009639223874162  0.7351782602188154
  0.7892930493357588  0.6122920950952868  0.7735981359367161
  0.8090078405974995  0.5781267744004224  0.7735755375640375
  0.7695754982679153  0.5781307210907703  0.7735683299379519
  0.7447858025190429  0.6151771579635728  0.7756438700579519
  0.8090140915161517  0.6009602984813615  0.7351841858641148
  0.8338016655296049  0.5867077394722101  0.7009193680951779
  0.8585903292233000  0.5781307210907703  0.7735683299379519
  0.8338028518886850  0.5639144154161021  0.7331085989389885
  0.8585949992871629  0.6009639223874162  0.7351782602188154
  0.8338006334744277  0.6151771579635728  0.7756438700579519
  0.8338146598386454  0.6438425978692789  0.7351539341991460
  0.7447964074311437  0.6893366598368253  0.7735981359367161
  0.7645111986928840  0.6551713391419607  0.7735755375640375
  0.7893050236249901  0.6637523042137488  0.7009193680951779
  0.7645174496115361  0.6780048632228999  0.7351841858641148
  0.7447977768082739  0.6666373670820342  0.7029651022164133
  0.7893039915698121  0.6922217227051114  0.7756438700579519
  0.7448095680794543  0.7180035448991788  0.7331085989389885
  0.7893159658590431  0.7436819318235728  0.7029651022164133
  0.7448083817203742  0.7407968689552871  0.7009193680951779
  0.7695970454140689  0.7322198505738471  0.7735683299379519
  0.7893180179340299  0.7208871626108174  0.7351539341991460
  0.8535322805669209  0.6780048632228999  0.7351841858641148
  0.8140983573825478  0.6780084871289549  0.7351782602188154
  0.8783198545803750  0.6637523042137488  0.7009193680951779
  0.8338232126757590  0.7407968689552871  0.7009193680951779
  0.8338126077636586  0.6666373670820342  0.7029651022164133
  0.8140936873186845  0.6551752858323087  0.7735683299379519
  0.9228178658621198  0.5640084467174190  0.6302863343748750
  0.9031109197063766  0.6040065745861549  0.6282107942548749
  0.9031036154810094  0.5753795667643393  0.6624994923772769
  0.8980408967607674  0.6524205075998232  0.6625054180225765
  0.8783318288696049  0.7152125133322100  0.6282406002536393
  0.8783330152286851  0.6924191892761021  0.6604298310974501
  0.8980528710499979  0.7038807167182842  0.5898266501810381
  0.8980466201313457  0.6810471926373453  0.6282180018809608
  0.7645351472713453  0.7580917573788839  0.6282180018809608
  0.7696209939925308  0.8351402688107702  0.6282107942548749
  0.7645413981899979  0.7809252814598225  0.5898266501810381
  0.7893279401482740  0.7951421409420343  0.6302863343748750
  0.7448203560096046  0.7922570780737483  0.6282406002536393
  0.7448215423686853  0.7694637540176406  0.6604298310974501
  0.7893299922232608  0.7723473717292787  0.6624751663576077
  0.7696136897671627  0.8065132609889549  0.6624994923772769
  0.7696090197033003  0.7836800596923087  0.7008895620964134
  0.8141176358971464  0.7580957040692319  0.6282107942548749
  0.8535499782267302  0.7580917573788839  0.6282180018809608
  0.8535562291453827  0.7809252814598225  0.5898266501810381
  0.8338363733240700  0.7694637540176406  0.6604298310974501
  0.7696017154779322  0.7550530518704932  0.7351782602188154
  0.7448073496651966  0.7692662874466497  0.7756438700579519
  0.7448213760294143  0.7979317273523557  0.7351539341991460
  0.7448193239544280  0.8207264965651112  0.7029651022164133
  0.7448333503186457  0.8493919364708172  0.6624751663576077
  0.7447844331419128  0.6378764507183640  0.8462769037782548
  0.7447738282298124  0.5637169488451113  0.8483226378994904
  0.7892810750465279  0.5608318859768253  0.8462769037782548
  0.7644992244036530  0.6037111300234992  0.8462543054055759
  0.7645054753223056  0.6265446541044384  0.8078629537056534
  0.7447878545940302  0.5923823887508172  0.8078327020406846
  0.7892942356948389  0.5894987710391790  0.8057873667805271
  0.8140863830933165  0.6265482780104934  0.8078570280603538
  0.7447975937902238  0.6665433357807173  0.8057873667805271
  0.7695897411887014  0.7035928427520317  0.8078570280603538
  0.7893060436447994  0.6694269534923557  0.8078327020406846
  0.5223193701498122  0.9495227682974190  0.4122500308502596
  0.4333043561763775  0.9494287369961023  0.5150722954143732
  0.4778128060309531  0.9523123547077404  0.5171176306745308
  0.5668276369863376  0.9523123547077404  0.5171176306745308
  0.1858633310498070  0.2187798041881147  0.6282180018809608
  0.1413609657746130  0.2671976838921308  0.6625054180225765
  0.1661485397880660  0.2529451248829792  0.6282406002536393
  0.1661497261471468  0.2301518008268713  0.6604298310974501
  0.1909372034817614  0.2443681065015395  0.7008895620964134
  0.2748661877159606  0.1673195950696528  0.7008967697224990
  0.2106547545496050  0.2785294805060562  0.7009193680951779
  0.2303695458113452  0.2443641598111916  0.7008967697224990
  0.2106451816926816  0.1759005601414407  0.6282406002536393
  0.2551513964542201  0.2014849157645177  0.7009193680951779
  0.2106441496375042  0.2043699786328037  0.7029651022164133
  0.2106559409086851  0.2557361564499482  0.7331085989389885
  0.2303638224407669  0.2157374747736691  0.7351841858641148
  0.2354434182432997  0.2699524621246165  0.7735683299379519
  0.2551503643990427  0.2299543342558805  0.7756438700579519
  0.2748700372023054  0.2413218303967461  0.8078629537056534
  0.2748757605728838  0.2699485154342686  0.7735755375640375
  0.2996576112157582  0.2270692713875947  0.7735981359367161
  0.3441638259772971  0.2526536270106716  0.8462769037782548
  0.1413666891451914  0.2958243689296530  0.6282180018809608
  0.1216518978834509  0.3299896896245177  0.6282406002536393
  0.0968700472405761  0.3728689336711914  0.6282180018809608
  0.0771552559788356  0.4070342543660561  0.6282406002536393
  0.1216508658282735  0.3584591081158806  0.7029651022164133
  0.1216530842425311  0.3071963655684097  0.6604298310974501
  0.1464405615771457  0.3214126712430783  0.7008895620964134
  0.1661475077328887  0.2814145433743420  0.7029651022164133
  0.1661581126449894  0.3555740452475946  0.7009193680951779
  0.1858729039067299  0.3214087245527299  0.7008967697224990
  0.1413762620021146  0.3984532892942685  0.7008967697224990
  0.1019439196725308  0.3984572359846165  0.7008895620964134
  0.1216614707403739  0.4326186099891334  0.7009193680951779
  0.0968796200974992  0.4754978540358069  0.7008967697224990
  0.1661592990040694  0.3327807211914868  0.7331085989389885
  0.1858671805361518  0.2927820395152077  0.7351841858641148
  0.1909467763386842  0.3469970268661552  0.7735683299379519
  0.2106537224944276  0.3069988989974189  0.7756438700579519
  0.2106655137656081  0.3583650768145637  0.8057873667805271
  0.2303733952976901  0.3183663951382845  0.8078629537056534
  0.2551621556702237  0.2813205120730252  0.8057873667805271
  0.2551609693111433  0.3041138361291331  0.7735981359367161
  0.2303791186682678  0.3469930801758070  0.7735755375640375
  0.1216626570994543  0.4098252859330249  0.7331085989389885
  0.1413705386315362  0.3698266042567462  0.7351841858641148
  0.1464501344340693  0.4240415916076933  0.7735683299379519
  0.1661688718609926  0.4354096415561021  0.8057873667805271
  0.1661570805898119  0.3840434637389575  0.7756438700579519
  0.1661676855019126  0.4582029656122101  0.7735981359367161
  0.1858767533930747  0.3954109598798228  0.8078629537056534
  0.1858824767636529  0.4240376449173454  0.7735755375640375
  0.2106643274065277  0.3811584008706715  0.7735981359367161
  0.2303886915251914  0.4496220005404223  0.8462543054055759
  0.2106739002634509  0.4837873212352869  0.8462769037782548
  0.2996671840726818  0.3296981917522100  0.8462769037782548
  0.2799496330048380  0.2955368177476933  0.8462470977794903
  0.2551599372559657  0.3325832546204958  0.8483226378994904
  0.3193819753344225  0.2955328710573453  0.8462543054055759
  0.2354529911002229  0.3725813824892319  0.8462470977794903
  0.2748853334298068  0.3725774357988837  0.8462543054055759
  0.2551705421680662  0.4067427564937484  0.8462769037782548
  0.1413858348590378  0.5010822096588837  0.7735755375640375
  0.2996997063251963  0.2564131834958805  0.1942137273256442
  0.2997137326894146  0.2850786234015866  0.1537237914668385
  0.3244894020740687  0.2193667466230778  0.1921381872056442
  0.3442069531419127  0.2535281206275946  0.1921679932044087
  0.3639279953223060  0.2421963240136692  0.1537540431318070
  0.3639217444036529  0.2193627999327298  0.1921453948317297
  0.3442201137902233  0.2821950056899487  0.1516784562066809
  0.2304102715436526  0.2964073646742682  0.1921453948317297
  0.2106954802819123  0.3305726853691331  0.1921679932044087
  0.2552030644205812  0.3334577482374189  0.1942137273256442
  0.2552170907847990  0.3621231881431249  0.1537237914668385
  0.1859136296390375  0.3734519294158068  0.1921453948317297
  0.2354961182648380  0.3734558761061548  0.1921381872056442
  0.2552256436219125  0.4590774592291332  0.1194892253628699
  0.2552268299809927  0.4362841351730251  0.1516784562066809
  0.2552136693326816  0.4076172501106715  0.1921679932044087
  0.2355007883287014  0.3962890774028009  0.1537481174865073
  0.2107064225159657  0.4105023129789575  0.1942137273256442
  0.1909994763602229  0.4505004408476934  0.1921381872056442
  0.2552246115667349  0.4875468777204956  0.1942137273256442
  0.2107170274280669  0.4846618148522100  0.1921679932044087
  0.1662097806113501  0.4875468777204956  0.1942137273256442
  0.3442189274311427  0.3049883297460562  0.1194892253628699
  0.2997222855265280  0.3820328944875946  0.1194892253628699
  0.3194370767882683  0.3478675737927299  0.1194666269901914
  0.3690242354779317  0.3707047217797238  0.0810693496449690
  0.3690195654140688  0.3478715204830777  0.1194594193641056
  0.2799927601694536  0.2964113113646164  0.1921381872056442
  0.2749284605944218  0.3734519294158068  0.1921453948317297
  0.2997103112372976  0.3305726853691331  0.1921679932044087
  0.2799974302333165  0.3192445126612626  0.1537481174865073
  0.3194251024990374  0.2964073646742682  0.1921453948317297
  0.2997234718856078  0.3592395704314866  0.1516784562066809
  0.3194313534176904  0.3192408887552076  0.1537540431318070
  0.3442178953759660  0.3334577482374189  0.1942137273256442
  0.3245109492202228  0.3734558761061548  0.1921381872056442
  0.3442319217401842  0.3621231881431249  0.1537237914668385
  0.3639432915498066  0.3734519294158068  0.1921453948317297
  0.3690075911248383  0.2964113113646164  0.1921381872056442
  0.3690122611887008  0.3192445126612626  0.1537481174865073
  0.2997332277605809  0.4619625220974189  0.1215349594841058
  0.2749404348836527  0.4249121385342682  0.1194666269901914
  0.3245229235094537  0.4249160852246162  0.1194594193641056
  0.3245275935733166  0.4477492865212624  0.0810693496449690
  0.3442298696651960  0.3849179573558808  0.1215349594841058
  0.3442404745772972  0.4590774592291332  0.1194892253628699
  0.3639615167576901  0.4477456626152077  0.0810752752902689
  0.3442438960294142  0.4135833972615866  0.0810450236253001
  0.3639552658390375  0.4249121385342682  0.1194666269901914
  0.2997352798355682  0.4391677528846635  0.1537237914668385
  0.3442416609363770  0.4362841351730251  0.1516784562066809
  0.3245156192840857  0.3962890774028009  0.1537481174865073
  0.3442285002880663  0.4076172501106715  0.1921679932044087
  0.2749347115130749  0.3962854534967459  0.1537540431318070
  0.2997212534713504  0.4105023129789575  0.1942137273256442
  0.3639495424684592  0.3962854534967459  0.1537540431318070
  0.3194466496451910  0.4504964941573453  0.1921453948317297
  0.2800143073156072  0.4505004408476934  0.1921381872056442
  0.2997318583834508  0.4846618148522100  0.1921679932044087
  0.3194529005638441  0.4733300182382845  0.1537540431318070
  0.2800189773794706  0.4733336421443393  0.1537481174865073
  0.3442394425221197  0.4875468777204956  0.1942137273256442
  0.3887035950465278  0.1764835558860562  0.1921679932044087
  0.4332111791851962  0.1793686187543421  0.1942137273256442
  0.4777184260019121  0.1764835558860562  0.1921679932044087
  0.4529485496482682  0.2708230090511913  0.1194666269901914
  0.4135162073186844  0.2708269557415395  0.1194594193641056
  0.4529428262776907  0.2421963240136692  0.1537540431318070
  0.4332252055494145  0.2080340586600482  0.1537237914668385
  0.4135042330294530  0.2193667466230778  0.1921381872056442
  0.4777315866502228  0.2051504409484098  0.1516784562066809
  0.4529365753590373  0.2193627999327298  0.1921453948317297
  0.4135089030933168  0.2421999479197240  0.1537481174865073
  0.4332217840972970  0.2535281206275946  0.1921679932044087
  0.3887145372805811  0.2564131834958805  0.1942137273256442
  0.3887285636447994  0.2850786234015866  0.1537237914668385
  0.4777293682359659  0.2564131834958805  0.1942137273256442
  0.4332349447456081  0.2821950056899487  0.1516784562066809
  0.5222260101405810  0.1793686187543421  0.1942137273256442
  0.5667332569572969  0.1764835558860562  0.1921679932044087
  0.5025310382740692  0.2708269557415395  0.1194594193641056
  0.5419633806036529  0.2708230090511913  0.1194666269901914
  0.4777433946001837  0.2850786234015866  0.1537237914668385
  0.5222400365047992  0.2080340586600482  0.1537237914668385
  0.5025190639848374  0.2193667466230778  0.1921381872056442
  0.5025237340487015  0.2421999479197240  0.1537481174865073
  0.5222366150526818  0.2535281206275946  0.1921679932044087
  0.5222497757009924  0.2821950056899487  0.1516784562066809
  0.5419514063144221  0.2193627999327298  0.1921453948317297
  0.5667464176056075  0.2051504409484098  0.1516784562066809
  0.5419576572330751  0.2421963240136692  0.1537540431318070
  0.5667441991913507  0.2564131834958805  0.1942137273256442
  0.5667582255555684  0.2850786234015866  0.1537237914668385
  0.5915338949402221  0.2193667466230778  0.1921381872056442
  0.4332566749098117  0.4363781664743420  0.0488561916425670
  0.4529820710836532  0.4763723476527300  0.0467878591486528
  0.4777639217265280  0.4334931036060561  0.0468104575213315
  0.5419969020390375  0.4763723476527300  0.0467878591486528
  0.5222715058651966  0.4363781664743420  0.0488561916425670
  0.3887265115698120  0.3078733926143422  0.1215349594841058
  0.4084519077436531  0.3478675737927299  0.1194666269901914
  0.4084581586623057  0.3707010978736691  0.0810752752902689
  0.3887371164819119  0.3820328944875946  0.1194892253628699
  0.4332337583865275  0.3049883297460562  0.1194892253628699
  0.4332469190348386  0.3336552148084099  0.0789996883651423
  0.4580390664333165  0.3707047217797238  0.0810693496449690
  0.4580343963694536  0.3478715204830777  0.1194594193641056
  0.4777519474372967  0.3820328944875946  0.1194892253628699
  0.4777413425251968  0.3078733926143422  0.1215349594841058
  0.4777553688894146  0.3365388325200480  0.0810450236253001
  0.4332327263313507  0.3334577482374189  0.1942137273256442
  0.4135257801756075  0.3734558761061548  0.1921381872056442
  0.4084399334544221  0.2964073646742682  0.1921453948317297
  0.3887251421926819  0.3305726853691331  0.1921679932044087
  0.3887383028409925  0.3592395704314866  0.1516784562066809
  0.4084461843730752  0.3192408887552076  0.1537540431318070
  0.4332467526955690  0.3621231881431249  0.1537237914668385
  0.4529581225051914  0.3734519294158068  0.1921453948317297
  0.4580224220802231  0.2964113113646164  0.1921381872056442
  0.4580270921440855  0.3192445126612626  0.1537481174865073
  0.4777399731480667  0.3305726853691331  0.1921679932044087
  0.4777531337963773  0.3592395704314866  0.1516784562066809
  0.4332587269847991  0.4135833972615866  0.0810450236253001
  0.3887502771302230  0.4106997795499482  0.0789996883651423
  0.4529763477130749  0.4477456626152077  0.0810752752902689
  0.4135424245287009  0.4477492865212624  0.0810693496449690
  0.4135377544648380  0.4249160852246162  0.1194594193641056
  0.4529700967944223  0.4249121385342682  0.1194666269901914
  0.4332553055326820  0.4590774592291332  0.1194892253628699
  0.4332447006205808  0.3849179573558808  0.1215349594841058
  0.3887480587159661  0.4619625220974189  0.1215349594841058
  0.4332564918917617  0.4362841351730251  0.1516784562066809
  0.3887501107909530  0.4391677528846635  0.1537237914668385
  0.3690338083348549  0.4733336421443393  0.1537481174865073
  0.3887360844267352  0.4105023129789575  0.1942137273256442
  0.4084677315192284  0.4733300182382845  0.1537540431318070
  0.4084614806005758  0.4504964941573453  0.1921453948317297
  0.3887466893388360  0.4846618148522100  0.1921679932044087
  0.3690291382709920  0.4505004408476934  0.1921381872056442
  0.4135304502394700  0.3962890774028009  0.1537481174865073
  0.4332433312434511  0.4076172501106715  0.1921679932044087
  0.4332542734775044  0.4875468777204956  0.1942137273256442
  0.4580439692263764  0.4505004408476934  0.1921381872056442
  0.4529643734238439  0.3962854534967459  0.1537540431318070
  0.4777509153821196  0.4105023129789575  0.1942137273256442
  0.4580486392902393  0.4733336421443393  0.1537481174865073
  0.4777615202942203  0.4846618148522100  0.1921679932044087
  0.5222595315759656  0.3849179573558808  0.1215349594841058
  0.5222485893419127  0.3049883297460562  0.1194892253628699
  0.4974667386990374  0.3478675737927299  0.1194666269901914
  0.4974729896176904  0.3707010978736691  0.0810752752902689
  0.5222617499902233  0.3336552148084099  0.0789996883651423
  0.5470492273248384  0.3478715204830777  0.1194594193641056
  0.5470538973887012  0.3707047217797238  0.0810693496449690
  0.5667561734805812  0.3078733926143422  0.1215349594841058
  0.5667667783926819  0.3820328944875946  0.1194892253628699
  0.5667701998447989  0.3365388325200480  0.0810450236253001
  0.5864815696544222  0.3478675737927299  0.1194666269901914
  0.5864878205730747  0.3707010978736691  0.0810752752902689
  0.5667548041034515  0.3305726853691331  0.1921679932044087
  0.4974610153284599  0.3192408887552076  0.1537540431318070
  0.5470372530356075  0.2964113113646164  0.1921381872056442
  0.5470419230994703  0.3192445126612626  0.1537481174865073
  0.5864695953651913  0.2964073646742682  0.1921453948317297
  0.4974547644098069  0.2964073646742682  0.1921453948317297
  0.5864758462838443  0.3192408887552076  0.1537540431318070
  0.5222475572867351  0.3334577482374189  0.1942137273256442
  0.5667679647517621  0.3592395704314866  0.1516784562066809
  0.5222615836509533  0.3621231881431249  0.1537237914668385
  0.5419729534605762  0.3734519294158068  0.1921453948317297
  0.5025406111309919  0.3734558761061548  0.1921381872056442
  0.5419792043792288  0.3962854534967459  0.1537540431318070
  0.5025572554840857  0.4477492865212624  0.0810693496449690
  0.4777628896713504  0.4619625220974189  0.1215349594841058
  0.4777651080856082  0.4106997795499482  0.0789996883651423
  0.5025525854202229  0.4249160852246162  0.1194594193641056
  0.5222701364880663  0.4590774592291332  0.1194892253628699
  0.5222713228471465  0.4362841351730251  0.1516784562066809
  0.5419849277498067  0.4249121385342682  0.1194666269901914
  0.5667777206267353  0.4619625220974189  0.1215349594841058
  0.5667799390409926  0.4106997795499482  0.0789996883651423
  0.5419911786684596  0.4477456626152077  0.0810752752902689
  0.5222735579401838  0.4135833972615866  0.0810450236253001
  0.4974825624746131  0.4733300182382845  0.1537540431318070
  0.4777649417463378  0.4391677528846635  0.1537237914668385
  0.4974763115559606  0.4504964941573453  0.1921453948317297
  0.5222691044328888  0.4875468777204956  0.1942137273256442
  0.5025452811948552  0.3962890774028009  0.1537481174865073
  0.5222581621988355  0.4076172501106715  0.1921679932044087
  0.5470588001817616  0.4505004408476934  0.1921381872056442
  0.5667657463375043  0.4105023129789575  0.1942137273256442
  0.5470634702456240  0.4733336421443393  0.1537481174865073
  0.5667763512496051  0.4846618148522100  0.1921679932044087
  0.5667797727017225  0.4391677528846635  0.1537237914668385
  0.5864911425113454  0.4504964941573453  0.1921453948317297
  0.5864973934299980  0.4733300182382845  0.1537540431318070
  0.6112408410959658  0.1793686187543421  0.1942137273256442
  0.6309662372698068  0.2193627999327298  0.1921453948317297
  0.6309724881884599  0.2421963240136692  0.1537540431318070
  0.5915385650040863  0.2421999479197240  0.1537481174865073
  0.6112514460080666  0.2535281206275946  0.1921679932044087
  0.6557590301467350  0.2564131834958805  0.1942137273256442
  0.5915458692294535  0.2708269557415395  0.1194594193641056
  0.6112646066563772  0.2821950056899487  0.1516784562066809
  0.7002794376117615  0.2821950056899487  0.1516784562066809
  0.6805487258956073  0.2193667466230778  0.1921381872056442
  0.7002662769634513  0.2535281206275946  0.1921679932044087
  0.6360687283440856  0.3707047217797238  0.0810693496449690
  0.6360640582802232  0.3478715204830777  0.1194594193641056
  0.6112634202972971  0.3049883297460562  0.1194892253628699
  0.6360520839909922  0.2964113113646164  0.1921381872056442
  0.6557730565109532  0.2850786234015866  0.1537237914668385
  0.6360567540548551  0.3192445126612626  0.1537481174865073
  0.6557710044359664  0.3078733926143422  0.1215349594841058
  0.6557696350588362  0.3305726853691331  0.1921679932044087
  0.6112764146063381  0.3621231881431249  0.1537237914668385
  0.6112623882421194  0.3334577482374189  0.1942137273256442
  0.6309877844159609  0.3734519294158068  0.1921453948317297
  0.5915554420863767  0.3734558761061548  0.1921381872056442
  0.6557816093480663  0.3820328944875946  0.1194892253628699
  0.6754844263205760  0.2964073646742682  0.1921453948317297
  0.7250669149463765  0.2964113113646164  0.1921381872056442
  0.7002772191975042  0.3334577482374189  0.1942137273256442
  0.6754906772392291  0.3192408887552076  0.1537540431318070
  0.7250715850102399  0.3192445126612626  0.1537481174865073
  0.6754964006098070  0.3478675737927299  0.1194666269901914
  0.6557827957071464  0.3592395704314866  0.1516784562066809
  0.7002912455617228  0.3621231881431249  0.1537237914668385
  0.7200026153713452  0.3734519294158068  0.1921453948317297
  0.6805702730417614  0.3734558761061548  0.1921381872056442
  0.7002891934867356  0.3849179573558808  0.1215349594841058
  0.6557947699963773  0.4106997795499482  0.0789996883651423
  0.6805869173948548  0.4477492865212624  0.0810693496449690
  0.6557805772928886  0.4105023129789575  0.1942137273256442
  0.6112729931542202  0.4076172501106715  0.1921679932044087
  0.6309940353346131  0.3962854534967459  0.1537540431318070
  0.5915601121502395  0.3962890774028009  0.1537481174865073
  0.6112743625313499  0.3849179573558808  0.1215349594841058
  0.6112861538025313  0.4362841351730251  0.1516784562066809
  0.6309997587051914  0.4249121385342682  0.1194666269901914
  0.6360736311371459  0.4505004408476934  0.1921381872056442
  0.6557925515821196  0.4619625220974189  0.1215349594841058
  0.6360783012010088  0.4733336421443393  0.1537481174865073
  0.6112839353882735  0.4875468777204956  0.1942137273256442
  0.6557911822049899  0.4846618148522100  0.1921679932044087
  0.7002878241096050  0.4076172501106715  0.1921679932044087
  0.6805749431056244  0.3962890774028009  0.1537481174865073
  0.7200088662899978  0.3962854534967459  0.1537540431318070
  0.6557946036571068  0.4391677528846635  0.1537237914668385
  0.7003009847579152  0.4362841351730251  0.1516784562066809
  0.7200145896605762  0.4249121385342682  0.1194666269901914
  0.6805822473309924  0.4249160852246162  0.1194594193641056
  0.6755059734667301  0.4504964941573453  0.1921453948317297
  0.7002987663436578  0.4875468777204956  0.1942137273256442
  0.7002997983988359  0.4590774592291332  0.1194892253628699
  0.7250931321563936  0.4733336421443393  0.1537481174865073
  0.7250884620925306  0.4505004408476934  0.1921381872056442
  0.6755122243853823  0.4733300182382845  0.1537540431318070
  0.7447738611021197  0.2564131834958805  0.1942137273256442
  0.7447976266625308  0.3592395704314866  0.1516784562066809
  0.7447844660142205  0.3305726853691331  0.1921679932044087
  0.7644992572759608  0.2964073646742682  0.1921453948317297
  0.7892920501528889  0.3334577482374189  0.1942137273256442
  0.7893158157133000  0.4362841351730251  0.1516784562066809
  0.7695851039971457  0.3734558761061548  0.1921381872056442
  0.7447954082482734  0.4105023129789575  0.1942137273256442
  0.8338102392036582  0.4105023129789575  0.1942137273256442
  0.7448073825375043  0.4619625220974189  0.1215349594841058
  0.7448060131603742  0.4846618148522100  0.1921679932044087
  0.7645208044221145  0.4504964941573453  0.1921453948317297
  0.7645270553407670  0.4733300182382845  0.1537540431318070
  0.7448094346124920  0.4391677528846635  0.1537237914668385
  0.7893135972990426  0.4875468777204956  0.1942137273256442
  0.8338208441157590  0.4846618148522100  0.1921679932044087
  0.8141032930479154  0.4505004408476934  0.1921381872056442
  0.1662203855234509  0.5617063795937485  0.1921679932044087
  0.1859351767851916  0.5275410588988837  0.1921453948317297
  0.2107279696621198  0.5645914424620342  0.1942137273256442
  0.2107301880763771  0.5133286999145638  0.1516784562066809
  0.2355176654109921  0.5275450055892317  0.1921381872056442
  0.2107419960263376  0.5932568823677402  0.1537237914668385
  0.2107385745742201  0.6387509443352868  0.1921679932044087
  0.1910210235063766  0.6045895703307703  0.1921381872056442
  0.2304596167546134  0.6274191477213612  0.1537540431318070
  0.2304533658359608  0.6045856236404223  0.1921453948317297
  0.2355392125571458  0.6816341350723086  0.1921381872056442
  0.3442536352256079  0.4877443442914868  0.0789996883651423
  0.3194648748530746  0.5247902273567460  0.0810752752902689
  0.3442654431755684  0.5676725267446634  0.0810450236253001
  0.3639830639038438  0.6018347920982844  0.0810752752902689
  0.2997450190317619  0.5133286999145638  0.1516784562066809
  0.2800262816048382  0.5019606499661549  0.1194594193641056
  0.2997438326726817  0.5361220239706715  0.1194892253628699
  0.2552365858559658  0.5390070868389575  0.1215349594841058
  0.2997428006175041  0.5645914424620342  0.1942137273256442
  0.2997568269817223  0.5932568823677402  0.1537237914668385
  0.2749619820298069  0.5790012680173454  0.1194666269901914
  0.2552483771271463  0.5903732646561021  0.1516784562066809
  0.3194586239344224  0.5019567032758069  0.1194666269901914
  0.3245444706556074  0.5790052147076934  0.1194594193641056
  0.3639768129851912  0.5790012680173454  0.1194666269901914
  0.3442514168113501  0.5390070868389575  0.1215349594841058
  0.3442632080825311  0.5903732646561021  0.1516784562066809
  0.3442534688863379  0.5162123176262019  0.1537237914668385
  0.3245371664302398  0.5503782068858779  0.1537481174865073
  0.3442500474342204  0.5617063795937485  0.1921679932044087
  0.3245324963663764  0.5275450055892317  0.1921381872056442
  0.3639710896146133  0.5503745829798229  0.1537540431318070
  0.3639648386959607  0.5275410588988837  0.1921453948317297
  0.2997547749067341  0.6160516515804961  0.1215349594841058
  0.3442620217234509  0.6131665887122099  0.1194892253628699
  0.3194801710805761  0.6560458327588837  0.1194666269901914
  0.2997665661779155  0.6674178293976405  0.1516784562066809
  0.3442750160324916  0.6703014471092789  0.1537237914668385
  0.3442729639575042  0.6930962163220342  0.1215349594841058
  0.2552601850771072  0.6703014471092789  0.1537237914668385
  0.2800358544617613  0.6045895703307703  0.1921381872056442
  0.2749715548867300  0.6816301883819607  0.1921453948317297
  0.2552461587128890  0.6416360072035727  0.1942137273256442
  0.2997534055296049  0.6387509443352868  0.1921679932044087
  0.2800405245256242  0.6274227716274164  0.1537481174865073
  0.3194681967913451  0.6045856236404223  0.1921453948317297
  0.3194744477099977  0.6274191477213612  0.1537540431318070
  0.3245540435125306  0.6816341350723086  0.1921381872056442
  0.3245587135763935  0.7044673363689549  0.1537481174865073
  0.3639863858421143  0.6816301883819607  0.1921453948317297
  0.3442609896682733  0.6416360072035727  0.1942137273256442
  0.3639926367607674  0.7044637124629001  0.1537540431318070
  0.4332672798219125  0.5105376683475944  0.0468104575213315
  0.4084797058084598  0.5247902273567460  0.0810752752902689
  0.3887718242763771  0.5647889090330251  0.0789996883651423
  0.4580679178048382  0.5534208590846167  0.0467806515225673
  0.4777866552317619  0.5647889090330251  0.0789996883651423
  0.4777769160355683  0.4906279620031250  0.0810450236253001
  0.4580606135794701  0.5247938512628010  0.0810693496449690
  0.4332802741309527  0.5676725267446634  0.0810450236253001
  0.4332684661809922  0.4877443442914868  0.0789996883651423
  0.4135639716748550  0.6018384160043396  0.0810693496449690
  0.4529978948592285  0.6018347920982844  0.0810752752902689
  0.4332900133271463  0.6418334737745636  0.0789996883651423
  0.3887836322263376  0.6447170914862019  0.0810450236253001
  0.4580821607256242  0.6788829807458779  0.0810693496449690
  0.4777984631817219  0.6447170914862019  0.0810450236253001
  0.3887598499871462  0.5133286999145638  0.1516784562066809
  0.4135473273217612  0.5275450055892317  0.1921381872056442
  0.4332662477667349  0.5390070868389575  0.1215349594841058
  0.4332682998417218  0.5162123176262019  0.1537237914668385
  0.4580559435156072  0.5019606499661549  0.1194594193641056
  0.4529796696513450  0.5275410588988837  0.1921453948317297
  0.4777734945834508  0.5361220239706715  0.1194892253628699
  0.4777746809425309  0.5133286999145638  0.1516784562066809
  0.4084830277467299  0.6045856236404223  0.1921453948317297
  0.3887716579371067  0.5932568823677402  0.1537237914668385
  0.3887576315728889  0.5645914424620342  0.1942137273256442
  0.4135519973856241  0.5503782068858779  0.1537481174865073
  0.4135593016109917  0.5790052147076934  0.1194594193641056
  0.4332648783896048  0.5617063795937485  0.1921679932044087
  0.4529859205699985  0.5503745829798229  0.1537540431318070
  0.4332780390379154  0.5903732646561021  0.1516784562066809
  0.4529916439405759  0.5790012680173454  0.1194666269901914
  0.4777864888924914  0.5932568823677402  0.1537237914668385
  0.4777724625282737  0.5645914424620342  0.1942137273256442
  0.3690506854171457  0.6045895703307703  0.1921381872056442
  0.3887682364849896  0.6387509443352868  0.1921679932044087
  0.4084892786653825  0.6274191477213612  0.1537540431318070
  0.3887696058621193  0.6160516515804961  0.1215349594841058
  0.3690553554810090  0.6274227716274164  0.1537481174865073
  0.4332758206236581  0.6416360072035727  0.1942137273256442
  0.4084950020359608  0.6560458327588837  0.1194666269901914
  0.3690626597063766  0.6560497794492316  0.1194594193641056
  0.3887813971333003  0.6674178293976405  0.1516784562066809
  0.4135688744679149  0.6816341350723086  0.1921381872056442
  0.3887802107742201  0.6902111534537485  0.1194892253628699
  0.4135735445317785  0.7044673363689549  0.1537481174865073
  0.4332768526788357  0.6131665887122099  0.1194892253628699
  0.4777950417296049  0.6902111534537485  0.1194892253628699
  0.4580774906617613  0.6560497794492316  0.1194594193641056
  0.4777962280886847  0.6674178293976405  0.1516784562066809
  0.4332877949128890  0.6930962163220342  0.1215349594841058
  0.4777844368175037  0.6160516515804961  0.1215349594841058
  0.4332898469878759  0.6703014471092789  0.1537237914668385
  0.4580701864363934  0.6274227716274164  0.1537481174865073
  0.4530074677161517  0.7044637124629001  0.1537540431318070
  0.4777830674403740  0.6387509443352868  0.1921679932044087
  0.4580655163725305  0.6045895703307703  0.1921381872056442
  0.4530012167974992  0.6816301883819607  0.1921453948317297
  0.2997643477636582  0.7186805719451114  0.1942137273256442
  0.3442715945803739  0.7157955090768257  0.1921679932044087
  0.2552567636249896  0.7157955090768257  0.1921679932044087
  0.3442847552286850  0.7444623941391793  0.1516784562066809
  0.3194897439374992  0.7586747531234993  0.1921453948317297
  0.2800574016079153  0.7586786998138473  0.1921381872056442
  0.3442825368144274  0.7957251366866497  0.1942137273256442
  0.4135808487571460  0.7330943441907704  0.1194594193641056
  0.4332995861840696  0.7444623941391793  0.1516784562066809
  0.4530131910867300  0.7330903975004224  0.1194666269901914
  0.3887897836311433  0.7928400738183637  0.1921679932044087
  0.3690722325632998  0.7586786998138473  0.1921381872056442
  0.3887791787190430  0.7186805719451114  0.1942137273256442
  0.3887932050832608  0.7473460118508174  0.1537237914668385
  0.4085108258115366  0.7815082772044384  0.1537540431318070
  0.4085045748928838  0.7586747531234993  0.1921453948317297
  0.4332864255357589  0.7157955090768257  0.1921679932044087
  0.4332973677698122  0.7957251366866497  0.1942137273256442
  0.4777940096744273  0.7186805719451114  0.1942137273256442
  0.4580917335825475  0.7815119011104934  0.1537481174865073
  0.4580870635186846  0.7586786998138473  0.1921381872056442
  0.4778080360386455  0.7473460118508174  0.1537237914668385
  0.4778046145865281  0.7928400738183637  0.1921679932044087
  0.4530227639436533  0.8357193178650376  0.1921453948317297
  0.4974945367638445  0.5247902273567460  0.0810752752902689
  0.5470754445348545  0.5247938512628010  0.0810693496449690
  0.4975002601344224  0.5534169123942683  0.0467878591486528
  0.5222930530113502  0.5904672959574190  0.0488561916425670
  0.5222951050863375  0.5676725267446634  0.0810450236253001
  0.6112981280917618  0.4877443442914868  0.0789996883651423
  0.5667917469909530  0.4906279620031250  0.0810450236253001
  0.5667896949159658  0.5134227312158804  0.0488561916425670
  0.5865093677192292  0.5247902273567460  0.0810752752902689
  0.5470827487602230  0.5534208590846167  0.0467806515225673
  0.5668014861871467  0.5647889090330251  0.0789996883651423
  0.5025741325663765  0.5790052147076934  0.1194594193641056
  0.4974882858451915  0.5019567032758069  0.1194666269901914
  0.5222810787221197  0.5390070868389575  0.1215349594841058
  0.5420064748959603  0.5790012680173454  0.1194666269901914
  0.5470707744709921  0.5019606499661549  0.1194594193641056
  0.5865031168005759  0.5019567032758069  0.1194666269901914
  0.5667883255388356  0.5361220239706715  0.1194892253628699
  0.5915889635217613  0.5790052147076934  0.1194594193641056
  0.6112959096775045  0.5390070868389575  0.1215349594841058
  0.5222797093449896  0.5617063795937485  0.1921679932044087
  0.5025668283410089  0.5503782068858779  0.1537481174865073
  0.5025621582771460  0.5275450055892317  0.1921381872056442
  0.5419945006067298  0.5275410588988837  0.1921453948317297
  0.5222928699933002  0.5903732646561021  0.1516784562066809
  0.5222831307971070  0.5162123176262019  0.1537237914668385
  0.5420007515253829  0.5503745829798229  0.1537540431318070
  0.5667872934836580  0.5645914424620342  0.1942137273256442
  0.6112945403003739  0.5617063795937485  0.1921679932044087
  0.5915816592963933  0.5503782068858779  0.1537481174865073
  0.5915769892325308  0.5275450055892317  0.1921381872056442
  0.6112979617524917  0.5162123176262019  0.1537237914668385
  0.5667895118979157  0.5133286999145638  0.1516784562066809
  0.5025788026302398  0.6018384160043396  0.0810693496449690
  0.5420127258146133  0.6018347920982844  0.0810752752902689
  0.5915936335856241  0.6018384160043396  0.0810693496449690
  0.5223048442825311  0.6418334737745636  0.0789996883651423
  0.5668132941371067  0.6447170914862019  0.0810450236253001
  0.5470923216171457  0.6560497794492316  0.1194594193641056
  0.5470969916810090  0.6788829807458779  0.0810693496449690
  0.4975160839099977  0.6788793568398231  0.0810752752902689
  0.5222916836342201  0.6131665887122099  0.1194892253628699
  0.5222906515790429  0.6416360072035727  0.1942137273256442
  0.4975041096207672  0.6274191477213612  0.1537540431318070
  0.4974978587021143  0.6045856236404223  0.1921453948317297
  0.5470803473279152  0.6045895703307703  0.1921381872056442
  0.5470850173917781  0.6274227716274164  0.1537481174865073
  0.5667992677728885  0.6160516515804961  0.1215349594841058
  0.5667978983957588  0.6387509443352868  0.1921679932044087
  0.5668013198478762  0.5932568823677402  0.1537237914668385
  0.5865189405761516  0.6274191477213612  0.1537540431318070
  0.5865126896574990  0.6045856236404223  0.1921453948317297
  0.5025837054232997  0.6816341350723086  0.1921381872056442
  0.4975098329913456  0.6560458327588837  0.1194666269901914
  0.5420160477528839  0.6816301883819607  0.1921453948317297
  0.5223026258682736  0.6930962163220342  0.1215349594841058
  0.5223046779432606  0.6703014471092789  0.1537237914668385
  0.5025883754871627  0.7044673363689549  0.1537481174865073
  0.5420222986715365  0.7044637124629001  0.1537540431318070
  0.5668110590440694  0.6674178293976405  0.1516784562066809
  0.5865246639467304  0.6560458327588837  0.1194666269901914
  0.5668098726849895  0.6902111534537485  0.1194892253628699
  0.5916032064425474  0.7044673363689549  0.1537481174865073
  0.5915985363786844  0.6816341350723086  0.1921381872056442
  0.6360902754902392  0.5247938512628010  0.0810693496449690
  0.6558065779463378  0.4906279620031250  0.0810450236253001
  0.6113099360417222  0.5676725267446634  0.0810450236253001
  0.6558163171425310  0.5647889090330251  0.0789996883651423
  0.6310275567699981  0.6018347920982844  0.0810752752902689
  0.6558031564942199  0.5361220239706715  0.1194892253628699
  0.6360856054263768  0.5019606499661549  0.1194594193641056
  0.6755179477559606  0.5019567032758069  0.1194666269901914
  0.6755241986746132  0.5247902273567460  0.0810752752902689
  0.7003107406328888  0.5390070868389575  0.1215349594841058
  0.7200361368067298  0.5790012680173454  0.1194666269901914
  0.6806037944771460  0.5790052147076934  0.1194594193641056
  0.6558043428533005  0.5133286999145638  0.1516784562066809
  0.6310093315621146  0.5275410588988837  0.1921453948317297
  0.6558021244390427  0.5645914424620342  0.1942137273256442
  0.6310155824807676  0.5503745829798229  0.1537540431318070
  0.6558161508032609  0.5932568823677402  0.1537237914668385
  0.6805964902517780  0.5503782068858779  0.1537481174865073
  0.7003225319040698  0.5903732646561021  0.1516784562066809
  0.6113196752379154  0.6418334737745636  0.0789996883651423
  0.6360951782833000  0.6045895703307703  0.1921381872056442
  0.6113054825344272  0.6416360072035727  0.1942137273256442
  0.6558127293511431  0.6387509443352868  0.1921679932044087
  0.6113195088986454  0.6703014471092789  0.1537237914668385
  0.6361071525725305  0.6560497794492316  0.1194594193641056
  0.6558247036403743  0.6902111534537485  0.1194892253628699
  0.6310308787082682  0.6816301883819607  0.1921453948317297
  0.6310371296269208  0.7044637124629001  0.1537540431318070
  0.6113174568236583  0.6930962163220342  0.1215349594841058
  0.6755394949021147  0.6560458327588837  0.1194666269901914
  0.7003213455449896  0.6131665887122099  0.1194892253628699
  0.6558258899994542  0.6674178293976405  0.1516784562066809
  0.7003343398540302  0.6703014471092789  0.1537237914668385
  0.6806180373979321  0.7044673363689549  0.1537481174865073
  0.6755337715315364  0.6274191477213612  0.1537540431318070
  0.7200457096636530  0.6816301883819607  0.1921453948317297
  0.7200519605823056  0.7044637124629001  0.1537540431318070
  0.6755275206128838  0.6045856236404223  0.1921453948317297
  0.7003203134898119  0.6416360072035727  0.1942137273256442
  0.5025956797125308  0.7330943441907704  0.1194594193641056
  0.5420280220421146  0.7330903975004224  0.1194666269901914
  0.5916105106679154  0.7330943441907704  0.1194594193641056
  0.5865342368036531  0.7586747531234993  0.1921453948317297
  0.4975194058482684  0.7586747531234993  0.1921453948317297
  0.5223012564911432  0.7157955090768257  0.1921679932044087
  0.5668088406298118  0.7186805719451114  0.1942137273256442
  0.5223144171394543  0.7444623941391793  0.1516784562066809
  0.5668228669940298  0.7473460118508174  0.1537237914668385
  0.5471018944740691  0.7586786998138473  0.1921381872056442
  0.4975256567669210  0.7815082772044384  0.1537540431318070
  0.5865404877223059  0.7815082772044384  0.1537540431318070
  0.5668194455419124  0.7928400738183637  0.1921679932044087
  0.5471065645379318  0.7815119011104934  0.1537481174865073
  0.5223121987251965  0.7957251366866497  0.1942137273256442
  0.5026052525694538  0.8357232645553856  0.1921381872056442
  0.6113160874465280  0.7157955090768257  0.1921679932044087
  0.6113292480948387  0.7444623941391793  0.1516784562066809
  0.6361167254294534  0.7586786998138473  0.1921381872056442
  0.6113270296805811  0.7957251366866497  0.1942137273256442
  0.6558342764972972  0.7928400738183637  0.1921679932044087
  0.6558376979494146  0.7473460118508174  0.1537237914668385
  0.6755490677590379  0.7586747531234993  0.1921453948317297
  0.7251004363817616  0.5019606499661549  0.1194594193641056
  0.7893276236632613  0.5162123176262019  0.1537237914668385
  0.7448191738086845  0.5133286999145638  0.1516784562066809
  0.7448179874496051  0.5361220239706715  0.1194892253628699
  0.8090389934728837  0.5275410588988837  0.1921453948317297
  0.7696066511432998  0.5275450055892317  0.1921381872056442
  0.7696113212071628  0.5503782068858779  0.1537481174865073
  0.7893242022111434  0.5617063795937485  0.1921679932044087
  0.7448169553944275  0.5645914424620342  0.1942137273256442
  0.8338317863498118  0.5645914424620342  0.1942137273256442
  0.7645486024869216  0.6274191477213612  0.1537540431318070
  0.7251100092386843  0.6045895703307703  0.1921381872056442
  0.7448309817586457  0.5932568823677402  0.1537237914668385
  0.7645423515682686  0.6045856236404223  0.1921453948317297
  0.7251146793025472  0.6274227716274164  0.1537481174865073
  0.7448275603065279  0.6387509443352868  0.1921679932044087
  0.7893351444451967  0.6416360072035727  0.1942137273256442
  0.7448407209548381  0.6674178293976405  0.1516784562066809
  0.7696281982894535  0.6816341350723086  0.1921381872056442
  0.8141248401940691  0.6045895703307703  0.1921381872056442
  0.7448385025405811  0.7186805719451114  0.1942137273256442
  0.7251315563848382  0.7586786998138473  0.1921381872056442
  0.6112113616126493  0.0762916375337742  0.4727463282449783
  0.0771858192127083  0.4873174383720338  0.3818978656812619
  0.1661910773111699  0.3846885180074183  0.3092190978397236
  0.1216980349449570  0.4618059591137740  0.2547100247203629
  0.1662042497064955  0.4873903147368509  0.3273887925619013
  0.2997240973173239  0.4617330827489569  0.3092190978397236
  0.1216740863664956  0.3588855408768509  0.4000675604034398
  0.2106853177834777  0.3588126645120337  0.4545766335228005
  0.2106984901788033  0.4615144612414663  0.4727463282449783
  0.4777142644741876  0.1536277001476201  0.2547100247203629
  0.4777238373311111  0.2562566205122357  0.3273887925619013
  0.5222288539865544  0.2305993885243414  0.3092190978397236
  0.4332020487419387  0.1791391794058796  0.3818978656812619
  0.3442219373280341  0.4359301056183892  0.4000675604034398
  0.3887281520895727  0.4615144612414663  0.4727463282449783
  0.6557295506634188  0.1533362022753125  0.4727463282449783
  0.7002597140034187  0.2818409761353126  0.4000675604034398
  0.5667590173265548  0.3591041623843414  0.2365403299981851
  0.5667602154326495  0.4103457499953125  0.3273887925619013
  0.6557738482819389  0.3591041623843414  0.2365403299981851
  0.6557750463880341  0.4103457499953125  0.3273887925619013
  0.6112532577988624  0.3332283088889568  0.3818978656812619
  0.6112748049450161  0.4873174383720338  0.3818978656812619
  0.7002812611495726  0.4359301056183892  0.4000675604034398
  0.3441644673141879  0.1274603487799280  0.6181038639280552
  0.4776962892142466  0.1532633259104953  0.5272554013643389
  0.5667111201696313  0.1532633259104953  0.5272554013643389
  0.7002237911357261  0.1274603487799280  0.6181038639280552
  0.1216597106449574  0.3585940430045434  0.6181038639280552
  0.2106733434942468  0.3073524553935723  0.5272554013643389
  0.2551675839665544  0.2814766018981877  0.6726129370474159
  0.2996654239772644  0.2556736247676202  0.7634613996111321
  0.2997097215957850  0.4614415848766492  0.5272554013643389
  0.3442039620680930  0.4355657313812648  0.6726129370474159
  0.7002537130327078  0.3329368110166491  0.5999341692058774
  0.6557247477988031  0.2556736247676202  0.7634613996111321
  0.7002333639926498  0.2300892691445434  0.6907826317695935
  0.7002752601788619  0.4870259404997261  0.5999341692058774
  0.3441800134896316  0.3326453131443414  0.8179704727304927
  0.4331864696941877  0.2812579803906971  0.8361401674526705
  0.4332163915911703  0.4867344426274184  0.8179704727304927
  0.5222228477957266  0.4353471098737740  0.8361401674526705
  0.7002525097064959  0.4353471098737740  0.8361401674526705
  0.2107188392188621  0.5643620031135721  0.3818978656812619
  0.2107344130464954  0.6158950885968509  0.2547100247203629
  0.1662018482741882  0.5385590259830049  0.4727463282449783
  0.2552130796911699  0.5384861496181875  0.5272554013643389
  0.2552262520864957  0.6411879463476201  0.5454250960865166
  0.1662197958819390  0.6925752791012645  0.5272554013643389
  0.2997456444634775  0.6158222122320336  0.3092190978397236
  0.2552490025588622  0.6928667769735722  0.3092190978397236
  0.4332427416019394  0.5384861496181875  0.5272554013643389
  0.4777489563634775  0.5640705052412645  0.5999341692058774
  0.4332559139972646  0.6411879463476201  0.5454250960865166
  0.4777705035096310  0.7181596347243414  0.5999341692058774
  0.2997791658988621  0.8213715508335723  0.2365403299981851
  0.3442770059095726  0.7955685737030048  0.3273887925619013
  0.3442865787664958  0.8981974940676201  0.4000675604034398
  0.3887939968542466  0.8213715508335723  0.2365403299981851
  0.3887951949603418  0.8726131384445431  0.3273887925619013
  0.3442614320819390  0.7440354882197260  0.4545766335228005
  0.4332738616050159  0.7952041994658797  0.5999341692058774
  0.4778040249450157  0.9237089733258800  0.5272554013643389
  0.5223054697142467  0.7443269860920336  0.2365403299981851
  0.5223186421095727  0.8470287828214663  0.2547100247203629
  0.5223018649557263  0.8979059961953125  0.6181038639280552
  0.6113154978050160  0.8466644085843414  0.5272554013643389
  0.2997204925588036  0.6153120928522355  0.6907826317695935
  0.4332403401696317  0.5896548608643414  0.6726129370474159
  0.5222431968357854  0.5381946517458799  0.7452917048889544
  0.4332535125649575  0.6923566575937740  0.6907826317695935
  0.4332295639864955  0.5894362393568510  0.8361401674526705
  0.5222527696927087  0.6408235721104953  0.8179704727304927
  0.4777441534988622  0.6664079277335722  0.8906492405720311
  0.5667745582818804  0.7179410132168510  0.7634613996111321
  0.4777800763665546  0.8207885550889569  0.6726129370474159
  0.6113130963727088  0.8978331198304952  0.6726129370474159
  0.5667961054280338  0.8720301426999277  0.7634613996111321
  0.7447539544757262  0.2559651226399279  0.5454250960865166
  0.8337951354418802  0.3077168296306973  0.2547100247203629
  0.7892865192480342  0.3333011852537739  0.3273887925619013
  0.7893164411450161  0.5387776474904953  0.3092190978397236
  0.7893044668557851  0.4873174383720338  0.3818978656812619
  0.7447755016218803  0.4100542521230048  0.5454250960865166
  0.8782953492327085  0.3843970201351106  0.5272554013643389
  0.8783085216280340  0.4870988168645432  0.5454250960865166
  0.8338106816173239  0.5129017939951107  0.4545766335228005
  0.8782965473388039  0.4356386077460819  0.6181038639280552
  0.9228111368511700  0.5126102961228030  0.6726129370474159
  0.7447479535050159  0.3070609575212646  0.7452917048889544
  0.8337879311449574  0.4612229633691589  0.6907826317695935
  0.7893296135403415  0.6414794442199279  0.3273887925619013
  0.7893152378188033  0.6411879463476201  0.5454250960865166
  0.7448173978080932  0.6669909234781876  0.4545766335228005
  0.8783384435250163  0.6925752791012645  0.5272554013643389
  0.8338454011588038  0.7696927202076203  0.4727463282449783
  0.7448030220865546  0.6666994256058799  0.6726129370474159
  0.3887197825588627  0.2564752420197262  0.1638615621566465
  0.4777477859095725  0.3591770387491586  0.1820312568788243
  0.5667614187588619  0.3079354511381877  0.0911827943151079
  0.4777681349496312  0.4620245806212646  0.0911827943151079
  0.6557894221095720  0.4106372478676202  0.1093524890372856
  0.7447922787757263  0.3591770387491586  0.1820312568788243
  0.2107248401895722  0.5132661682322355  0.1820312568788243
  0.2107463873357268  0.6673552977153124  0.1820312568788243
  0.4332714930450161  0.5390691453628029  0.0911827943151079
  0.5222863240004004  0.5390691453628029  0.0911827943151079
  0.5667841640111109  0.5132661682322355  0.1820312568788243
  0.6558073697173239  0.5646535009858799  0.1638615621566465
  0.5668176854464952  0.7188155068337742  0.1093524890372856
