Cl Mn O  P 
 1.0000000000000000
    65.0000000000000000    0.0000000000000000    0.0000000000000000
     0.0000000000000000   65.0000000000000000    0.0000000000000000
     0.0000000000000000    0.0000000000000000   65.0000000000000000
 Cl  Mn  O   P  
 297 3200 6317 114
Direct
  0.0549192729364191  0.4458453308017241  0.4102025335421162
  0.0994268570750877  0.4487303936700101  0.4122482676633518
  0.0994171012001147  0.3460074420040779  0.4423917643859269
  0.0746283408275814  0.3830533250693371  0.4444673513110535
  0.0994289091500749  0.4259356244572544  0.4444370996460845
  0.0797126066939769  0.4601015137169306  0.4444614256657537
  0.1884461415377675  0.3747669132111007  0.2990795639630076
  0.2081637622660429  0.4089291785647218  0.2991098156279764
  0.2132289823470372  0.4628526680433613  0.5555302632264286
  0.2329359285027801  0.4228545401746255  0.5576058033464286
  0.2526613246766212  0.4628487213530133  0.5555374708525144
  0.2132050337685755  0.3599322498064382  0.7008877989095055
  0.2526556013060430  0.4342220363154910  0.5898248869941304
  0.4554453050185761  0.0892893921563855  0.3697129965443885
  0.4751589099212364  0.0779173955176286  0.3375011673278990
  0.3912275242547293  0.2061346181956687  0.4828514953848903
  0.4306598665843134  0.2061306715053209  0.4828587030109758
  0.4109224961212416  0.1146762812084716  0.5576058033464286
  0.4109245481962289  0.0918815119957161  0.5897946353291614
  0.4306421689245045  0.1260437773493372  0.5898248869941304
  0.4751445341996980  0.0776258976453209  0.5555374708525144
  0.4999373270766262  0.1146762812084716  0.5576058033464286
  0.4999393791516132  0.0918815119957161  0.5897946353291614
  0.4802230766955156  0.1260474012553919  0.5898189613488307
  0.4306541432137355  0.1775039864677986  0.5171461191525918
  0.3912202200293613  0.1775076103738536  0.5171401935072921
  0.4109462616816533  0.2175026681440776  0.5150705322274655
  0.2774609724931519  0.3747669132111007  0.2990795639630076
  0.2577446700370539  0.4089328024707767  0.2991038899826768
  0.3416426341966211  0.2572993827514750  0.6282162386940529
  0.3219278429348804  0.2914647034463395  0.6282388370667316
  0.3664354270735493  0.2943497663146254  0.6302845711879672
  0.3664374791485366  0.2715549971018698  0.6624734031706999
  0.3467211766924385  0.3057208863615460  0.6624977291903692
  0.5444469753256496  0.0606225070940318  0.4102025335421162
  0.5889747372333419  0.2402959922001857  0.4828813013836548
  0.6086895284950827  0.2061306715053209  0.4828587030109758
  0.5889759235924226  0.2175026681440776  0.5150705322274655
  0.6137680709909002  0.2545521751153920  0.5171401935072921
  0.5889603615118035  0.2400044943278780  0.7009176049082699
  0.6531741961104673  0.0776258976453209  0.5555374708525144
  0.6334823213720109  0.2431810550684716  0.4849270355048902
  0.7421928765521969  0.1516281329724138  0.6625036548356688
  0.7224718343718034  0.1629599295863396  0.7009176049082699
  0.6087197279921966  0.3318846138231833  0.2991098156279764
  0.5890118464601146  0.3718832954994624  0.2970342287028500
  0.6335202963146904  0.3747669132111007  0.2990795639630076
  0.6583175128454988  0.4631441659156690  0.3374939597018133
  0.6780266774154993  0.3718832954994624  0.2970342287028500
  0.6977498551750827  0.4631402192253210  0.3375011673278990
  0.6583055385562681  0.4116839567972075  0.4101727275433518
  0.6335178948823825  0.4259356244572544  0.4444370996460845
  0.6532355156106584  0.4600978898108756  0.4444673513110535
  0.6780242759831917  0.4230520067456163  0.4423917643859269
  0.6977441318045046  0.4345135341877988  0.3717885834695149
  0.5889735221601144  0.2686713793902316  0.6604280679105424
  0.6977139323073902  0.3087595918699362  0.5555374708525144
  0.6780003274047299  0.3201315885086931  0.5877493000690038
  0.6779991410456501  0.3429249125648012  0.5555600692251931
  0.7225067251843188  0.3458099754330869  0.5576058033464286
  0.7225087772593057  0.3230152062203315  0.5897946353291614
  0.6334799199397031  0.2943497663146254  0.6302845711879672
  0.6334819720146905  0.2715549971018698  0.6624734031706999
  0.6137656695585926  0.3057208863615460  0.6624977291903692
  0.7027924748032081  0.3571810954800074  0.5898189613488307
  0.7473154667185923  0.3318882377292382  0.2991038899826768
  0.7670317691746904  0.2977223484695622  0.2990795639630076
  0.8363256276101141  0.3090550364325921  0.3374939597018133
  0.8363302976739769  0.3318882377292382  0.2991038899826768
  0.8560431786779575  0.3432164104371088  0.3375237657005778
  0.7867469884706584  0.3830533250693371  0.4444673513110535
  0.7670273156673957  0.3716858289284716  0.4122482676633518
  0.7473203695116525  0.4116839567972075  0.4101727275433518
  0.7670391069385761  0.4230520067456163  0.4423917643859269
  0.8560466001300751  0.2977223484695622  0.2990795639630076
  0.8757579699396980  0.3090510897422441  0.3375011673278990
  0.8757642208583506  0.3318846138231833  0.2991098156279764
  0.9005625540878069  0.3974676511225393  0.3697129965443885
  0.9005613677287269  0.4202609751786474  0.3375237657005778
  0.9253547014862848  0.4345171580938537  0.3717826578242152
  0.7670149920208444  0.3485995618434083  0.6624734031706999
  0.7867263618304672  0.3599283031160902  0.7008950065355914
  0.7472986895647465  0.3827654511030844  0.6624977291903692
  0.7670115705687268  0.3940936238109549  0.7009176049082699
  0.8560264015241114  0.3940936238109549  0.7009176049082699
  0.8363088504562681  0.3599322498064382  0.7008877989095055
  0.9005459599520110  0.4484388957977024  0.6302845711879672
  0.8808317095709000  0.4598100158446229  0.6624977291903692
  0.9202656327552737  0.4598063919385679  0.6625036548356688
  0.4357193632947294  0.2314274759464381  0.7735665667510441
  0.4109317196208440  0.2456791436064854  0.8078309388537767
  0.4109296675458571  0.2684739128192408  0.7756421068710440
  0.4306493403491198  0.2798414089601064  0.8078611905187455
  0.2081287599043137  0.3855126587391671  0.7735737743771297
  0.1884173900946902  0.3741839174664852  0.7351521710122383
  0.2081350108229660  0.4083461828201064  0.7351824226772071
  0.1884139686425730  0.4196779794340320  0.7735963727498085
  0.1884153380197031  0.3969786866792407  0.7029633390295057
  0.2329237711954992  0.3713002997548469  0.7331068357520808
  0.2329215527812417  0.4225630423023178  0.7756421068710440
  0.2329236048562287  0.3997682730895621  0.8078309388537767
  0.2132073024001308  0.4339341623492383  0.8078552648734459
  0.5444315675489337  0.0888004277130870  0.7029633390295057
  0.4554381007216529  0.2427955258948468  0.8057856035936191
  0.5889615478708842  0.2172111702717701  0.7331068357520808
  0.5444551667700752  0.2200947879834083  0.7351521710122383
  0.5444531146950878  0.2428895571961637  0.7029633390295057
  0.6137490252054989  0.2314274759464381  0.7735665667510441
  0.6137417209801309  0.2028004681246228  0.8078552648734459
  0.5444397710287263  0.2141286408324934  0.8462751405913468
  0.4999325242120107  0.2170137037007793  0.8483208747125826
  0.5641727874983508  0.2542570533370297  0.7351824226772071
  0.6334559713612420  0.1914293480777022  0.7756421068710440
  0.6531756441645046  0.2027968442185678  0.8078611905187455
  0.8560275878831918  0.3713002997548469  0.7331068357520808
  0.8115212067823830  0.3741839174664852  0.7351521710122383
  0.8312388275106583  0.4083461828201064  0.7351824226772071
  0.1439570204150877  0.5772351675300100  0.3395694998218133
  0.1242427700339770  0.5886062875769306  0.3717826578242152
  0.1636704422996980  0.5657691395899365  0.4101799351694375
  0.1636766932183505  0.5886026636708755  0.3717885834695149
  0.1884652872516134  0.5800247539403315  0.4444370996460845
  0.1636824165889287  0.6172293487083979  0.3375011673278990
  0.1687489847955154  0.6141906432000074  0.4444614256657537
  0.1884632351766262  0.6028195231530870  0.4122482676633518
  0.1687729333739770  0.7171110614369304  0.2991038899826768
  0.2082068565583507  0.7171074375308757  0.2991098156279764
  0.1884989750262684  0.7571061192071548  0.2970342287028500
  0.2775040667854596  0.6829451721772545  0.2990795639630076
  0.2775006453333422  0.7284392341448012  0.3375237657005778
  0.2577877643293617  0.7171110614369304  0.2991038899826768
  0.2972216875137352  0.7171074375308757  0.2991098156279764
  0.2330040034287267  0.8054837988863396  0.3375237657005778
  0.2330051897878070  0.7826904748302317  0.3697129965443885
  0.2527187946904673  0.7713184781914748  0.3375011673278990
  0.3023012833162679  0.7713224248818228  0.3374939597018133
  0.3220188343841114  0.8054837988863396  0.3375237657005778
  0.3220200207431915  0.7826904748302317  0.3697129965443885
  0.2972312603706583  0.8197363578954909  0.3717885834695149
  0.2577973371862846  0.8197399818015461  0.3717826578242152
  0.2329477197739609  0.4742207179917702  0.5877493000690038
  0.3861943446827749  0.5398932860945519  0.5555374708525144
  0.3219863329685366  0.6056091095634085  0.5171158674876231
  0.2774862696118035  0.7281477362724935  0.5555600692251931
  0.2774874559708839  0.7053544122163857  0.5877493000690038
  0.3022700305124384  0.6397749988230844  0.5171401935072921
  0.3417039536968121  0.6397713749170296  0.5171461191525918
  0.3219829115164189  0.6511031715309549  0.5555600692251931
  0.3219959058254596  0.7082380299280239  0.5897946353291614
  0.2972010608735441  0.6939824155776287  0.5555374708525144
  0.3022796033693615  0.7424039191877000  0.5898189613488307
  0.3665240170904724  0.8595375730007792  0.4849270355048902
  0.3665260691654597  0.8367428037880238  0.5171158674876231
  0.3219839315362289  0.6567778208095622  0.6624734031706999
  0.3022676290801308  0.6909437100692382  0.6624977291903692
  0.3416953013458520  0.6681065620822442  0.7008950065355914
  0.3220054786823827  0.8108669502926391  0.6624734031706999
  0.2972106337304671  0.7966113359422442  0.6282162386940529
  0.3220034266073954  0.8336617195053946  0.6302845711879672
  0.3219805100841112  0.7022718827771087  0.7009176049082699
  0.5890452015562287  0.6059006074357158  0.2990795639630076
  0.4803212395693614  0.7938641283061613  0.5171401935072921
  0.4110324502662683  0.8338591860763855  0.5150705322274655
  0.5197551627537353  0.7938605044001065  0.5171461191525918
  0.5000375420254596  0.7596982390464853  0.5171158674876231
  0.5445557310762289  0.8367428037880238  0.5171158674876231
  0.4109891896346902  0.5541489004449468  0.5897946353291614
  0.4109871375597032  0.5769436696577023  0.5576058033464286
  0.3912728871785923  0.5883147897046229  0.5898189613488307
  0.4803092652801308  0.7424039191877000  0.5898189613488307
  0.5000235156612417  0.7310327991407792  0.5576058033464286
  0.5197431884645045  0.7424002952816448  0.5898248869941304
  0.5000353069324222  0.7823989769579239  0.5877493000690038
  0.5000341205733423  0.8051923010140318  0.5555600692251931
  0.5248347585562679  0.8480754917510535  0.5555302632264286
  0.5642671008858520  0.8480715450607056  0.5555374708525144
  0.7028403719601310  0.5630219319538535  0.2991038899826768
  0.6335278170966262  0.5001906027884716  0.3395694998218133
  0.6532474898998891  0.5115580989293372  0.3717885834695149
  0.6335515826570378  0.6030169897240779  0.2970342287028500
  0.6087628222845044  0.6400628727893370  0.2991098156279764
  0.7225566744162290  0.5288560426941777  0.2990795639630076
  0.7422742951445046  0.5630183080477987  0.2991098156279764
  0.7422680442258516  0.5401847839668594  0.3375011673278990
  0.7225532529641115  0.5743501046617242  0.3375237657005778
  0.7918767500616696  0.7171110614369304  0.2991038899826768
  0.7670846026631913  0.6800615544656162  0.2970342287028500
  0.8312684994596984  0.5398932860945519  0.5555374708525144
  0.8115548945570379  0.5512652827333087  0.5877493000690038
  0.8115537081979577  0.5740586067894166  0.5555600692251931
  0.7918457299870372  0.6425261531495153  0.6282090310679671
  0.8115644674139608  0.6538942030979240  0.6604280679105424
  0.7670440599489341  0.6281123809038562  0.7029633390295057
  0.7918384257616693  0.6138991453276997  0.6624977291903692
  0.8115513067656500  0.6252273180355703  0.7009176049082699
  0.7670461120239211  0.6053176116911007  0.7351521710122383
  0.8115524931247299  0.6024339939794625  0.7331068357520808
  0.7867637327521969  0.6394798770447219  0.7351824226772071
  0.7918553028439603  0.7451550735141305  0.7008877989095055
  0.7670676591700751  0.7594067411741774  0.7351521710122383
  0.7670656070950882  0.7822015103869331  0.7029633390295057
  0.8808390137962683  0.4884370236664384  0.6282090310679671
  0.8560612923366263  0.5769436696577023  0.5576058033464286
  0.8312780723166209  0.6425222064591671  0.6282162386940529
  0.9005555328089340  0.5510678161623178  0.7029633390295057
  0.8808485866531912  0.5910659440310536  0.7008877989095055
  0.3467356523424217  0.4881455257941307  0.8462453345925826
  0.3861679946720057  0.4881415791037826  0.8462525422186682
  0.3664532034102650  0.5223068997986472  0.8462751405913468
  0.3467403224062844  0.5109787270907766  0.8078552648734459
  0.4554670023104723  0.5507763182900101  0.9209996425541210
  0.4357600561547295  0.5907744461587460  0.9189241024341209
  0.4751923984843134  0.5907704994683979  0.9189313100602066
  0.4109941259662684  0.7306472699671548  0.8784643714351577
  0.3912753885393448  0.7192792200187460  0.8462453345925826
  0.4109929396071882  0.7534405940232627  0.8462751405913468
  0.4554930029639214  0.6309019673141778  0.8078309388537767
  0.4752106236921966  0.6650642326677988  0.8078611905187455
  0.4752043727735443  0.6422307085868595  0.8462525422186682
  0.4357767005078232  0.6650678565738538  0.8078552648734459
  0.4554895815118036  0.6763960292817244  0.8462751405913468
  0.5248084085454986  0.7963237847602843  0.8462453345925826
  0.4752259199196976  0.7963198380699364  0.8462525422186682
  0.5890000223166261  0.6278208830315486  0.9209996425541210
  0.4555518543902652  0.8825283636278780  0.3375237657005778
  0.4110466596485368  0.8626186572834084  0.3717583318045461
  0.4110446075735495  0.8854134264961638  0.3395694998218133
  0.4555508223350878  0.9109977821192409  0.4122482676633518
  0.4110432381964192  0.9081127192509548  0.4102025335421162
  0.4307642803768122  0.8967809226370294  0.3717885834695149
  0.4555528744100750  0.8882030129064852  0.4444370996460845
  0.4358365719539771  0.9223689021661613  0.4444614256657537
  0.5248467328454989  0.8995357008695152  0.4828514953848903
  0.5642790751750826  0.8995317541791672  0.4828587030109758
  0.3862436898937352  0.8709050691416447  0.5171461191525918
  0.5445523096241113  0.8822368657555704  0.5555600692251931
  0.5248370271878232  0.9220774042938538  0.6624977291903692
  0.5445533296439213  0.8879115150341775  0.6624734031706999
  0.5445654702724223  0.9109037508179239  0.5150705322274655
  0.5642709503721967  0.9220737803877985  0.6625036548356688
  0.1884463078770375  0.3462989398763855  0.2243554608613115
  0.2132337852116526  0.3605152455510536  0.2648151918602749
  0.2329513362794961  0.3946766195555702  0.2648449978590393
  0.1884451215179574  0.3690922639324934  0.1921662300175005
  0.1636848180212366  0.5660606374622441  0.1921436316448220
  0.1439712131185761  0.5774326341010009  0.2243554608613115
  0.1884776108981648  0.6031110210253947  0.1942119641387365
  0.1884871837550877  0.7057399413900101  0.2668907319802748
  0.3467619024247462  0.3577640912246228  0.1537463542995996
  0.3467692066501143  0.3863910990464384  0.1194576561771979
  0.2526661275412366  0.3605112988607056  0.2648223994863604
  0.2774589204181646  0.3975616824238561  0.2668907319802748
  0.3664879440770376  0.3977591489948472  0.1516766930197729
  0.3862015489796983  0.3863871523560902  0.1194648638032834
  0.5445078667916134  0.3235982019649469  0.1537220282799308
  0.5247868942716527  0.3349308899279767  0.1921364240187363
  0.5890000551889339  0.3205171176823177  0.2668907319802748
  0.5247915643355155  0.3577640912246228  0.1537463542995996
  0.5642254875198893  0.3577604673185680  0.1537522799448996
  0.6087254513627752  0.3605112988607056  0.2648223994863604
  0.5692931090331910  0.3605152455510536  0.2648151918602749
  0.7225221329610346  0.3176320548140318  0.2648449978590393
  0.6583079399885755  0.3605152455510536  0.2648151918602749
  0.6138112980839602  0.4375598102925923  0.2648151918602749
  0.6532436404135442  0.4375558636022443  0.2648223994863604
  0.6780254910564191  0.3946766195555702  0.2648449978590393
  0.7670297170997030  0.3205171176823177  0.2668907319802748
  0.7422369242227749  0.2834667341191672  0.2648223994863604
  0.5693386047578063  0.6175247932710537  0.1194576561771979
  0.5890595772777675  0.6061921053080237  0.0810432604383919
  0.6087771980060434  0.6403543706616449  0.0810735121033610
  0.6532498913321970  0.4603893876831833  0.2264310477864377
  0.6335288491518037  0.4717211842971088  0.2648449978590393
  0.6087469985089289  0.5146004283437825  0.2648223994863604
  0.5890322072471884  0.5487657490386473  0.2648449978590393
  0.5693146561793448  0.5146043750341304  0.2648151918602749
  0.5693193262432080  0.5374375763307768  0.2264251221411380
  0.5890455509135497  0.5775266654023177  0.1215331962971977
  0.5693313005324384  0.5888977854492383  0.1537463542995996
  0.5890573421847299  0.6288928432194625  0.1516766930197729
  0.6087652237168124  0.5888941615431832  0.1537522799448996
  0.5890431494812417  0.6286953766484715  0.2668907319802748
  0.6138328452301138  0.5916489397756689  0.2648151918602749
  0.6532771618489290  0.6431052022037826  0.1921436316448220
  0.6335623705871888  0.6772705228986472  0.1921662300175005
  0.5445725082300749  0.7858655904141777  0.1537220282799308
  0.6780720068008446  0.6573608165541776  0.2264007961214691
  0.6583557043447464  0.6915267058138536  0.2264251221411380
  0.8115910004427804  0.7057399413900101  0.2668907319802748
  0.7867982075658518  0.6686895578268595  0.2648223994863604
  0.7670834163041116  0.7028548785217242  0.2648449978590393
  0.1636895880135440  0.7710269803191672  0.5555374708525144
  0.1439782182039210  0.7596982390464853  0.5171158674876231
  0.1636958389321970  0.7938605044001065  0.5171461191525918
  0.2774970288278072  0.8079833325810009  0.6604280679105424
  0.2774958424687266  0.8307766566371088  0.6282388370667316
  0.3022891762262847  0.8450328395523151  0.6624977291903692
  0.1216460424572385  0.2559250426631179  0.5726780194682660
  0.2551599167495459  0.1277117666754253  0.4273204837851892
  0.2106644555098914  0.1791726083510526  0.3546407011300154
  0.1661678136052759  0.2562171730925912  0.3546407011300154
  0.1884181723692307  0.2176975945292308  0.3546424643169231
  0.1884221735480787  0.2434250436331547  0.3183035309318357
  0.2106752491341613  0.2562165405354254  0.3546417159436507
  0.1884101992588478  0.1919648345146935  0.3909822987733743
  0.1661558393160451  0.2047569639741295  0.4273194689715538
  0.2106632748449304  0.2047563314169636  0.4273204837851892
  0.1439015830650018  0.2175491901377702  0.4636610666149127
  0.1439095561753846  0.2432819501523077  0.4273212321584617
  0.2329164140203866  0.2175491901377702  0.4636610666149127
  0.2329283883096173  0.2690093992562319  0.3909822987733743
  0.2329243871307692  0.2432819501523077  0.4273212321584617
  0.2551586959821989  0.1532967548556681  0.4999982368130922
  0.2106513005557003  0.1532961222985024  0.4999992516267276
  0.2329044397311559  0.1660889810193087  0.5363398344564513
  0.2329004385523076  0.1403615319153846  0.5726787678415386
  0.1661546586510845  0.2303406870400408  0.4999992516267276
  0.1661534378837374  0.2559256752202833  0.5726770046546307
  0.1884077978265407  0.2431335457608473  0.5363398344564513
  0.2106500797883529  0.1788811104787449  0.5726770046546307
  0.2551575153172382  0.1788804779215793  0.5726780194682660
  0.2329124128415383  0.1918217410338460  0.5000000000000000
  0.2106620540775836  0.2303413195972064  0.4999982368130922
  0.2106608734126226  0.2559250426631179  0.5726780194682660
  0.1884157709369227  0.2688663057753846  0.5000000000000000
  0.1883958235373096  0.1916733366423856  0.6090186022979897
  0.2329140125880788  0.2687179013839242  0.6090186022979897
  0.1438991816326941  0.2687179013839242  0.6090186022979897
  0.1884037966476922  0.2174060966569231  0.5726787678415386
  0.2106488991233921  0.2044648335446562  0.6453567873098046
  0.2329020382988479  0.2172576922654622  0.6816973701395280
  0.2329100114092310  0.2429904522800000  0.6453575356830772
  0.2551562945498912  0.2044654661018221  0.6453557724961693
  0.0994248885599998  0.3717867240123077  0.3546424643169231
  0.0994169154496173  0.3460539639977703  0.3909822987733743
  0.0994288897388481  0.3975141731162319  0.3183035309318357
  0.0771745297960452  0.4103063025756681  0.3546407011300154
  0.0994129142707692  0.3203265148938462  0.4273212321584617
  0.0994049411603865  0.2945937548793087  0.4636610666149127
  0.0771613748418536  0.3844298165231178  0.4999992516267276
  0.0994264883065402  0.4486828843623856  0.4636610666149127
  0.0771721283637373  0.4614750138218219  0.4999982368130922
  0.0771494005526227  0.3329696074046560  0.5726780194682660
  0.0771601540745068  0.4100148047033605  0.5726770046546307
  0.0994145140173097  0.3972226752439241  0.5363398344564513
  0.0994224871276921  0.4229554352584615  0.5000000000000000
  0.0994025397280789  0.3457624661254625  0.6090186022979897
  0.0994105128384615  0.3714952261400001  0.5726787678415386
  0.0549138709338461  0.4485397908815386  0.5726787678415386
  0.0771589734095458  0.4355985277692716  0.6453567873098046
  0.1439255316434635  0.3204696083746933  0.3183035309318357
  0.1216711717006607  0.3332617378341297  0.3546407011300154
  0.1439215304646154  0.2947421592707693  0.3546424643169231
  0.1884301466584615  0.2691578036476924  0.2819636964753848
  0.1661786072295457  0.3332611052769639  0.3546417159436507
  0.1439335047538463  0.3462023683892309  0.2819636964753848
  0.2329403625988481  0.3204696083746933  0.3183035309318357
  0.2106872234233919  0.3076767496538870  0.2819629481021122
  0.2329363614199999  0.2947421592707693  0.3546424643169231
  0.2329483357092308  0.3462023683892309  0.2819636964753848
  0.2106860026560452  0.3332617378341297  0.3546407011300154
  0.1439135573542327  0.2690093992562319  0.3909822987733743
  0.1216591974114298  0.2818015287156680  0.4273194689715538
  0.1661773864621992  0.3588460934572066  0.4273194689715538
  0.1661666329403153  0.2818008961585020  0.4273204837851892
  0.1216699910356996  0.3588454609000408  0.4273204837851892
  0.1884197721157710  0.2945937548793087  0.4636610666149127
  0.1884317464050020  0.3460539639977703  0.3909822987733743
  0.2106740283668144  0.2818015287156680  0.4273194689715538
  0.2106848219910841  0.3588454609000408  0.4273204837851892
  0.1884277452261539  0.3203265148938462  0.4273212321584617
  0.1216819653249304  0.4103056700185024  0.3546417159436507
  0.1884437206942328  0.3975141731162319  0.3183035309318357
  0.1661905815187764  0.3847213143954255  0.2819629481021122
  0.1884397195153846  0.3717867240123077  0.3546424643169231
  0.1661893607514297  0.4103063025756681  0.3546407011300154
  0.1439430776107692  0.4488312887538462  0.3546424643169231
  0.1216939396141612  0.4617658791369640  0.2819629481021122
  0.2106967962803149  0.4103056700185024  0.3546417159436507
  0.1884516938046155  0.4232469331307693  0.2819636964753848
  0.2329579085661539  0.4488312887538462  0.3546424643169231
  0.2107087705695457  0.4617658791369640  0.2819629481021122
  0.1439351045003865  0.4230985287393088  0.3909822987733743
  0.1661881800864689  0.4358900256415794  0.4273204837851892
  0.1216807445575837  0.4358906581987450  0.4273194689715538
  0.1439311033215385  0.3973710796353848  0.4273212321584617
  0.1439231302111557  0.3716383196208472  0.4636610666149127
  0.2329499354557713  0.4230985287393088  0.3909822987733743
  0.2106955755129685  0.4358906581987450  0.4273194689715538
  0.2329459342769231  0.3973710796353848  0.4273212321584617
  0.1884413192619249  0.4486828843623856  0.4636610666149127
  0.2329379611665403  0.3716383196208472  0.4636610666149127
  0.1439191290323076  0.3459108705169232  0.5000000000000000
  0.1216580167464688  0.3073852517815791  0.4999992516267276
  0.1439071547430769  0.2944506613984617  0.5726787678415386
  0.1216567959791221  0.3329702399618219  0.5726770046546307
  0.1439111559219250  0.3201781105023856  0.5363398344564513
  0.1661642315080075  0.3329696074046560  0.5726780194682660
  0.1661654121729682  0.3073858843387450  0.4999982368130922
  0.2329259868773095  0.3201781105023856  0.5363398344564513
  0.2329339599876923  0.3459108705169232  0.5000000000000000
  0.2106728477018538  0.3073852517815791  0.4999992516267276
  0.2329219856984612  0.2944506613984617  0.5726787678415386
  0.2106716269345068  0.3329702399618219  0.5726770046546307
  0.1884253437938461  0.3714952261400001  0.5726787678415386
  0.1216687702683528  0.3844304490802835  0.4999982368130922
  0.1216675896033920  0.4100141721461946  0.5726780194682660
  0.1216795638926227  0.4614743812646563  0.4999992516267276
  0.1661749850298914  0.4100148047033605  0.5726770046546307
  0.1439287018892308  0.4485397908815386  0.5726787678415386
  0.1661869593191221  0.4614750138218219  0.4999982368130922
  0.1661762057972383  0.3844298165231178  0.4999992516267276
  0.2106836012237376  0.3844304490802835  0.4999982368130922
  0.1884373180830768  0.4229554352584615  0.5000000000000000
  0.2106943948480074  0.4614743812646563  0.4999992516267276
  0.1884293449726942  0.3972226752439241  0.5363398344564513
  0.2106824205587765  0.4100141721461946  0.5726780194682660
  0.1661630107406606  0.3585545955848989  0.6453557724961693
  0.1216448216898913  0.2815100308433602  0.6453557724961693
  0.1661522572187766  0.2815093982861948  0.6453567873098046
  0.1216556153141608  0.3585539630277331  0.6453567873098046
  0.1884053963942326  0.2943022570070008  0.6816973701395280
  0.1439087544896172  0.3713468217485394  0.6816973701395280
  0.1884173706834633  0.3457624661254625  0.6090186022979897
  0.2106704462695458  0.3585539630277331  0.6453567873098046
  0.2106596526452761  0.2815100308433602  0.6453557724961693
  0.1884133695046152  0.3200350170215386  0.6453575356830772
  0.2329235854450018  0.3713468217485394  0.6816973701395280
  0.1439207287788481  0.4228070308670011  0.6090186022979897
  0.1661738043649301  0.4355985277692716  0.6453567873098046
  0.1216663688360453  0.4355991603264374  0.6453557724961693
  0.1439167276000000  0.3970795817630771  0.6453575356830772
  0.1884269435403866  0.4483913864900780  0.6816973701395280
  0.2329355597342326  0.4228070308670011  0.6090186022979897
  0.2106811997914298  0.4355991603264374  0.6453557724961693
  0.2329315585553847  0.3970795817630771  0.6453575356830772
  0.3441759283698919  0.1021280436095141  0.3546407011300154
  0.2996673121760454  0.1277123992325912  0.4273194689715538
  0.3219176709400003  0.0891928206692308  0.4273212321584617
  0.3441747477049305  0.1277117666754253  0.4273204837851892
  0.3219216721188479  0.1149202697731549  0.3909822987733743
  0.2774330033246155  0.2176975945292308  0.3546424643169231
  0.2774250302142326  0.1919648345146935  0.3909822987733743
  0.2551718910387769  0.1791719757938867  0.3546417159436507
  0.2551838653280073  0.2306321849123484  0.2819629481021122
  0.2996805072326229  0.1535876201708101  0.2819629481021122
  0.2996792864652761  0.1791726083510526  0.3546407011300154
  0.3219336464080786  0.1663804788916164  0.3183035309318357
  0.3441986962833921  0.2306321849123484  0.2819629481021122
  0.3219416195184615  0.1921132389061537  0.2819636964753848
  0.3441867219941609  0.1791719757938867  0.3546417159436507
  0.3219296452292308  0.1406530297876923  0.3546424643169231
  0.3664398611696174  0.1919648345146935  0.3909822987733743
  0.2774130559250017  0.1405046253962318  0.4636610666149127
  0.2774210290353845  0.1662373854107691  0.4273212321584617
  0.2551706702714296  0.2047569639741295  0.4273194689715538
  0.2996781058003151  0.2047563314169636  0.4273204837851892
  0.3664278868803865  0.1405046253962318  0.4636610666149127
  0.3664358599907691  0.1662373854107691  0.4273212321584617
  0.3441855012268146  0.2047569639741295  0.4273194689715538
  0.3219392180861537  0.2432819501523077  0.4273212321584617
  0.3219312449757711  0.2175491901377702  0.4636610666149127
  0.3886833638987769  0.1021274110523484  0.3546417159436507
  0.4331907593252762  0.1021280436095141  0.3546407011300154
  0.4554451192680790  0.0893359141500778  0.3183035309318357
  0.4776981948541613  0.1021274110523484  0.3546417159436507
  0.4554530923784614  0.1150686741646154  0.2819636964753848
  0.4109245287850020  0.0634600606546932  0.4636610666149127
  0.4331787850360453  0.0506678344910524  0.4273194689715538
  0.4109325018953846  0.0891928206692308  0.4273212321584617
  0.4109365030742327  0.1149202697731549  0.3909822987733743
  0.4331895786603152  0.1277117666754253  0.4273204837851892
  0.3886821431314300  0.1277123992325912  0.4273194689715538
  0.4776862205649303  0.0506672019338867  0.4273204837851892
  0.4999393597403866  0.0634600606546932  0.4636610666149127
  0.4776969740868147  0.1277123992325912  0.4273194689715538
  0.4999473328507692  0.0891928206692308  0.4273212321584617
  0.4999513340296173  0.1149202697731549  0.3909822987733743
  0.4109484773634634  0.1663804788916164  0.3183035309318357
  0.3886953381880074  0.1535876201708101  0.2819629481021122
  0.4109444761846153  0.1406530297876923  0.3546424643169231
  0.3664478342800000  0.2176975945292308  0.3546424643169231
  0.3886941174206607  0.1791726083510526  0.3546407011300154
  0.4109564504738460  0.1921132389061537  0.2819636964753848
  0.4332135272387767  0.2306321849123484  0.2819629481021122
  0.4777101691433920  0.1535876201708101  0.2819629481021122
  0.4777089483760454  0.1791726083510526  0.3546407011300154
  0.4332015529495457  0.1791719757938867  0.3546417159436507
  0.4554626652353845  0.2176975945292308  0.3546424643169231
  0.4554546921250021  0.1919648345146935  0.3909822987733743
  0.4554427178357712  0.1405046253962318  0.4636610666149127
  0.4554506909461536  0.1662373854107691  0.4273212321584617
  0.3886929367556994  0.2047563314169636  0.4273204837851892
  0.4109460759311557  0.2175491901377702  0.4636610666149127
  0.4332003321821990  0.2047569639741295  0.4273194689715538
  0.4777077677110843  0.2047563314169636  0.4273204837851892
  0.2774090547461538  0.1147771762923077  0.5000000000000000
  0.2996541572218537  0.1018359131800407  0.5726780194682660
  0.3441627734157000  0.0762515575569638  0.4999992516267276
  0.3664238857015382  0.1147771762923077  0.5000000000000000
  0.3664159125911555  0.0890444162777701  0.5363398344564513
  0.3441615526483528  0.1018365457372066  0.5726770046546307
  0.2996529364545065  0.1274209013602835  0.6453557724961693
  0.3219072963973095  0.1146287719008472  0.6090186022979897
  0.3441603719833920  0.1274202688031178  0.6453567873098046
  0.2996649107437372  0.1788811104787449  0.5726770046546307
  0.3219152695076923  0.1403615319153846  0.5726787678415386
  0.2996661315110844  0.1532961222985024  0.4999992516267276
  0.2774186276030768  0.2174060966569231  0.5726787678415386
  0.2996768850329682  0.2303413195972064  0.4999982368130922
  0.2774226287819251  0.2431335457608473  0.5363398344564513
  0.2551694896064693  0.2303406870400408  0.4999992516267276
  0.3441723462726229  0.1788804779215793  0.5726780194682660
  0.3219192706865402  0.1660889810193087  0.5363398344564513
  0.3441735269375835  0.1532967548556681  0.4999982368130922
  0.3219272437969231  0.1918217410338460  0.5000000000000000
  0.3441843205618537  0.2303406870400408  0.4999992516267276
  0.3664334585584618  0.2174060966569231  0.5726787678415386
  0.3664374597373098  0.2431335457608473  0.5363398344564513
  0.2774106544926941  0.1916733366423856  0.6090186022979897
  0.2996637300787764  0.2044648335446562  0.6453567873098046
  0.2774066533138461  0.1659458875384614  0.6453575356830772
  0.2773986802034635  0.1402131275239236  0.6816973701395280
  0.3664254854480790  0.1916733366423856  0.6090186022979897
  0.3219248423646155  0.2429904522800000  0.6453575356830772
  0.3664214842692311  0.1659458875384614  0.6453575356830772
  0.3441711255052760  0.2044654661018221  0.6453557724961693
  0.3219168692542327  0.2172576922654622  0.6816973701395280
  0.3664135111588480  0.1402131275239236  0.6816973701395280
  0.4331776043710845  0.0762515575569638  0.4999992516267276
  0.3886701688421988  0.0762521901141295  0.4999982368130922
  0.3886689881772381  0.1018359131800407  0.5726780194682660
  0.4109221273526941  0.1146287719008472  0.6090186022979897
  0.4554387166569229  0.1147771762923077  0.5000000000000000
  0.4776849997975836  0.0762521901141295  0.4999982368130922
  0.4554307435465405  0.0890444162777701  0.5363398344564513
  0.4554267423676922  0.0633169671738462  0.5726787678415386
  0.4999369583080786  0.1146287719008472  0.6090186022979897
  0.4109181261738464  0.0889013227969233  0.6453575356830772
  0.4331752029387766  0.1274202688031178  0.6453567873098046
  0.3886677674098911  0.1274209013602835  0.6453557724961693
  0.4999329571292310  0.0889013227969233  0.6453575356830772
  0.4776825983652759  0.1274209013602835  0.6453557724961693
  0.4331883578929683  0.1532967548556681  0.4999982368130922
  0.4109301004630771  0.1403615319153846  0.5726787678415386
  0.3886809624664692  0.1532961222985024  0.4999992516267276
  0.4109341016419250  0.1660889810193087  0.5363398344564513
  0.4331871772280075  0.1788804779215793  0.5726780194682660
  0.3886797416991220  0.1788811104787449  0.5726770046546307
  0.3886917159883527  0.2303413195972064  0.4999982368130922
  0.4331991515172382  0.2303406870400408  0.4999992516267276
  0.4776957934218540  0.1532961222985024  0.4999992516267276
  0.4999449314184615  0.1403615319153846  0.5726787678415386
  0.4776945726545068  0.1788811104787449  0.5726770046546307
  0.4999489325973097  0.1660889810193087  0.5363398344564513
  0.4777065469437375  0.2303413195972064  0.4999982368130922
  0.4554482895138461  0.2174060966569231  0.5726787678415386
  0.4554522906926944  0.2431335457608473  0.5363398344564513
  0.3886785610341613  0.2044648335446562  0.6453567873098046
  0.4331859564606608  0.2044654661018221  0.6453557724961693
  0.4109396733200003  0.2429904522800000  0.6453575356830772
  0.4109317002096170  0.2172576922654622  0.6816973701395280
  0.4776933919895458  0.2044648335446562  0.6453567873098046
  0.4554403164034635  0.1916733366423856  0.6090186022979897
  0.4554363152246156  0.1659458875384614  0.6453575356830772
  0.4999465311650018  0.2172576922654622  0.6816973701395280
  0.4554283421142326  0.1402131275239236  0.6816973701395280
  0.2774449776138462  0.2691578036476924  0.2819636964753848
  0.2774370045034635  0.2434250436331547  0.3183035309318357
  0.2551934381849304  0.3332611052769639  0.3546417159436507
  0.2551826445606605  0.2562171730925912  0.3546407011300154
  0.2996900800895461  0.2562165405354254  0.3546417159436507
  0.3441974755160450  0.2562171730925912  0.3546407011300154
  0.3664518354588481  0.2434250436331547  0.3183035309318357
  0.3664598085692308  0.2691578036476924  0.2819636964753848
  0.3219551935542327  0.3204696083746933  0.3183035309318357
  0.3442082691403152  0.3332611052769639  0.3546417159436507
  0.2774465773603865  0.3460539639977703  0.3909822987733743
  0.2551814638956996  0.2818008961585020  0.4273204837851892
  0.2774425761815383  0.3203265148938462  0.4273212321584617
  0.2774346030711558  0.2945937548793087  0.4636610666149127
  0.3219432192650018  0.2690093992562319  0.3909822987733743
  0.3441962948510843  0.2818008961585020  0.4273204837851892
  0.3664574071369231  0.3203265148938462  0.4273212321584617
  0.3664494340265403  0.2945937548793087  0.4636610666149127
  0.4109660233307693  0.2947421592707693  0.3546424643169231
  0.3887049110449304  0.2562165405354254  0.3546417159436507
  0.3887168853341613  0.3076767496538870  0.2819629481021122
  0.4109779976200000  0.3462023683892309  0.2819636964753848
  0.4109700245096172  0.3204696083746933  0.3183035309318357
  0.4332123064714298  0.2562171730925912  0.3546407011300154
  0.4332231000956996  0.3332611052769639  0.3546417159436507
  0.4554666664142328  0.2434250436331547  0.3183035309318357
  0.4554746395246155  0.2691578036476924  0.2819636964753848
  0.4777304955221991  0.3332617378341297  0.3546407011300154
  0.4777197420003151  0.2562165405354254  0.3546417159436507
  0.4777317162895459  0.3076767496538870  0.2819629481021122
  0.4109580502203864  0.2690093992562319  0.3909822987733743
  0.4777185212329682  0.2818015287156680  0.4273194689715538
  0.4332111258064689  0.2818008961585020  0.4273204837851892
  0.4109540490415385  0.2432819501523077  0.4273212321584617
  0.4554722380923079  0.3203265148938462  0.4273212321584617
  0.4554642649819249  0.2945937548793087  0.4636610666149127
  0.2997116272356997  0.4103056700185024  0.3546417159436507
  0.2552041917068144  0.4103063025756681  0.3546407011300154
  0.2774585516496174  0.3975141731162319  0.3183035309318357
  0.2774665247600000  0.4232469331307693  0.2819636964753848
  0.2774545504707691  0.3717867240123077  0.3546424643169231
  0.2997236015249304  0.4617658791369640  0.2819629481021122
  0.3442202434295459  0.3847213143954255  0.2819629481021122
  0.3664693814261538  0.3717867240123077  0.3546424643169231
  0.3219647664111558  0.4230985287393088  0.3909822987733743
  0.2551922174175836  0.3588460934572066  0.4273194689715538
  0.3219527921219250  0.3716383196208472  0.4636610666149127
  0.3442070483729683  0.3588460934572066  0.4273194689715538
  0.2552030110418533  0.4358900256415794  0.4273204837851892
  0.2774561502173096  0.4486828843623856  0.4636610666149127
  0.2997104064683528  0.4358906581987450  0.4273194689715538
  0.3664709811726941  0.4486828843623856  0.4636610666149127
  0.3887264581910844  0.4103056700185024  0.3546417159436507
  0.3664813557153847  0.4232469331307693  0.2819636964753848
  0.3887384324803152  0.4617658791369640  0.2819629481021122
  0.4332350743849305  0.3847213143954255  0.2819629481021122
  0.4554842123815384  0.3717867240123077  0.3546424643169231
  0.4554961866707692  0.4232469331307693  0.2819636964753848
  0.4777412891464688  0.4103056700185024  0.3546417159436507
  0.4777532634356996  0.4617658791369640  0.2819629481021122
  0.4109676230773096  0.3716383196208472  0.4636610666149127
  0.4332218793283529  0.3588460934572066  0.4273194689715538
  0.4777293148572382  0.3588454609000408  0.4273204837851892
  0.3887252374237375  0.4358906581987450  0.4273194689715538
  0.4109795973665405  0.4230985287393088  0.3909822987733743
  0.4777400683791222  0.4358906581987450  0.4273194689715538
  0.2551790624633918  0.3329696074046560  0.5726780194682660
  0.2774306018923075  0.2688663057753846  0.5000000000000000
  0.2551802431283528  0.3073858843387450  0.4999982368130922
  0.2551682688391221  0.2559256752202833  0.5726770046546307
  0.2996864578898912  0.3329702399618219  0.5726770046546307
  0.2996757043680074  0.2559250426631179  0.5726780194682660
  0.2996876786572386  0.3073852517815791  0.4999992516267276
  0.3219368166538460  0.2944506613984617  0.5726787678415386
  0.3219408178326943  0.3201781105023856  0.5363398344564513
  0.3441938934187766  0.3329696074046560  0.5726780194682660
  0.3664454328476923  0.2688663057753846  0.5000000000000000
  0.3441830997945065  0.2559256752202833  0.5726770046546307
  0.2996852772249305  0.3585539630277331  0.6453567873098046
  0.2996744836006605  0.2815100308433602  0.6453557724961693
  0.2774322016388481  0.3457624661254625  0.6090186022979897
  0.2551670881741613  0.2815093982861948  0.6453567873098046
  0.2774282004600002  0.3200350170215386  0.6453575356830772
  0.2774202273496174  0.2943022570070008  0.6816973701395280
  0.3219288435434634  0.2687179013839242  0.6090186022979897
  0.3664470325942326  0.3457624661254625  0.6090186022979897
  0.3664430314153845  0.3200350170215386  0.6453575356830772
  0.3664350583050019  0.2943022570070008  0.6816973701395280
  0.3887025096126229  0.3073852517815791  0.4999992516267276
  0.4109556487880791  0.3201781105023856  0.5363398344564513
  0.3887012888452759  0.3329702399618219  0.5726770046546307
  0.4109516476092308  0.2944506613984617  0.5726787678415386
  0.3886905353233922  0.2559250426631179  0.5726780194682660
  0.4554602638030766  0.2688663057753846  0.5000000000000000
  0.4777053662787765  0.2559250426631179  0.5726780194682660
  0.4331979307498912  0.2559256752202833  0.5726770046546307
  0.4777173405680079  0.3073852517815791  0.4999992516267276
  0.4777161198006606  0.3329702399618219  0.5726770046546307
  0.4332087243741614  0.3329696074046560  0.5726780194682660
  0.4109436744988479  0.2687179013839242  0.6090186022979897
  0.3886893145560450  0.2815100308433602  0.6453557724961693
  0.3887001081803149  0.3585539630277331  0.6453567873098046
  0.4331967500849305  0.2815093982861948  0.6453567873098046
  0.4554618635496172  0.3457624661254625  0.6090186022979897
  0.4777041455114295  0.2815100308433602  0.6453557724961693
  0.4777149391356997  0.3585539630277331  0.6453567873098046
  0.4554578623707695  0.3200350170215386  0.6453575356830772
  0.4554498892603864  0.2943022570070008  0.6816973701395280
  0.2996984321791221  0.3844304490802835  0.4999982368130922
  0.2774521490384615  0.4229554352584615  0.5000000000000000
  0.2552017902745066  0.4614750138218219  0.4999982368130922
  0.2551910367526226  0.3844298165231178  0.4999992516267276
  0.2774441759280789  0.3972226752439241  0.5363398344564513
  0.2551898159852760  0.4100148047033605  0.5726770046546307
  0.2774401747492309  0.3714952261400001  0.5726787678415386
  0.2996972515141610  0.4100141721461946  0.5726780194682660
  0.3664590068834635  0.3972226752439241  0.5363398344564513
  0.3664550057046154  0.3714952261400001  0.5726787678415386
  0.3442058677080073  0.3844298165231178  0.4999992516267276
  0.3442046469406606  0.4100148047033605  0.5726770046546307
  0.3219583638000001  0.4485397908815386  0.5726787678415386
  0.3442166212298913  0.4614750138218219  0.4999982368130922
  0.2997092258033919  0.4614743812646563  0.4999992516267276
  0.2551778416960452  0.3585545955848989  0.6453557724961693
  0.3219384164003866  0.3713468217485394  0.6816973701395280
  0.3219503906896172  0.4228070308670011  0.6090186022979897
  0.3219463895107692  0.3970795817630771  0.6453575356830772
  0.3441926726514298  0.3585545955848989  0.6453557724961693
  0.2551886353203150  0.4355985277692716  0.6453567873098046
  0.2774417744957711  0.4483913864900780  0.6816973701395280
  0.2996960307468146  0.4355991603264374  0.6453557724961693
  0.3664566054511558  0.4483913864900780  0.6816973701395280
  0.3442034662756995  0.4355985277692716  0.6453567873098046
  0.3664669799938460  0.4229554352584615  0.5000000000000000
  0.4332194778960453  0.4100148047033605  0.5726770046546307
  0.4332314521852758  0.4614750138218219  0.4999982368130922
  0.4332206986633921  0.3844298165231178  0.4999992516267276
  0.4554818109492307  0.4229554352584615  0.5000000000000000
  0.4554698366600002  0.3714952261400001  0.5726787678415386
  0.4332075036068144  0.3585545955848989  0.6453557724961693
  0.4109532473557711  0.3713468217485394  0.6816973701395280
  0.4109652216450019  0.4228070308670011  0.6090186022979897
  0.3887108617021990  0.4355991603264374  0.6453557724961693
  0.4332182972310842  0.4355985277692716  0.6453567873098046
  0.4554714364065403  0.4483913864900780  0.6816973701395280
  0.5222055902806613  0.1021280436095141  0.3546407011300154
  0.4999593071400001  0.1406530297876923  0.3546424643169231
  0.5444599502234635  0.0893359141500778  0.3183035309318357
  0.5444679233338461  0.1150686741646154  0.2819636964753848
  0.5667130258095461  0.1021274110523484  0.3546417159436507
  0.5889741380953847  0.1406530297876923  0.3546424643169231
  0.6112204212360456  0.1021280436095141  0.3546407011300154
  0.5667010515203151  0.0506672019338867  0.4273204837851892
  0.5889541906957712  0.0634600606546932  0.4636610666149127
  0.5222044096156998  0.1277117666754253  0.4273204837851892
  0.5444575487911558  0.1405046253962318  0.4636610666149127
  0.5667118050421991  0.1277123992325912  0.4273194689715538
  0.5889621638061540  0.0891928206692308  0.4273212321584617
  0.5889661649850020  0.1149202697731549  0.3909822987733743
  0.6112192405710846  0.1277117666754253  0.4273204837851892
  0.4999633083188482  0.1663804788916164  0.3183035309318357
  0.4999712814292306  0.1921132389061537  0.2819636964753848
  0.5222283581941611  0.2306321849123484  0.2819629481021122
  0.5444814973696174  0.2434250436331547  0.3183035309318357
  0.5222163839049305  0.1791719757938867  0.3546417159436507
  0.5444774961907694  0.2176975945292308  0.3546424643169231
  0.5889781392742327  0.1663804788916164  0.3183035309318357
  0.6112312148603151  0.1791719757938867  0.3546417159436507
  0.5667250000987767  0.1535876201708101  0.2819629481021122
  0.5889861123846154  0.1921132389061537  0.2819636964753848
  0.5667237793314300  0.1791726083510526  0.3546407011300154
  0.6112431891495460  0.2306321849123484  0.2819629481021122
  0.5222151631375833  0.2047569639741295  0.4273194689715538
  0.5444695230803864  0.1919648345146935  0.3909822987733743
  0.5444655219015384  0.1662373854107691  0.4273212321584617
  0.4999688799969231  0.2432819501523077  0.4273212321584617
  0.4999609068865398  0.2175491901377702  0.4636610666149127
  0.5889837109523076  0.2432819501523077  0.4273212321584617
  0.5667225986664690  0.2047563314169636  0.4273204837851892
  0.6112299940929683  0.2047569639741295  0.4273194689715538
  0.5889757378419250  0.2175491901377702  0.4636610666149127
  0.6557278567649306  0.1021274110523484  0.3546417159436507
  0.6557266359975836  0.1277123992325912  0.4273194689715538
  0.6779769947615385  0.0891928206692308  0.4273212321584617
  0.6779809959403864  0.1149202697731549  0.3909822987733743
  0.7002340715264689  0.1277117666754253  0.4273204837851892
  0.6779889690507692  0.1406530297876923  0.3546424643169231
  0.6557398310541613  0.1535876201708101  0.2819629481021122
  0.6779929702296172  0.1663804788916164  0.3183035309318357
  0.7002460458156998  0.1791719757938867  0.3546417159436507
  0.6557386102868148  0.1791726083510526  0.3546407011300154
  0.6334963283250017  0.2434250436331547  0.3183035309318357
  0.6334923271461539  0.2176975945292308  0.3546424643169231
  0.6780009433399999  0.1921132389061537  0.2819636964753848
  0.7002580201049305  0.2306321849123484  0.2819629481021122
  0.7225111592803865  0.2434250436331547  0.3183035309318357
  0.7225071581015384  0.2176975945292308  0.3546424643169231
  0.6334843540357712  0.1919648345146935  0.3909822987733743
  0.7224991849911556  0.1919648345146935  0.3909822987733743
  0.7002448250483528  0.2047569639741295  0.4273194689715538
  0.6557374296218538  0.2047563314169636  0.4273204837851892
  0.6334723797465404  0.1405046253962318  0.4636610666149127
  0.6334803528569232  0.1662373854107691  0.4273212321584617
  0.6779905687973096  0.2175491901377702  0.4636610666149127
  0.6779985419076924  0.2432819501523077  0.4273212321584617
  0.7224872107019251  0.1405046253962318  0.4636610666149127
  0.7224951838123077  0.1662373854107691  0.4273212321584617
  0.5444535476123077  0.1147771762923077  0.5000000000000000
  0.6112072662818538  0.0762515575569638  0.4999992516267276
  0.5666998307529684  0.0762521901141295  0.4999982368130922
  0.5444455745019253  0.0890444162777701  0.5363398344564513
  0.5221924353264689  0.0762515575569638  0.4999992516267276
  0.5666986500880071  0.1018359131800407  0.5726780194682660
  0.5444415733230770  0.0633169671738462  0.5726787678415386
  0.6112060455145066  0.1018365457372066  0.5726770046546307
  0.5221912145591219  0.1018365457372066  0.5726770046546307
  0.5889597623738462  0.1403615319153846  0.5726787678415386
  0.5444431730696173  0.1402131275239236  0.6816973701395280
  0.5221900338941609  0.1274202688031178  0.6453567873098046
  0.5666974293206606  0.1274209013602835  0.6453557724961693
  0.5889477880846156  0.0889013227969233  0.6453575356830772
  0.6112048648495459  0.1274202688031178  0.6453567873098046
  0.5889517892634631  0.1146287719008472  0.6090186022979897
  0.5222020081833922  0.1788804779215793  0.5726780194682660
  0.5667094036098915  0.1788811104787449  0.5726770046546307
  0.5222031888483530  0.1532967548556681  0.4999982368130922
  0.5667106243772383  0.1532961222985024  0.4999992516267276
  0.5889637635526948  0.1660889810193087  0.5363398344564513
  0.6112180198037376  0.1532967548556681  0.4999982368130922
  0.6112168391387766  0.1788804779215793  0.5726780194682660
  0.5444671216480792  0.2431335457608473  0.5363398344564513
  0.5444631204692306  0.2174060966569231  0.5726787678415386
  0.4999569057076921  0.1918217410338460  0.5000000000000000
  0.5222139824726230  0.2303406870400408  0.4999992516267276
  0.5667213778991218  0.2303413195972064  0.4999982368130922
  0.5889717366630769  0.1918217410338460  0.5000000000000000
  0.5222007874160451  0.2044654661018221  0.6453557724961693
  0.5444551473588480  0.1916733366423856  0.6090186022979897
  0.5444511461800002  0.1659458875384614  0.6453575356830772
  0.4999545042753848  0.2429904522800000  0.6453575356830772
  0.6112156183714299  0.2044654661018221  0.6453557724961693
  0.5667082229449305  0.2044648335446562  0.6453567873098046
  0.5889693352307692  0.2429904522800000  0.6453575356830772
  0.5889613621203867  0.2172576922654622  0.6816973701395280
  0.6557146617083527  0.0762521901141295  0.4999982368130922
  0.6334683785676920  0.1147771762923077  0.5000000000000000
  0.6557134810433919  0.1018359131800407  0.5726780194682660
  0.6334604054573096  0.0890444162777701  0.5363398344564513
  0.7002208764698914  0.1018365457372066  0.5726770046546307
  0.7224832095230768  0.1147771762923077  0.5000000000000000
  0.6779666202188481  0.1146287719008472  0.6090186022979897
  0.7002196958049307  0.1274202688031178  0.6453567873098046
  0.6557122602760450  0.1274209013602835  0.6453557724961693
  0.6334580040250023  0.1402131275239236  0.6816973701395280
  0.6557254553326231  0.1532961222985024  0.4999992516267276
  0.6557242345652758  0.1788811104787449  0.5726770046546307
  0.6779745933292307  0.1403615319153846  0.5726787678415386
  0.6779785945080788  0.1660889810193087  0.5363398344564513
  0.7002316700941613  0.1788804779215793  0.5726780194682660
  0.7002328507591221  0.1532967548556681  0.4999982368130922
  0.6334819526034637  0.2431335457608473  0.5363398344564513
  0.6334779514246156  0.2174060966569231  0.5726787678415386
  0.6557362088545068  0.2303413195972064  0.4999982368130922
  0.6779865676184612  0.1918217410338460  0.5000000000000000
  0.7002436443833923  0.2303406870400408  0.4999992516267276
  0.7224967835588485  0.2431335457608473  0.5363398344564513
  0.7224927823800000  0.2174060966569231  0.5726787678415386
  0.7224848092696173  0.1916733366423856  0.6090186022979897
  0.6334699783142326  0.1916733366423856  0.6090186022979897
  0.7002304493268147  0.2044654661018221  0.6453557724961693
  0.6557230539003152  0.2044648335446562  0.6453567873098046
  0.6334659771353850  0.1659458875384614  0.6453575356830772
  0.6779761930757713  0.2172576922654622  0.6816973701395280
  0.6779841661861542  0.2429904522800000  0.6453575356830772
  0.7224808080907695  0.1659458875384614  0.6453575356830772
  0.4999808542861539  0.2947421592707693  0.3546424643169231
  0.4999848554650019  0.3204696083746933  0.3183035309318357
  0.4999928285753847  0.3462023683892309  0.2819636964753848
  0.5222379310510844  0.3332611052769639  0.3546417159436507
  0.5444894704799998  0.2691578036476924  0.2819636964753848
  0.5222271374268146  0.2562171730925912  0.3546407011300154
  0.6112419683821991  0.2562171730925912  0.3546407011300154
  0.5667345729556997  0.2562165405354254  0.3546417159436507
  0.5889956852415384  0.2947421592707693  0.3546424643169231
  0.5667465472449306  0.3076767496538870  0.2819629481021122
  0.5889996864203865  0.3204696083746933  0.3183035309318357
  0.5667453264775839  0.3332617378341297  0.3546407011300154
  0.4999728811757712  0.2690093992562319  0.3909822987733743
  0.5444910702265404  0.3460539639977703  0.3909822987733743
  0.5222259567618535  0.2818008961585020  0.4273204837851892
  0.5444870690476925  0.3203265148938462  0.4273212321584617
  0.5444790959373097  0.2945937548793087  0.4636610666149127
  0.5889877121311555  0.2690093992562319  0.3909822987733743
  0.5667333521883530  0.2818015287156680  0.4273194689715538
  0.5667441458126228  0.3588454609000408  0.4273204837851892
  0.6112407877172382  0.2818008961585020  0.4273204837851892
  0.5222499053403151  0.3847213143954255  0.2819629481021122
  0.5667680943910847  0.4617658791369640  0.2819629481021122
  0.5445110176261539  0.4232469331307693  0.2819636964753848
  0.5445030445157711  0.3975141731162319  0.3183035309318357
  0.4999944283219249  0.4230985287393088  0.3909822987733743
  0.5000024014323078  0.4488312887538462  0.3546424643169231
  0.5444990433369230  0.3717867240123077  0.3546424643169231
  0.5222486845729682  0.4103063025756681  0.3546407011300154
  0.5667561201018536  0.4103056700185024  0.3546417159436507
  0.5890172323876923  0.4488312887538462  0.3546424643169231
  0.5890092592773097  0.4230985287393088  0.3909822987733743
  0.5222367102837375  0.3588460934572066  0.4273194689715538
  0.4999904271430770  0.3973710796353848  0.4273212321584617
  0.4999824540326941  0.3716383196208472  0.4636610666149127
  0.5889972849880789  0.3716383196208472  0.4636610666149127
  0.5890052580984616  0.3973710796353848  0.4273212321584617
  0.6112515412391223  0.3588460934572066  0.4273194689715538
  0.5445006430834634  0.4486828843623856  0.4636610666149127
  0.5222475039080072  0.4358900256415794  0.4273204837851892
  0.5667548993345066  0.4358906581987450  0.4273194689715538
  0.6557613782003152  0.3076767496538870  0.2819629481021122
  0.6335043014353847  0.2691578036476924  0.2819636964753848
  0.6557601574329686  0.3332617378341297  0.3546407011300154
  0.6112527620064691  0.3332611052769639  0.3546417159436507
  0.6557494039110843  0.2562165405354254  0.3546417159436507
  0.6780105161969231  0.2947421592707693  0.3546424643169231
  0.7225191323907694  0.2691578036476924  0.2819636964753848
  0.7002567993375838  0.2562171730925912  0.3546407011300154
  0.6780145173757711  0.3204696083746933  0.3183035309318357
  0.7002675929618537  0.3332611052769639  0.3546417159436507
  0.6780224904861539  0.3462023683892309  0.2819636964753848
  0.6335059011819251  0.3460539639977703  0.3909822987733743
  0.6557589767680073  0.3588454609000408  0.4273204837851892
  0.6557481831437376  0.2818015287156680  0.4273194689715538
  0.6780025430865405  0.2690093992562319  0.3909822987733743
  0.7002663721945069  0.3588460934572066  0.4273194689715538
  0.7225207321373097  0.3460539639977703  0.3909822987733743
  0.7002556186726232  0.2818008961585020  0.4273204837851892
  0.6334939268926940  0.2945937548793087  0.4636610666149127
  0.6335019000030770  0.3203265148938462  0.4273212321584617
  0.7225087578480788  0.2945937548793087  0.4636610666149127
  0.7225167309584616  0.3203265148938462  0.4273212321584617
  0.6112647362956998  0.3847213143954255  0.2819629481021122
  0.6335138742923075  0.3717867240123077  0.3546424643169231
  0.6335178754711557  0.3975141731162319  0.3183035309318357
  0.6557709510572383  0.4103056700185024  0.3546417159436507
  0.6335258485815383  0.4232469331307693  0.2819636964753848
  0.6112635155283530  0.4103063025756681  0.3546407011300154
  0.6557829253464691  0.4617658791369640  0.2819629481021122
  0.7002795672510844  0.3847213143954255  0.2819629481021122
  0.7225327064265404  0.3975141731162319  0.3183035309318357
  0.7225287052476922  0.3717867240123077  0.3546424643169231
  0.7002783464837373  0.4103063025756681  0.3546407011300154
  0.7225406795369231  0.4232469331307693  0.2819636964753848
  0.6780121159434634  0.3716383196208472  0.4636610666149127
  0.6112623348633920  0.4358900256415794  0.4273204837851892
  0.6335154740388480  0.4486828843623856  0.4636610666149127
  0.6780200890538461  0.3973710796353848  0.4273212321584617
  0.6780240902326943  0.4230985287393088  0.3909822987733743
  0.7002771658187766  0.4358900256415794  0.4273204837851892
  0.7225303049942327  0.4486828843623856  0.4636610666149127
  0.4999704797434634  0.3201781105023856  0.5363398344564513
  0.4999664785646153  0.2944506613984617  0.5726787678415386
  0.5222127617052760  0.2559256752202833  0.5726770046546307
  0.5444750947584613  0.2688663057753846  0.5000000000000000
  0.5222235553295457  0.3329696074046560  0.5726780194682660
  0.5222247359945066  0.3073858843387450  0.4999982368130922
  0.5889853106988482  0.3201781105023856  0.5363398344564513
  0.5667321715233922  0.3073852517815791  0.4999992516267276
  0.6112395669498913  0.3073858843387450  0.4999982368130922
  0.5667309507560451  0.3329702399618219  0.5726770046546307
  0.6112383862849304  0.3329696074046560  0.5726780194682660
  0.5889813095199998  0.2944506613984617  0.5726787678415386
  0.6112275926606603  0.2559256752202833  0.5726770046546307
  0.5667201972341614  0.2559250426631179  0.5726780194682660
  0.5889932838092309  0.3459108705169232  0.5000000000000000
  0.5222355296187765  0.3844298165231178  0.4999992516267276
  0.5667429250452759  0.3844304490802835  0.4999982368130922
  0.4999784528538462  0.3459108705169232  0.5000000000000000
  0.5444846676153847  0.3714952261400001  0.5726787678415386
  0.5222462831406605  0.4614750138218219  0.4999982368130922
  0.4999880257107693  0.4485397908815386  0.5726787678415386
  0.5444966419046152  0.4229554352584615  0.5000000000000000
  0.5667417443803149  0.4100141721461946  0.5726780194682660
  0.5667537186695457  0.4614743812646563  0.4999992516267276
  0.5890028566661540  0.4485397908815386  0.5726787678415386
  0.4999585054542327  0.2687179013839242  0.6090186022979897
  0.5222223345621992  0.3585545955848989  0.6453557724961693
  0.5222115810403151  0.2815093982861948  0.6453567873098046
  0.5444726933261541  0.3200350170215386  0.6453575356830772
  0.5444647202157712  0.2943022570070008  0.6816973701395280
  0.5889733364096177  0.2687179013839242  0.6090186022979897
  0.5444766945050017  0.3457624661254625  0.6090186022979897
  0.5667189764668144  0.2815100308433602  0.6453557724961693
  0.6112371655175837  0.3585545955848989  0.6453557724961693
  0.5667297700910843  0.3585539630277331  0.6453567873098046
  0.4999680783111557  0.3713468217485394  0.6816973701395280
  0.5889908823769232  0.3970795817630771  0.6453575356830772
  0.5889829092665404  0.3713468217485394  0.6816973701395280
  0.4999800526003866  0.4228070308670011  0.6090186022979897
  0.5889948835557710  0.4228070308670011  0.6090186022979897
  0.5222331281864689  0.4355985277692716  0.6453567873098046
  0.6334899257138461  0.2688663057753846  0.5000000000000000
  0.7002424236160452  0.2559256752202833  0.5726770046546307
  0.7225047566692304  0.2688663057753846  0.5000000000000000
  0.6557350281895460  0.2559250426631179  0.5726780194682660
  0.6779961404753847  0.2944506613984617  0.5726787678415386
  0.6557470024787767  0.3073852517815791  0.4999992516267276
  0.7002543979052759  0.3073858843387450  0.4999982368130922
  0.6780081147646154  0.3459108705169232  0.5000000000000000
  0.6780001416542329  0.3201781105023856  0.5363398344564513
  0.6334994985707694  0.3714952261400001  0.5726787678415386
  0.6557457817114299  0.3329702399618219  0.5726770046546307
  0.7225143295261540  0.3714952261400001  0.5726787678415386
  0.6335114728599999  0.4229554352584615  0.5000000000000000
  0.6112503605741613  0.3844298165231178  0.4999992516267276
  0.6112611140960450  0.4614750138218219  0.4999982368130922
  0.6335034997496174  0.3972226752439241  0.5363398344564513
  0.6112491398068145  0.4100148047033605  0.5726770046546307
  0.6557685496249301  0.4614743812646563  0.4999992516267276
  0.6557577560006607  0.3844304490802835  0.4999982368130922
  0.6557565753356998  0.4100141721461946  0.5726780194682660
  0.7002759450514298  0.4614750138218219  0.4999982368130922
  0.7225263038153845  0.4229554352584615  0.5000000000000000
  0.7002651915295459  0.3844298165231178  0.4999992516267276
  0.7225183307050019  0.3972226752439241  0.5363398344564513
  0.7002639707621993  0.4100148047033605  0.5726770046546307
  0.6780176876215386  0.4485397908815386  0.5726787678415386
  0.6557338074221991  0.2815100308433602  0.6453557724961693
  0.6334915254603867  0.3457624661254625  0.6090186022979897
  0.6779881673650018  0.2687179013839242  0.6090186022979897
  0.7225063564157708  0.3457624661254625  0.6090186022979897
  0.7002412429510844  0.2815093982861948  0.6453567873098046
  0.6334795511711557  0.2943022570070008  0.6816973701395280
  0.6334875242815386  0.3200350170215386  0.6453575356830772
  0.7224943821265405  0.2943022570070008  0.6816973701395280
  0.7225023552369232  0.3200350170215386  0.6453575356830772
  0.6557446010464686  0.3585539630277331  0.6453567873098046
  0.6780097145111558  0.4228070308670011  0.6090186022979897
  0.7002519964729684  0.3585545955848989  0.6453557724961693
  0.6780057133323079  0.3970795817630771  0.6453575356830772
  0.6779977402219249  0.3713468217485394  0.6816973701395280
  0.6112479591418535  0.4355985277692716  0.6453567873098046
  0.6557553545683530  0.4355991603264374  0.6453557724961693
  0.7002627900972379  0.4355985277692716  0.6453567873098046
  0.7225159292726944  0.4483913864900780  0.6816973701395280
  0.7892608767710846  0.1791719757938867  0.3546417159436507
  0.8115259902357715  0.2434250436331547  0.3183035309318357
  0.7892728510603151  0.2306321849123484  0.2819629481021122
  0.7447534412421991  0.1791726083510526  0.3546407011300154
  0.8115219890569231  0.2176975945292308  0.3546424643169231
  0.7447414669529684  0.1277123992325912  0.4273194689715538
  0.7892596560037376  0.2047569639741295  0.4273194689715538
  0.8115140159465403  0.1919648345146935  0.3909822987733743
  0.7670133728630769  0.2432819501523077  0.4273212321584617
  0.8337670915326227  0.2047563314169636  0.4273204837851892
  0.7447522605772381  0.2047563314169636  0.4273204837851892
  0.7670053997526943  0.2175491901377702  0.4636610666149127
  0.8560282038184613  0.2432819501523077  0.4273212321584617
  0.8560202307080790  0.2175491901377702  0.4636610666149127
  0.7669934254634636  0.1660889810193087  0.5363398344564513
  0.7447390655206607  0.1788811104787449  0.5726770046546307
  0.7669894242846154  0.1403615319153846  0.5726787678415386
  0.7447402862880080  0.1532961222985024  0.4999992516267276
  0.7892476817145069  0.1532967548556681  0.4999982368130922
  0.7892465010495460  0.1788804779215793  0.5726780194682660
  0.7447510398098913  0.2303413195972064  0.4999982368130922
  0.7670013985738460  0.1918217410338460  0.5000000000000000
  0.7892584753387770  0.2303406870400408  0.4999992516267276
  0.8115076133353845  0.2174060966569231  0.5726787678415386
  0.8115116145142329  0.2431335457608473  0.5363398344564513
  0.8337658707652759  0.2303413195972064  0.4999982368130922
  0.7447378848556999  0.2044648335446562  0.6453567873098046
  0.7892452802821990  0.2044654661018221  0.6453557724961693
  0.7669989971415387  0.2429904522800000  0.6453575356830772
  0.7669910240311557  0.2172576922654622  0.6816973701395280
  0.8114996402250020  0.1916733366423856  0.6090186022979897
  0.7670253471523077  0.2947421592707693  0.3546424643169231
  0.7447642348664690  0.2562165405354254  0.3546417159436507
  0.7447749883883531  0.3332617378341297  0.3546407011300154
  0.7892716302929682  0.2562171730925912  0.3546407011300154
  0.7670293483311559  0.3204696083746933  0.3183035309318357
  0.7670373214415386  0.3462023683892309  0.2819636964753848
  0.8337790658218537  0.2562165405354254  0.3546417159436507
  0.8115339633461538  0.2691578036476924  0.2819636964753848
  0.8560401781076923  0.2947421592707693  0.3546424643169231
  0.8337910401110844  0.3076767496538870  0.2819629481021122
  0.8337898193437376  0.3332617378341297  0.3546407011300154
  0.7892824239172381  0.3332611052769639  0.3546417159436507
  0.7670173740419250  0.2690093992562319  0.3909822987733743
  0.7447630140991222  0.2818015287156680  0.4273194689715538
  0.7892704496280075  0.2818008961585020  0.4273204837851892
  0.8115355630926944  0.3460539639977703  0.3909822987733743
  0.8560322049973095  0.2690093992562319  0.3909822987733743
  0.8337778450545069  0.2818015287156680  0.4273194689715538
  0.8115315619138462  0.3203265148938462  0.4273212321584617
  0.8115235888034634  0.2945937548793087  0.4636610666149127
  0.8115555104923077  0.4232469331307693  0.2819636964753848
  0.7892943982064691  0.3847213143954255  0.2819629481021122
  0.8338125872572383  0.4617658791369640  0.2819629481021122
  0.7447977563018537  0.4617658791369640  0.2819629481021122
  0.8115475373819251  0.3975141731162319  0.3183035309318357
  0.8115435362030767  0.3717867240123077  0.3546424643169231
  0.7447857820126229  0.4103056700185024  0.3546417159436507
  0.8338006129680073  0.4103056700185024  0.3546417159436507
  0.7892931774391220  0.4103063025756681  0.3546407011300154
  0.7670389211880789  0.4230985287393088  0.3909822987733743
  0.7670468942984615  0.4488312887538462  0.3546424643169231
  0.7670269468988480  0.3716383196208472  0.4636610666149127
  0.7892812031498915  0.3588460934572066  0.4273194689715538
  0.7447738077233921  0.3588454609000408  0.4273204837851892
  0.7447845612452760  0.4358906581987450  0.4273194689715538
  0.7892919967741613  0.4358900256415794  0.4273204837851892
  0.8337886386787768  0.3588454609000408  0.4273204837851892
  0.8560417778542326  0.3716383196208472  0.4636610666149127
  0.8115451359496173  0.4486828843623856  0.4636610666149127
  0.8337993922006606  0.4358906581987450  0.4273194689715538
  0.8560521523969232  0.3462023683892309  0.2819636964753848
  0.8782972548726229  0.3332611052769639  0.3546417159436507
  0.9005503940480789  0.3460539639977703  0.3909822987733743
  0.8782960341052761  0.3588460934572066  0.4273194689715538
  0.9005384197588482  0.2945937548793087  0.4636610666149127
  0.8782852805833919  0.2818008961585020  0.4273204837851892
  0.9005463928692308  0.3203265148938462  0.4273212321584617
  0.9228034696341612  0.3588454609000408  0.4273204837851892
  0.9005583671584615  0.3717867240123077  0.3546424643169231
  0.8783092291618538  0.3847213143954255  0.2819629481021122
  0.9005623683373098  0.3975141731162319  0.3183035309318357
  0.8783080083945071  0.4103063025756681  0.3546407011300154
  0.8560617252538462  0.4488312887538462  0.3546424643169231
  0.8560537521434636  0.4230985287393088  0.3909822987733743
  0.8560497509646152  0.3973710796353848  0.4273212321584617
  0.8783068277295460  0.4358900256415794  0.4273204837851892
  0.9005599669050018  0.4486828843623856  0.4636610666149127
  0.9228142231560453  0.4358906581987450  0.4273194689715538
  0.7892572545714299  0.2559256752202833  0.5726770046546307
  0.7447498591449306  0.2559250426631179  0.5726780194682660
  0.7670109714307690  0.2944506613984617  0.5726787678415386
  0.7447618334341617  0.3073852517815791  0.4999992516267276
  0.7670149726096173  0.3201781105023856  0.5363398344564513
  0.7670229457200001  0.3459108705169232  0.5000000000000000
  0.7892680481956996  0.3329696074046560  0.5726780194682660
  0.7447606126668146  0.3329702399618219  0.5726770046546307
  0.8337646901003151  0.2559250426631179  0.5726780194682660
  0.8560258023861537  0.2944506613984617  0.5726787678415386
  0.8115195876246154  0.2688663057753846  0.5000000000000000
  0.8337766643895463  0.3073852517815791  0.4999992516267276
  0.7892692288606605  0.3073858843387450  0.4999982368130922
  0.8560298035650021  0.3201781105023856  0.5363398344564513
  0.8337754436221992  0.3329702399618219  0.5726770046546307
  0.7670029983203865  0.2687179013839242  0.6090186022979897
  0.7447486383775839  0.2815100308433602  0.6453557724961693
  0.7892560739064691  0.2815093982861948  0.6453567873098046
  0.8560178292757712  0.2687179013839242  0.6090186022979897
  0.8115211873711556  0.3457624661254625  0.6090186022979897
  0.8337634693329681  0.2815100308433602  0.6453557724961693
  0.8115171861923081  0.3200350170215386  0.6453575356830772
  0.8115092130819253  0.2943022570070008  0.6816973701395280
  0.7892907760068142  0.4614750138218219  0.4999982368130922
  0.7447833805803150  0.4614743812646563  0.4999992516267276
  0.8115331616603866  0.3972226752439241  0.5363398344564513
  0.8337982115356997  0.4614743812646563  0.4999992516267276
  0.8115411347707691  0.4229554352584615  0.5000000000000000
  0.8337874179114300  0.3844304490802835  0.4999982368130922
  0.7447725869560453  0.3844304490802835  0.4999982368130922
  0.7892800224849306  0.3844298165231178  0.4999992516267276
  0.8115291604815386  0.3714952261400001  0.5726787678415386
  0.7447714062910844  0.4100141721461946  0.5726780194682660
  0.8337862372464692  0.4100141721461946  0.5726780194682660
  0.7892788017175841  0.4100148047033605  0.5726770046546307
  0.7670245454665404  0.4228070308670011  0.6090186022979897
  0.7670325185769232  0.4485397908815386  0.5726787678415386
  0.7892668274283530  0.3585545955848989  0.6453557724961693
  0.7447594320018536  0.3585539630277331  0.6453567873098046
  0.7670205442876924  0.3970795817630771  0.6453575356830772
  0.7447701855237377  0.4355991603264374  0.6453557724961693
  0.7892776210526229  0.4355985277692716  0.6453567873098046
  0.8560274021326945  0.3713468217485394  0.6816973701395280
  0.8337742629572382  0.3585539630277331  0.6453567873098046
  0.8337850164791222  0.4355991603264374  0.6453557724961693
  0.8115307602280789  0.4483913864900780  0.6816973701395280
  0.8782828791510843  0.3329696074046560  0.5726780194682660
  0.8560377766753846  0.3459108705169232  0.5000000000000000
  0.8782840598160448  0.3073858843387450  0.4999982368130922
  0.8782720855268141  0.2559256752202833  0.5726770046546307
  0.9227902745775836  0.3329702399618219  0.5726770046546307
  0.9005360183265405  0.3457624661254625  0.6090186022979897
  0.8782816583837377  0.3585545955848989  0.6453557724961693
  0.8782709048618533  0.2815093982861948  0.6453567873098046
  0.9005479926157713  0.3972226752439241  0.5363398344564513
  0.8782948534403154  0.3844298165231178  0.4999992516267276
  0.9005439914369231  0.3714952261400001  0.5726787678415386
  0.8782936326729684  0.4100148047033605  0.5726770046546307
  0.9005559657261538  0.4229554352584615  0.5000000000000000
  0.8783056069621992  0.4614750138218219  0.4999982368130922
  0.8560473495323078  0.4485397908815386  0.5726787678415386
  0.9228022488668143  0.3844304490802835  0.4999982368130922
  0.9228010682018535  0.4100141721461946  0.5726780194682660
  0.9228130424910846  0.4614743812646563  0.4999992516267276
  0.9450621804876921  0.4485397908815386  0.5726787678415386
  0.8560353752430770  0.3970795817630771  0.6453575356830772
  0.8560393764219250  0.4228070308670011  0.6090186022979897
  0.8782924520080074  0.4355985277692716  0.6453567873098046
  0.9005455911834637  0.4483913864900780  0.6816973701395280
  0.9227998474345069  0.4355991603264374  0.6453557724961693
  0.2996517557895458  0.1530046244261947  0.7180355551513430
  0.3219048949650020  0.1657974831470010  0.7543761379810665
  0.3219128680753846  0.1915302431615383  0.7180363035246154
  0.3441591512160451  0.1530052569833601  0.7180345403377076
  0.3441579705510843  0.1785889800492716  0.7907143229928814
  0.1661510364514296  0.3070943864664371  0.7180345403377076
  0.1884013952153845  0.2685748079030769  0.7180363035246154
  0.2106476783560454  0.2300498217248987  0.7180345403377076
  0.2106584719803151  0.3070937539092716  0.7180355551513430
  0.2551658674068144  0.3070943864664371  0.7180345403377076
  0.2551551138849305  0.2300491891677331  0.7180355551513430
  0.2996625093114297  0.2300498217248987  0.7180345403377076
  0.3441699448403150  0.2300491891677331  0.7180355551513430
  0.2774082530603869  0.2428420478885393  0.7543761379810665
  0.3441806983621992  0.3070943864664371  0.7180345403377076
  0.2774162261707693  0.2685748079030769  0.7180363035246154
  0.2996733029356994  0.3070937539092716  0.7180355551513430
  0.2329076099769230  0.2941591635261536  0.7907150713661539
  0.2551538931175837  0.2556341773479761  0.7907133081792460
  0.2996613286464689  0.2556335447908100  0.7907143229928814
  0.3219144678219250  0.2684264035116162  0.8270549058226049
  0.3219224409323078  0.2941591635261536  0.7907150713661539
  0.3441687240729682  0.2556341773479761  0.7907133081792460
  0.3441675434080075  0.2812179004138868  0.8633930908344200
  0.3886665867449301  0.1530046244261947  0.7180355551513430
  0.4331739821714296  0.1530052569833601  0.7180345403377076
  0.4109197259203867  0.1657974831470010  0.7543761379810665
  0.4331728015064689  0.1785889800492716  0.7907143229928814
  0.3886653659775836  0.1785896126064375  0.7907133081792460
  0.3664310571261538  0.2685748079030769  0.7180363035246154
  0.4331955293175835  0.3070943864664371  0.7180345403377076
  0.4331847757956993  0.2300491891677331  0.7180355551513430
  0.3886773402668143  0.2300498217248987  0.7180345403377076
  0.4109276990307691  0.1915302431615383  0.7180363035246154
  0.3886881338910842  0.3070937539092716  0.7180355551513430
  0.3664230840157712  0.2428420478885393  0.7543761379810665
  0.3886761596018535  0.2556335447908100  0.7907143229928814
  0.3664190828369229  0.2171145987846154  0.7907150713661539
  0.4109292987773095  0.2684264035116162  0.8270549058226049
  0.4109372718876921  0.2941591635261536  0.7907150713661539
  0.4109252975984616  0.2426989544076923  0.8633938392076924
  0.4331823743633920  0.2812179004138868  0.8633930908344200
  0.3886749388345068  0.2812185329710527  0.8633920760207846
  0.1216543945468145  0.3841389512079758  0.7180345403377076
  0.1884109680723075  0.3712037282676922  0.7907150713661539
  0.1661618300756995  0.3841383186508100  0.7180355551513430
  0.2106572512129684  0.3326787420895142  0.7907133081792460
  0.1439047533107690  0.3456193726446155  0.7180363035246154
  0.1884149692511558  0.3969311773716165  0.7543761379810665
  0.1216651881710843  0.4611828833923486  0.7180355551513430
  0.1661606093083529  0.4097233068310527  0.7907133081792460
  0.1661725835975837  0.4611835159495142  0.7180345403377076
  0.1884229423615384  0.4226639373861539  0.7180363035246154
  0.2106800191264690  0.4611828833923486  0.7180355551513430
  0.2329195842661535  0.3456193726446155  0.7180363035246154
  0.2996840564575838  0.3841389512079758  0.7180345403377076
  0.2551766610310841  0.3841383186508100  0.7180355551513430
  0.2329116111557711  0.3198866126300779  0.7543761379810665
  0.2774298002065403  0.3969311773716165  0.7543761379810665
  0.2774257990276922  0.3712037282676922  0.7907150713661539
  0.2551646867418536  0.3326781095323483  0.7907143229928814
  0.2996720821683529  0.3326787420895142  0.7907133081792460
  0.2551874145529683  0.4611835159495142  0.7180345403377076
  0.2551754402637374  0.4097233068310527  0.7907133081792460
  0.2329291571230769  0.4482482930092309  0.7907150713661539
  0.2774377733169230  0.4226639373861539  0.7180363035246154
  0.2996828757926228  0.4097226742738866  0.7907143229928814
  0.2996948500818535  0.4611828833923486  0.7180355551513430
  0.2329211840126943  0.4225155329946934  0.8270549058226049
  0.2996709015033919  0.3582624651554254  0.8633930908344200
  0.2774178259173096  0.3454709682531548  0.8270549058226049
  0.2551634659745065  0.3582630977125911  0.8633920760207846
  0.2996816550252759  0.4353076624541296  0.8633920760207846
  0.2551742595987766  0.4353070298969640  0.8633930908344200
  0.3219240406788481  0.3710553238762317  0.8997336736641435
  0.2774273987742326  0.4480998886177703  0.8997336736641435
  0.4109412730665404  0.3198866126300779  0.7543761379810665
  0.3219264421111561  0.3198866126300779  0.7543761379810665
  0.4109492461769230  0.3456193726446155  0.7180363035246154
  0.3219344152215383  0.3456193726446155  0.7180363035246154
  0.3886988874129682  0.3841389512079758  0.7180345403377076
  0.4332063229418534  0.3841383186508100  0.7180355551513430
  0.3441914919864686  0.3841383186508100  0.7180355551513430
  0.3442022455083529  0.4611835159495142  0.7180345403377076
  0.3664526042723077  0.4226639373861539  0.7180363035246154
  0.3664446311619249  0.3969311773716165  0.7543761379810665
  0.3887096810372382  0.4611828833923486  0.7180355551513430
  0.4332170764637375  0.4611835159495142  0.7180345403377076
  0.3441795176972381  0.3326781095323483  0.7907143229928814
  0.3664326568726942  0.3454709682531548  0.8270549058226049
  0.3664406299830770  0.3712037282676922  0.7907150713661539
  0.3886869131237375  0.3326787420895142  0.7907133081792460
  0.4331943486526227  0.3326781095323483  0.7907143229928814
  0.3219439880784615  0.4482482930092309  0.7907150713661539
  0.3219360149680791  0.4225155329946934  0.8270549058226049
  0.3441902712191222  0.4097233068310527  0.7907133081792460
  0.3886977067480074  0.4097226742738866  0.7907143229928814
  0.4109508459234634  0.4225155329946934  0.8270549058226049
  0.4109588190338461  0.4482482930092309  0.7907150713661539
  0.4332051021745066  0.4097233068310527  0.7907133081792460
  0.3664286556938461  0.3197435191492307  0.8633938392076924
  0.3886857324587767  0.3582624651554254  0.8633930908344200
  0.4109468447446153  0.3967880838907692  0.8633938392076924
  0.4331931278852760  0.3582630977125911  0.8633920760207846
  0.3441782969298917  0.3582630977125911  0.8633920760207846
  0.4109388716342327  0.3710553238762317  0.8997336736641435
  0.4331919472203148  0.3838468207785021  0.9360718586759583
  0.3886964859806605  0.4353076624541296  0.8633920760207846
  0.3441890905541611  0.4353070298969640  0.8633930908344200
  0.3219320137892305  0.3967880838907692  0.8633938392076924
  0.4332039215095457  0.4353070298969640  0.8633930908344200
  0.3664422297296175  0.4480998886177703  0.8997336736641435
  0.3886953053156997  0.4608913855200407  0.9360718586759583
  0.4332027007421990  0.4608920180772065  0.9360708438623230
  0.4554243409353847  0.1144856784200000  0.7180363035246154
  0.5444391718907693  0.1144856784200000  0.7180363035246154
  0.5221996067510846  0.2300491891677331  0.7180355551513430
  0.5221888131268142  0.1530052569833601  0.7180345403377076
  0.4776921712221990  0.2300498217248987  0.7180345403377076
  0.4776814177003153  0.1530046244261947  0.7180355551513430
  0.4554379149711560  0.2428420478885393  0.7543761379810665
  0.4999425299861541  0.1915302431615383  0.7180363035246154
  0.4999345568757709  0.1657974831470010  0.7543761379810665
  0.4776801969329681  0.1785896126064375  0.7907133081792460
  0.5221876324618536  0.1785889800492716  0.7907143229928814
  0.4554259406819250  0.1913818387700779  0.8270549058226049
  0.4554339137923072  0.2171145987846154  0.7907150713661539
  0.6112036440821990  0.1530052569833601  0.7180345403377076
  0.5666962486556997  0.1530046244261947  0.7180355551513430
  0.5889493878311558  0.1657974831470010  0.7543761379810665
  0.5889573609415385  0.1915302431615383  0.7180363035246154
  0.6112144377064691  0.2300491891677331  0.7180355551513430
  0.5444527459265402  0.2428420478885393  0.7543761379810665
  0.5666950278883531  0.1785896126064375  0.7907133081792460
  0.6112024634172382  0.1785889800492716  0.7907143229928814
  0.5444407716373094  0.1913818387700779  0.8270549058226049
  0.5444487447476924  0.2171145987846154  0.7907150713661539
  0.4999401285538460  0.2426989544076923  0.8633938392076924
  0.5889549595092309  0.2426989544076923  0.8633938392076924
  0.4554458880815388  0.2685748079030769  0.7180363035246154
  0.4777029648464690  0.3070937539092716  0.7180355551513430
  0.5222103602729683  0.3070943864664371  0.7180345403377076
  0.4999561040219252  0.3198866126300779  0.7543761379810665
  0.4999640771323078  0.3456193726446155  0.7180363035246154
  0.5221983859837371  0.2556341773479761  0.7907133081792460
  0.4999441297326940  0.2684264035116162  0.8270549058226049
  0.4776909905572381  0.2556335447908100  0.7907143229928814
  0.4999521028430769  0.2941591635261536  0.7907150713661539
  0.4777017440791220  0.3326787420895142  0.7907133081792460
  0.5222091796080075  0.3326781095323483  0.7907143229928814
  0.4554474878280787  0.3454709682531548  0.8270549058226049
  0.5667177958018533  0.3070937539092716  0.7180355551513430
  0.5444607190369232  0.2685748079030769  0.7180363035246154
  0.6112251912283531  0.3070943864664371  0.7180345403377076
  0.5889709349773096  0.3198866126300779  0.7543761379810665
  0.6112132169391221  0.2556341773479761  0.7907133081792460
  0.5889589606880788  0.2684264035116162  0.8270549058226049
  0.5667058215126228  0.2556335447908100  0.7907143229928814
  0.5889669337984617  0.2941591635261536  0.7907150713661539
  0.6112240105633918  0.3326781095323483  0.7907143229928814
  0.5667165750345066  0.3326787420895142  0.7907133081792460
  0.5444623187834633  0.3454709682531548  0.8270549058226049
  0.4554594621173096  0.3969311773716165  0.7543761379810665
  0.5222211538972382  0.3841383186508100  0.7180355551513430
  0.4777137183683528  0.3841389512079758  0.7180345403377076
  0.4554674352276922  0.4226639373861539  0.7180363035246154
  0.4777245119926227  0.4611828833923486  0.7180355551513430
  0.5222319074191222  0.4611835159495142  0.7180345403377076
  0.4554554609384613  0.3712037282676922  0.7907150713661539
  0.4777125377033919  0.4097226742738866  0.7907143229928814
  0.5222199331298912  0.4097233068310527  0.7907133081792460
  0.4999656768788481  0.4225155329946934  0.8270549058226049
  0.4999736499892307  0.4482482930092309  0.7907150713661539
  0.5889789080876924  0.3456193726446155  0.7180363035246154
  0.6112467383745069  0.4611835159495142  0.7180345403377076
  0.6112359848526225  0.3841383186508100  0.7180355551513430
  0.5444822661830769  0.4226639373861539  0.7180363035246154
  0.5667393429480074  0.4611828833923486  0.7180355551513430
  0.5667285493237375  0.3841389512079758  0.7180345403377076
  0.5444742930726945  0.3969311773716165  0.7543761379810665
  0.6112347640852757  0.4097233068310527  0.7907133081792460
  0.5667273686587767  0.4097226742738866  0.7907143229928814
  0.5444702918938461  0.3712037282676922  0.7907150713661539
  0.5889805078342325  0.4225155329946934  0.8270549058226049
  0.5889884809446153  0.4482482930092309  0.7907150713661539
  0.5221972053187766  0.2812179004138868  0.8633930908344200
  0.4776897697898915  0.2812185329710527  0.8633920760207846
  0.4554355135388480  0.2940107591346931  0.8997336736641435
  0.4554434866492308  0.3197435191492307  0.8633938392076924
  0.5222079588406605  0.3582630977125911  0.8633920760207846
  0.4777005634141612  0.3582624651554254  0.8633930908344200
  0.5444503444942326  0.2940107591346931  0.8997336736641435
  0.5667046007452763  0.2812185329710527  0.8633920760207846
  0.6112120362741613  0.2812179004138868  0.8633930908344200
  0.5444583176046154  0.3197435191492307  0.8633938392076924
  0.6112227897960455  0.3582630977125911  0.8633920760207846
  0.5667153943695458  0.3582624651554254  0.8633930908344200
  0.4999537025896172  0.3710553238762317  0.8997336736641435
  0.4999616757000001  0.3967880838907692  0.8633938392076924
  0.5222187524649304  0.4353070298969640  0.8633930908344200
  0.4777113169360451  0.4353076624541296  0.8633920760207846
  0.4554570606850019  0.4480998886177703  0.8997336736641435
  0.4776993426468145  0.3838474533356680  0.9360708438623230
  0.5222067781756997  0.3838468207785021  0.9360718586759583
  0.4777101362710842  0.4608913855200407  0.9360718586759583
  0.4554530595061538  0.4223724395138462  0.9360726070492308
  0.5222175316975834  0.4608920180772065  0.9360708438623230
  0.5889685335450020  0.3710553238762317  0.8997336736641435
  0.5889765066553846  0.3967880838907692  0.8633938392076924
  0.5667261478914297  0.4353076624541296  0.8633920760207846
  0.6112335834203150  0.4353070298969640  0.8633930908344200
  0.5444718916403865  0.4480998886177703  0.8997336736641435
  0.5667141736021988  0.3838474533356680  0.9360708438623230
  0.5444678904615384  0.4223724395138462  0.9360726070492308
  0.5667249672264689  0.4608913855200407  0.9360718586759583
  0.6112323626529681  0.4608920180772065  0.9360708438623230
  0.6557110796110842  0.1530046244261947  0.7180355551513430
  0.6557218331329684  0.2300498217248987  0.7180345403377076
  0.7002184750375837  0.1530052569833601  0.7180345403377076
  0.6779721918969230  0.1915302431615383  0.7180363035246154
  0.7002292686618536  0.2300491891677331  0.7180355551513430
  0.6334675768819255  0.2428420478885393  0.7543761379810665
  0.6779642187865407  0.1657974831470010  0.7543761379810665
  0.6557098588437377  0.1785896126064375  0.7907133081792460
  0.7892440996172382  0.2300491891677331  0.7180355551513430
  0.7224824078373099  0.2428420478885393  0.7543761379810665
  0.7447366640883529  0.2300498217248987  0.7180345403377076
  0.6779937390430769  0.3456193726446155  0.7180363035246154
  0.6557326267572383  0.3070937539092716  0.7180355551513430
  0.7002400221837372  0.3070943864664371  0.7180345403377076
  0.6334755499923077  0.2685748079030769  0.7180363035246154
  0.6779857659326948  0.3198866126300779  0.7543761379810665
  0.6779737916434636  0.2684264035116162  0.8270549058226049
  0.7002280478945069  0.2556341773479761  0.7907133081792460
  0.6557206524680076  0.2556335447908100  0.7907143229928814
  0.6779817647538460  0.2941591635261536  0.7907150713661539
  0.7002388415187766  0.3326781095323483  0.7907143229928814
  0.6557314059898913  0.3326787420895142  0.7907133081792460
  0.6334771497388481  0.3454709682531548  0.8270549058226049
  0.7224903809476922  0.2685748079030769  0.7180363035246154
  0.7670085699984617  0.3456193726446155  0.7180363035246154
  0.7892548531391221  0.3070943864664371  0.7180345403377076
  0.7447474577126229  0.3070937539092716  0.7180355551513430
  0.7670005968880791  0.3198866126300779  0.7543761379810665
  0.7447354834233921  0.2556335447908100  0.7907143229928814
  0.7669965957092307  0.2941591635261536  0.7907150713661539
  0.7892536724741613  0.3326781095323483  0.7907143229928814
  0.7447462369452761  0.3326787420895142  0.7907133081792460
  0.7224919806942328  0.3454709682531548  0.8270549058226049
  0.6557433802791220  0.3841389512079758  0.7180345403377076
  0.7002508158080073  0.3841383186508100  0.7180355551513430
  0.6334891240280790  0.3969311773716165  0.7543761379810665
  0.6334970971384616  0.4226639373861539  0.7180363035246154
  0.6557541739033921  0.4611828833923486  0.7180355551513430
  0.7002615693298914  0.4611835159495142  0.7180345403377076
  0.6334851228492309  0.3712037282676922  0.7907150713661539
  0.7002495950406604  0.4097233068310527  0.7907133081792460
  0.6557421996141615  0.4097226742738866  0.7907143229928814
  0.6779953387896170  0.4225155329946934  0.8270549058226049
  0.6780033119000001  0.4482482930092309  0.7907150713661539
  0.7892656467633918  0.3841383186508100  0.7180355551513430
  0.7447582112345068  0.3841389512079758  0.7180345403377076
  0.7225039549834640  0.3969311773716165  0.7543761379810665
  0.7225119280938461  0.4226639373861539  0.7180363035246154
  0.7892764002852761  0.4611835159495142  0.7180345403377076
  0.7447690048587766  0.4611828833923486  0.7180355551513430
  0.7447570305695458  0.4097226742738866  0.7907143229928814
  0.7224999538046152  0.3712037282676922  0.7907150713661539
  0.7892644259960452  0.4097233068310527  0.7907133081792460
  0.7670101697450020  0.4225155329946934  0.8270549058226049
  0.7670181428553846  0.4482482930092309  0.7907150713661539
  0.6557194317006610  0.2812185329710527  0.8633920760207846
  0.6334731485599999  0.3197435191492307  0.8633938392076924
  0.7002376207514303  0.3582630977125911  0.8633920760207846
  0.6557302253249305  0.3582624651554254  0.8633930908344200
  0.7447450562803153  0.3582624651554254  0.8633930908344200
  0.6779833645003865  0.3710553238762317  0.8997336736641435
  0.6779913376107691  0.3967880838907692  0.8633938392076924
  0.7002484143756995  0.4353070298969640  0.8633930908344200
  0.6557409788468145  0.4353076624541296  0.8633920760207846
  0.6334867225957712  0.4480998886177703  0.8997336736641435
  0.7447558098021990  0.4353076624541296  0.8633920760207846
  0.7225015535511555  0.4480998886177703  0.8997336736641435
  0.8115052119030771  0.2685748079030769  0.7180363035246154
  0.8337622886680073  0.3070937539092716  0.7180355551513430
  0.8560234009538463  0.3456193726446155  0.7180363035246154
  0.8782804777187765  0.3841383186508100  0.7180355551513430
  0.8115187859388484  0.3969311773716165  0.7543761379810665
  0.8115267590492308  0.4226639373861539  0.7180363035246154
  0.8337838358141612  0.4611828833923486  0.7180355551513430
  0.8782912312406609  0.4611835159495142  0.7180345403377076
  0.8115147847599998  0.3712037282676922  0.7907150713661539
  0.8337718615249309  0.4097226742738866  0.7907143229928814
  0.0771853234203151  0.4873502347600408  0.3546417159436507
  0.1216927188468145  0.4873508673172067  0.3546407011300154
  0.0994504368850020  0.5516033025993087  0.3183035309318357
  0.0771960769421991  0.5643954320587450  0.3546407011300154
  0.1217035124710843  0.5643947995015791  0.3546417159436507
  0.0994464357061539  0.5258758534953847  0.3546424643169231
  0.0994384625957710  0.5001430934808473  0.3909822987733743
  0.0994344614169231  0.4744156443769231  0.4273212321584617
  0.1216915381818535  0.5129345903831178  0.4273204837851892
  0.0771841026529683  0.5129352229402834  0.4273194689715538
  0.0549378195123078  0.5514602091184615  0.4273212321584617
  0.0771948962772381  0.5899791551246563  0.4273204837851892
  0.1662001543756998  0.4873502347600408  0.3546417159436507
  0.1439470787896173  0.4745587378577703  0.3183035309318357
  0.2107075498021990  0.4873508673172067  0.3546407011300154
  0.2329619097450020  0.4745587378577703  0.3183035309318357
  0.1439550518999999  0.5002914978723078  0.2819636964753848
  0.1884612666615385  0.5258758534953847  0.3546424643169231
  0.1884732409507692  0.5773360626138462  0.2819636964753848
  0.1662121286649304  0.5388104438785024  0.2819629481021122
  0.1884652678403865  0.5516033025993087  0.3183035309318357
  0.2107183434264690  0.5643947995015791  0.3546417159436507
  0.1662109078975837  0.5643954320587450  0.3546407011300154
  0.1884532935511559  0.5001430934808473  0.3909822987733743
  0.1661989336083529  0.5129352229402834  0.4273194689715538
  0.2107063691372381  0.5129345903831178  0.4273204837851892
  0.1884492923723076  0.4744156443769231  0.4273212321584617
  0.2329595083126942  0.5257274491039241  0.4636610666149127
  0.1439446773573097  0.5257274491039241  0.4636610666149127
  0.1439526504676923  0.5514602091184615  0.4273212321584617
  0.1439566516465404  0.5771876582223856  0.3909822987733743
  0.2329714826019249  0.5771876582223856  0.3909822987733743
  0.2329674814230768  0.5514602091184615  0.4273212321584617
  0.1217154867603150  0.6158550086200409  0.2819629481021122
  0.1217142659929682  0.6414399968002835  0.3546407011300154
  0.1439686259357713  0.6286478673408471  0.3183035309318357
  0.2107290969483529  0.6414399968002835  0.3546407011300154
  0.2329794557123076  0.6029204182369231  0.3546424643169231
  0.2107303177156996  0.6158550086200409  0.2819629481021122
  0.1662217015218534  0.6414393642431178  0.3546417159436507
  0.1439765990461537  0.6543806273553846  0.2819636964753848
  0.2329914300015384  0.6543806273553846  0.2819636964753848
  0.2329834568911557  0.6286478673408471  0.3183035309318357
  0.1662204807545067  0.6670243524233603  0.4273194689715538
  0.1217022917037376  0.5899797876818220  0.4273194689715538
  0.0994560085630769  0.6285047738600000  0.4273212321584617
  0.1217130853280074  0.6670237198661948  0.4273204837851892
  0.1884748406973096  0.6542322229639244  0.3909822987733743
  0.2107171226591222  0.5899797876818220  0.4273194689715538
  0.2107279162833919  0.6670237198661948  0.4273204837851892
  0.1884708395184614  0.6285047738600000  0.4273212321584617
  0.1884628664080789  0.6027720138454625  0.4636610666149127
  0.1662324550437376  0.7184845615418219  0.3546407011300154
  0.1884868149865405  0.7056924320823857  0.3183035309318357
  0.1662336758110842  0.6928995733615794  0.2819629481021122
  0.2107518648618535  0.7699441381031177  0.2819629481021122
  0.2107506440945068  0.7955291262833605  0.3546407011300154
  0.1217250596172382  0.7184839289846561  0.3546417159436507
  0.1439741976138460  0.7055493386015385  0.4273212321584617
  0.1884828138076922  0.6799649829784615  0.3546424643169231
  0.2107398905726228  0.7184839289846561  0.3546417159436507
  0.2329810554588477  0.6798165785870008  0.4636610666149127
  0.2329890285692306  0.7055493386015385  0.4273212321584617
  0.2329930297480788  0.7312767877054626  0.3909822987733743
  0.1662312743787764  0.7440682846077332  0.4273204837851892
  0.2107386698052760  0.7440689171648990  0.4273194689715538
  0.2107494634295458  0.8211128493492716  0.4273204837851892
  0.1884923866646155  0.7825939033430770  0.4273212321584617
  0.2552149853310844  0.4873502347600408  0.3546417159436507
  0.2774800987957712  0.5516033025993087  0.3183035309318357
  0.2997223807575837  0.4873508673172067  0.3546407011300154
  0.3219767407003865  0.4745587378577703  0.3183035309318357
  0.3664909285723076  0.5258758534953847  0.3546424643169231
  0.2774880719061539  0.5773360626138462  0.2819636964753848
  0.2997331743818535  0.5643947995015791  0.3546417159436507
  0.2997439279037376  0.6414399968002835  0.3546407011300154
  0.2552365324772381  0.6414393642431178  0.3546417159436507
  0.2552257388529685  0.5643954320587450  0.3546407011300154
  0.3219942866676923  0.6029204182369231  0.3546424643169231
  0.3219982878465404  0.6286478673408471  0.3183035309318357
  0.3220062609569231  0.6543806273553846  0.2819636964753848
  0.3442513634326229  0.6414393642431178  0.3546417159436507
  0.3665029028615385  0.5773360626138462  0.2819636964753848
  0.2774681245065404  0.5001430934808473  0.3909822987733743
  0.2552137645637375  0.5129352229402834  0.4273194689715538
  0.2774641233276923  0.4744156443769231  0.4273212321584617
  0.2997212000926226  0.5129345903831178  0.4273204837851892
  0.3219863135573097  0.5771876582223856  0.3909822987733743
  0.3664829554619251  0.5001430934808473  0.3909822987733743
  0.3664789542830769  0.4744156443769231  0.4273212321584617
  0.3219743392680789  0.5257274491039241  0.4636610666149127
  0.2774896716526943  0.6542322229639244  0.3909822987733743
  0.2997319536145067  0.5899797876818220  0.4273194689715538
  0.2774856704738461  0.6285047738600000  0.4273212321584617
  0.2552245581880073  0.5899791551246563  0.4273204837851892
  0.2774776973634634  0.6027720138454625  0.4636610666149127
  0.3665045026080790  0.6542322229639244  0.3909822987733743
  0.3665005014292309  0.6285047738600000  0.4273212321584617
  0.3664925283188481  0.6027720138454625  0.4636610666149127
  0.2552472859991221  0.7184845615418219  0.3546407011300154
  0.2774976447630769  0.6799649829784615  0.3546424643169231
  0.2330010028584616  0.7570095477200001  0.3546424643169231
  0.2552485067664689  0.6928995733615794  0.2819629481021122
  0.2997547215280073  0.7184839289846561  0.3546417159436507
  0.2775096190523077  0.7314251920969231  0.2819636964753848
  0.3220158338138461  0.7570095477200001  0.3546424643169231
  0.3442633377218536  0.6928995733615794  0.2819629481021122
  0.3442621169545068  0.7184845615418219  0.3546407011300154
  0.3665164768973095  0.7056924320823857  0.3183035309318357
  0.3665244500076922  0.7314251920969231  0.2819636964753848
  0.3665124757184617  0.6799649829784615  0.3546424643169231
  0.2330050040373096  0.7827369968239243  0.3183035309318357
  0.2775191919092308  0.8340541124615385  0.3546424643169231
  0.2997666958172381  0.7699441381031177  0.2819629481021122
  0.3442848848680075  0.8469887028446562  0.2819629481021122
  0.3220278081030769  0.8084697568384616  0.2819636964753848
  0.3220198349926943  0.7827369968239243  0.3183035309318357
  0.3665340228646153  0.8340541124615385  0.3546424643169231
  0.3442729105787766  0.7955284937261946  0.3546417159436507
  0.2997535007606607  0.7440689171648990  0.4273194689715538
  0.2552353117098911  0.6670243524233603  0.4273194689715538
  0.2552461053341611  0.7440682846077332  0.4273204837851892
  0.2997427472387766  0.6670237198661948  0.4273204837851892
  0.2774992445096172  0.7568611433285395  0.4636610666149127
  0.3220078607034635  0.7312767877054626  0.3909822987733743
  0.3442609362895460  0.7440682846077332  0.4273204837851892
  0.3442501426652759  0.6670243524233603  0.4273194689715538
  0.3220038595246153  0.7055493386015385  0.4273212321584617
  0.3219958864142325  0.6798165785870008  0.4636610666149127
  0.3665140754650018  0.7568611433285395  0.4636610666149127
  0.2775112187988482  0.8083213524470011  0.3909822987733743
  0.2552568588560453  0.8211134819064373  0.4273194689715538
  0.2775072176200000  0.7825939033430770  0.4273212321584617
  0.3665260497542329  0.8083213524470011  0.3909822987733743
  0.2997642943849305  0.8211128493492716  0.4273204837851892
  0.3442716898114299  0.8211134819064373  0.4273194689715538
  0.3665220485753846  0.7825939033430770  0.4273212321584617
  0.3220174335603865  0.8339057080700779  0.4636610666149127
  0.0549258452230770  0.5000000000000000  0.5000000000000000
  0.1661857786541613  0.4870587368877332  0.5726780194682660
  0.1439406761784615  0.5000000000000000  0.5000000000000000
  0.1216783431252760  0.4870593694448989  0.5726770046546307
  0.1439327030680788  0.4742672399854627  0.5363398344564513
  0.0771709476987767  0.4870587368877332  0.5726780194682660
  0.0771829219880074  0.5385189460061948  0.4999992516267276
  0.1216903174145068  0.5385195785633604  0.4999982368130922
  0.0994440342738460  0.5770445647415384  0.5000000000000000
  0.1661977529433920  0.5385189460061948  0.4999992516267276
  0.1661965321760452  0.5641039341864373  0.5726770046546307
  0.1439502490353846  0.6026289203646155  0.5726787678415386
  0.0994320599846153  0.5255843556230769  0.5726787678415386
  0.1216891367495457  0.5641033016292716  0.5726780194682660
  0.2552125838987767  0.5385189460061948  0.4999992516267276
  0.2107051483698913  0.5385195785633604  0.4999982368130922
  0.2329555071338461  0.5000000000000000  0.5000000000000000
  0.2329475340234635  0.4742672399854627  0.5363398344564513
  0.2106931740806605  0.4870593694448989  0.5726770046546307
  0.2552006096095458  0.4870587368877332  0.5726780194682660
  0.1884468909400002  0.5255843556230769  0.5726787678415386
  0.1884588652292307  0.5770445647415384  0.5000000000000000
  0.1884508921188481  0.5513118047270010  0.5363398344564513
  0.2107039677049304  0.5641033016292716  0.5726780194682660
  0.2329650799907693  0.6026289203646155  0.5726787678415386
  0.2552113631314298  0.5641039341864373  0.5726770046546307
  0.1884349166507692  0.4741241465046154  0.6453575356830772
  0.0994200856953846  0.4741241465046154  0.6453575356830772
  0.1216771624603151  0.5126430925108102  0.6453567873098046
  0.1884389178296172  0.4998515956085396  0.6090186022979897
  0.1661845578868143  0.5126437250679758  0.6453557724961693
  0.1661953515110844  0.5896876572523486  0.6453567873098046
  0.1439382747461539  0.5511687112461541  0.6453575356830772
  0.2329531057015385  0.5511687112461541  0.6453575356830772
  0.2106919934156996  0.5126430925108102  0.6453567873098046
  0.2551993888421991  0.5126437250679758  0.6453557724961693
  0.2329571068803864  0.5768961603500780  0.6090186022979897
  0.2107027469375836  0.5896882898095143  0.6453557724961693
  0.2552101824664689  0.5896876572523486  0.6453567873098046
  0.1884325152184616  0.5252928577507694  0.7907150713661539
  0.1661714029326227  0.4867672390154255  0.7907143229928814
  0.1439263004569230  0.4997085021276924  0.7180363035246154
  0.2106787983591221  0.4867678715725912  0.7907133081792460
  0.2329331583019250  0.4739757421131549  0.7543761379810665
  0.2329411314123077  0.4997085021276924  0.7180363035246154
  0.2551862338880074  0.4867672390154255  0.7907143229928814
  0.2329451325911558  0.5254359512316165  0.6816973701395280
  0.1661833772218535  0.5382274481338870  0.7180355551513430
  0.2106907726483529  0.5382280806910528  0.7180345403377076
  0.1884444895076922  0.5767530668692308  0.7180363035246154
  0.2551982081772380  0.5382274481338870  0.7180355551513430
  0.2551969874098914  0.5638124363141296  0.7907133081792460
  0.2329507042692308  0.6023374224923078  0.7907150713661539
  0.2106895919833919  0.5638118037569639  0.7907143229928814
  0.3442274148541612  0.5385189460061948  0.4999992516267276
  0.3219703380892308  0.5000000000000000  0.5000000000000000
  0.3219623649788482  0.4742672399854627  0.5363398344564513
  0.2997199793252758  0.5385195785633604  0.4999982368130922
  0.2774657230742328  0.5513118047270010  0.5363398344564513
  0.2774736961846152  0.5770445647415384  0.5000000000000000
  0.3664885271399999  0.5770445647415384  0.5000000000000000
  0.3664805540296174  0.5513118047270010  0.5363398344564513
  0.2997080050360452  0.4870593694448989  0.5726770046546307
  0.2774537487850019  0.4998515956085396  0.6090186022979897
  0.2774617218953845  0.5255843556230769  0.5726787678415386
  0.2997187986603149  0.5641033016292716  0.5726780194682660
  0.3219719378357712  0.5768961603500780  0.6090186022979897
  0.3442154405649305  0.4870587368877332  0.5726780194682660
  0.3664685797403866  0.4998515956085396  0.6090186022979897
  0.3664765528507694  0.5255843556230769  0.5726787678415386
  0.3442261940868144  0.5641039341864373  0.5726770046546307
  0.3219799109461539  0.6026289203646155  0.5726787678415386
  0.2997056036037374  0.5382280806910528  0.7180345403377076
  0.2774497476061539  0.4741241465046154  0.6453575356830772
  0.2997068243710843  0.5126430925108102  0.6453567873098046
  0.3219599635465406  0.5254359512316165  0.6816973701395280
  0.3442142197975835  0.5126437250679758  0.6453557724961693
  0.3442130391326226  0.5382274481338870  0.7180355551513430
  0.3664645785615386  0.4741241465046154  0.6453575356830772
  0.2774633216419250  0.6024805159731548  0.6816973701395280
  0.2997175778929683  0.5896882898095143  0.6453557724961693
  0.3219679366569230  0.5511687112461541  0.6453575356830772
  0.3442250134218537  0.5896876572523486  0.6453567873098046
  0.3664781525973096  0.6024805159731548  0.6816973701395280
  0.2774473461738462  0.5252928577507694  0.7907150713661539
  0.2996936293145067  0.4867678715725912  0.7907133081792460
  0.3219479892573098  0.4739757421131549  0.7543761379810665
  0.3219559623676921  0.4997085021276924  0.7180363035246154
  0.3442010648433920  0.4867672390154255  0.7907143229928814
  0.3664621771292307  0.5252928577507694  0.7907150713661539
  0.2774513473526942  0.5510203068546934  0.7543761379810665
  0.2997044229387765  0.5638118037569639  0.7907143229928814
  0.2774593204630769  0.5767530668692308  0.7180363035246154
  0.3219655352246154  0.6023374224923078  0.7907150713661539
  0.3442118183652760  0.5638124363141296  0.7907133081792460
  0.3664661783080790  0.5510203068546934  0.7543761379810665
  0.3664741514184615  0.5767530668692308  0.7180363035246154
  0.1662193000895459  0.6926080754892717  0.4999992516267276
  0.1662085064652759  0.6155641433048988  0.4999982368130922
  0.1217011110387766  0.6155635107477331  0.4999992516267276
  0.1439622233246154  0.6540891294830770  0.5000000000000000
  0.2107159419941612  0.6155635107477331  0.4999992516267276
  0.1884684380861538  0.6796734851061539  0.5726787678415386
  0.2107147212268145  0.6411484989279759  0.5726770046546307
  0.1662073258003152  0.6411478663708100  0.5726780194682660
  0.2552341310449304  0.6926080754892717  0.4999992516267276
  0.2552233374206606  0.6155641433048988  0.4999982368130922
  0.2329770542799999  0.6540891294830770  0.5000000000000000
  0.2329690811696174  0.6283563694685395  0.5363398344564513
  0.2774832690415385  0.6796734851061539  0.5726787678415386
  0.2552221567556995  0.6411478663708100  0.5726780194682660
  0.2774952433307691  0.7311336942246154  0.5000000000000000
  0.1884804123753844  0.7311336942246154  0.5000000000000000
  0.2107266955160451  0.6926087080464373  0.4999982368130922
  0.2774872702203866  0.7054009342100780  0.5363398344564513
  0.2552329102775837  0.7181930636695143  0.5726770046546307
  0.2107255148510843  0.7181924311123485  0.5726780194682660
  0.2552448845668144  0.7696532727879758  0.4999982368130922
  0.2107374891403151  0.7696526402308101  0.4999992516267276
  0.2329986014261539  0.8081782589661539  0.5000000000000000
  0.2552556781910844  0.8466972049723487  0.4999992516267276
  0.2552437039018532  0.7952369958538869  0.5726780194682660
  0.2329866271369231  0.7567180498476924  0.5726787678415386
  0.2775048161876924  0.8337626145892308  0.5726787678415386
  0.3442381683760452  0.6155641433048988  0.4999982368130922
  0.2997307729495458  0.6155635107477331  0.4999992516267276
  0.3219918852353847  0.6540891294830770  0.5000000000000000
  0.3442369877110843  0.6411478663708100  0.5726780194682660
  0.2997295521821990  0.6411484989279759  0.5726770046546307
  0.3664980999969232  0.6796734851061539  0.5726787678415386
  0.3442489620003151  0.6926080754892717  0.4999992516267276
  0.2997415264714298  0.6926087080464373  0.4999982368130922
  0.3665021011757712  0.7054009342100780  0.5363398344564513
  0.3442477412329683  0.7181930636695143  0.5726770046546307
  0.2997523200956996  0.7696526402308101  0.4999992516267276
  0.3665100742861537  0.7311336942246154  0.5000000000000000
  0.3442597155221989  0.7696532727879758  0.4999982368130922
  0.3220014580923078  0.7567180498476924  0.5726787678415386
  0.3220054592711558  0.7824454989516164  0.5363398344564513
  0.2997630736175837  0.8466978375295142  0.4999982368130922
  0.3442705091464688  0.8466972049723487  0.4999992516267276
  0.3220134323815385  0.8081782589661539  0.5000000000000000
  0.3665236483219251  0.8594900636931548  0.5363398344564513
  0.2997510993283529  0.7952376284110526  0.5726770046546307
  0.3442585348572382  0.7952369958538869  0.5726780194682660
  0.3665196471430770  0.8337626145892308  0.5726787678415386
  0.2107135405618535  0.6667322219938870  0.6453567873098046
  0.1884564637969231  0.6282132759876924  0.6453575356830772
  0.2552209359883529  0.6667328545510528  0.6453557724961693
  0.2774752959311557  0.6539407250916165  0.6090186022979897
  0.2774712947523076  0.6282132759876924  0.6453575356830772
  0.3664901268865403  0.6539407250916165  0.6090186022979897
  0.3442357669437376  0.6667328545510528  0.6453557724961693
  0.2997283715172381  0.6667322219938870  0.6453567873098046
  0.3664861257076922  0.6282132759876924  0.6453575356830772
  0.2107015662726228  0.6152720128754255  0.7180355551513430
  0.2329626785584615  0.6537976316107692  0.7180363035246154
  0.2552089616991221  0.6152726454325911  0.7180345403377076
  0.2552077810341614  0.6408563684985026  0.7907143229928814
  0.2552197553233919  0.6923165776169639  0.7180355551513430
  0.2774688933200001  0.6793819872338462  0.7907150713661539
  0.2997151764606606  0.6408570010556682  0.7907133081792460
  0.2997271507498914  0.6923172101741297  0.7180345403377076
  0.2997163972280074  0.6152720128754255  0.7180355551513430
  0.3442237926545068  0.6152726454325911  0.7180345403377076
  0.3219775095138461  0.6537976316107692  0.7180363035246154
  0.3442345862787764  0.6923165776169639  0.7180355551513430
  0.3219695364034635  0.6280648715962318  0.7543761379810665
  0.3442226119895458  0.6408563684985026  0.7907143229928814
  0.3664837242753847  0.6793819872338462  0.7907150713661539
  0.2997391250391221  0.7437774192925910  0.6453557724961693
  0.2329746528476923  0.7052578407292307  0.6453575356830772
  0.2552317296126226  0.7437767867354256  0.6453567873098046
  0.3219894838030768  0.7052578407292307  0.6453575356830772
  0.3442465605680073  0.7437767867354256  0.6453567873098046
  0.3219934849819251  0.7309852898331551  0.6090186022979897
  0.3220110309492308  0.8593469702123078  0.6453575356830772
  0.2774928418984616  0.7823024054707692  0.6453575356830772
  0.3442573140898914  0.8208219840341296  0.6453557724961693
  0.3665076728538461  0.7823024054707692  0.6453575356830772
  0.3665116740326942  0.8080298545746933  0.6090186022979897
  0.2774808676092307  0.7308421963523077  0.7180363035246154
  0.2997259700849305  0.7179009332400407  0.7907143229928814
  0.3219870823707693  0.7564265519753847  0.7907150713661539
  0.3442333655114299  0.7179015657972065  0.7907133081792460
  0.3664956985646154  0.7308421963523077  0.7180363035246154
  0.3664877254542329  0.7051094363377702  0.7543761379810665
  0.2997379443741612  0.7693611423585025  0.7180355551513430
  0.3664996997434635  0.7565696454562320  0.6816973701395280
  0.3442453398006606  0.7693617749156679  0.7180345403377076
  0.3219990566599998  0.8078867610938462  0.7180363035246154
  0.3442561334249304  0.8464057071000408  0.7180355551513430
  0.3442441591356997  0.7949454979815792  0.7907143229928814
  0.4109995447661539  0.5002914978723078  0.2819636964753848
  0.4332566215310843  0.5388104438785024  0.2819629481021122
  0.5000143757215385  0.5002914978723078  0.2819636964753848
  0.4109915716557712  0.4745587378577703  0.3183035309318357
  0.3887372117129682  0.4873508673172067  0.3546407011300154
  0.3887480053372380  0.5643947995015791  0.3546417159436507
  0.4555057595276920  0.5258758534953847  0.3546424643169231
  0.4777520426683528  0.4873508673172067  0.3546407011300154
  0.4777748105818536  0.6158550086200409  0.2819629481021122
  0.4110131188019250  0.6286478673408471  0.3183035309318357
  0.3887599796264689  0.6158550086200409  0.2819629481021122
  0.4555177338169231  0.5773360626138462  0.2819636964753848
  0.4110011445126941  0.5771876582223856  0.3909822987733743
  0.4777628362926228  0.5643947995015791  0.3546417159436507
  0.4777735898145067  0.6414399968002835  0.3546407011300154
  0.5222714524864688  0.5388104438785024  0.2819629481021122
  0.5890292066769232  0.5002914978723078  0.2819636964753848
  0.5445245916619248  0.5516033025993087  0.3183035309318357
  0.5890212335665403  0.4745587378577703  0.3183035309318357
  0.5667668736237376  0.4873508673172067  0.3546407011300154
  0.5222702317191220  0.5643954320587450  0.3546407011300154
  0.5667776672480073  0.5643947995015791  0.3546417159436507
  0.5445126173726942  0.5001430934808473  0.3909822987733743
  0.5445205904830770  0.5258758534953847  0.3546424643169231
  0.5222594781972381  0.4873502347600408  0.3546417159436507
  0.5000359228676924  0.6543806273553846  0.2819636964753848
  0.5890507538230769  0.6543806273553846  0.2819636964753848
  0.5667896415372381  0.6158550086200409  0.2819629481021122
  0.5445325647723077  0.5773360626138462  0.2819636964753848
  0.5890427807126940  0.6286478673408471  0.3183035309318357
  0.5222810253433923  0.6414393642431178  0.3546417159436507
  0.5000239485784618  0.6029204182369231  0.3546424643169231
  0.5000159754680787  0.5771876582223856  0.3909822987733743
  0.5667884207698912  0.6414399968002835  0.3546407011300154
  0.5890308064234634  0.5771876582223856  0.3909822987733743
  0.5890387795338462  0.6029204182369231  0.3546424643169231
  0.3887360310480076  0.5129345903831178  0.4273204837851892
  0.4109891702234634  0.5257274491039241  0.4636610666149127
  0.4554937852384616  0.4744156443769231  0.4273212321584617
  0.4777508620033921  0.5129345903831178  0.4273204837851892
  0.5000040011788481  0.5257274491039241  0.4636610666149127
  0.4109771959342328  0.4742672399854627  0.5363398344564513
  0.4332422458095461  0.5385189460061948  0.4999992516267276
  0.4999920268896174  0.4742672399854627  0.5363398344564513
  0.5000000000000000  0.5000000000000000  0.5000000000000000
  0.4777616155252760  0.5899797876818220  0.4273194689715538
  0.3887467845698913  0.5899797876818220  0.4273194689715538
  0.4555153323846154  0.6285047738600000  0.4273212321584617
  0.4554953849850020  0.5513118047270010  0.5363398344564513
  0.4555033580953847  0.5770445647415384  0.5000000000000000
  0.3887456039049306  0.6155635107477331  0.4999992516267276
  0.4109987430803866  0.6283563694685395  0.5363398344564513
  0.5222582574298913  0.5129352229402834  0.4273194689715538
  0.5000119742892308  0.5514602091184615  0.4273212321584617
  0.5445086161938462  0.4744156443769231  0.4273212321584617
  0.5890188321342326  0.5257274491039241  0.4636610666149127
  0.5667656929587765  0.5129345903831178  0.4273204837851892
  0.5890268052446155  0.5514602091184615  0.4273212321584617
  0.5222570767649306  0.5385189460061948  0.4999992516267276
  0.5667644721914296  0.5385195785633604  0.4999982368130922
  0.5890148309553846  0.5000000000000000  0.5000000000000000
  0.5222690510541612  0.5899791551246563  0.4273204837851892
  0.5445301633400000  0.6285047738600000  0.4273212321584617
  0.5667764464806607  0.5899797876818220  0.4273194689715538
  0.5445181890507692  0.5770445647415384  0.5000000000000000
  0.5222678302868142  0.6155641433048988  0.4999982368130922
  0.5000135740357711  0.6283563694685395  0.5363398344564513
  0.5667752658156997  0.6155635107477331  0.4999992516267276
  0.5890284049911556  0.6283563694685395  0.5363398344564513
  0.5890363781015384  0.6540891294830770  0.5000000000000000
  0.4555392809630769  0.7314251920969231  0.2819636964753848
  0.4332781686772383  0.6928995733615794  0.2819629481021122
  0.4555313078526942  0.7056924320823857  0.3183035309318357
  0.4332769479098914  0.7184845615418219  0.3546407011300154
  0.4110226916588481  0.7312767877054626  0.3909822987733743
  0.3887695524833920  0.7184839289846561  0.3546417159436507
  0.4110306647692308  0.7570095477200001  0.3546424643169231
  0.4777843834387765  0.7184839289846561  0.3546417159436507
  0.4777963577280075  0.7699441381031177  0.2819629481021122
  0.3887815267726230  0.7699441381031177  0.2819629481021122
  0.4332997158233922  0.8469887028446562  0.2819629481021122
  0.4110426390584616  0.8084697568384616  0.2819636964753848
  0.4110346659480787  0.7827369968239243  0.3183035309318357
  0.3887803060052762  0.7955291262833605  0.3546407011300154
  0.4332877415341614  0.7955284937261946  0.3546417159436507
  0.4555408807096173  0.8083213524470011  0.3909822987733743
  0.4555488538200001  0.8340541124615385  0.3546424643169231
  0.4777951369606606  0.7955291262833605  0.3546407011300154
  0.5445461388080787  0.7056924320823857  0.3183035309318357
  0.5445541119184616  0.7314251920969231  0.2819636964753848
  0.5222929996326230  0.6928995733615794  0.2819629481021122
  0.5222917788652759  0.7184845615418219  0.3546407011300154
  0.5667992143941614  0.7184839289846561  0.3546417159436507
  0.5445421376292311  0.6799649829784615  0.3546424643169231
  0.5890603266800000  0.7570095477200001  0.3546424643169231
  0.5000454957246153  0.7570095477200001  0.3546424643169231
  0.5890523535696173  0.7312767877054626  0.3909822987733743
  0.5000375226142327  0.7312767877054626  0.3909822987733743
  0.5668111886833921  0.7699441381031177  0.2819629481021122
  0.5890723009692308  0.8084697568384616  0.2819636964753848
  0.5000574700138462  0.8084697568384616  0.2819636964753848
  0.5223145467787768  0.8469887028446562  0.2819629481021122
  0.5890643278588482  0.7827369968239243  0.3183035309318357
  0.5000494969034632  0.7827369968239243  0.3183035309318357
  0.5223025724895460  0.7955284937261946  0.3546417159436507
  0.5445557116650019  0.8083213524470011  0.3909822987733743
  0.5445636847753845  0.8340541124615385  0.3546424643169231
  0.5668099679160452  0.7955291262833605  0.3546407011300154
  0.4555289064203866  0.7568611433285395  0.4636610666149127
  0.4777724091495458  0.6670237198661948  0.4273204837851892
  0.3887575781941613  0.6670237198661948  0.4273204837851892
  0.3887683317160452  0.7440689171648990  0.4273194689715538
  0.4777831626714298  0.7440689171648990  0.4273194689715538
  0.4110107173696172  0.6798165785870008  0.4636610666149127
  0.5000255483250018  0.6798165785870008  0.4636610666149127
  0.3887563574268144  0.6926087080464373  0.4999982368130922
  0.4555169321311558  0.7054009342100780  0.5363398344564513
  0.4555249052415385  0.7311336942246154  0.5000000000000000
  0.3887791253403151  0.8211128493492716  0.4273204837851892
  0.4110322645157713  0.8339057080700779  0.4636610666149127
  0.4332865207668146  0.8211134819064373  0.4273194689715538
  0.4555368795307693  0.7825939033430770  0.4273212321584617
  0.4777939562956995  0.8211128493492716  0.4273204837851892
  0.3887671510510843  0.7696526402308101  0.4999992516267276
  0.4777819820064691  0.7696526402308101  0.4999992516267276
  0.4332745464775836  0.7696532727879758  0.4999982368130922
  0.4110202902265406  0.7824454989516164  0.5363398344564513
  0.4110282633369230  0.8081782589661539  0.5000000000000000
  0.4555384792773096  0.8594900636931548  0.5363398344564513
  0.4777927355283531  0.8466978375295142  0.4999982368130922
  0.4332853401018537  0.8466972049723487  0.4999992516267276
  0.5667872401049305  0.6670237198661948  0.4273204837851892
  0.5222905982003152  0.7440682846077332  0.4273204837851892
  0.5890483523907692  0.7055493386015385  0.4273212321584617
  0.5667979936268144  0.7440689171648990  0.4273194689715538
  0.5890403792803866  0.6798165785870008  0.4636610666149127
  0.5445437373757711  0.7568611433285395  0.4636610666149127
  0.5445317630865404  0.7054009342100780  0.5363398344564513
  0.5445397361969231  0.7311336942246154  0.5000000000000000
  0.5223013517221989  0.8211134819064373  0.4273194689715538
  0.5445517104861538  0.7825939033430770  0.4273212321584617
  0.5668087872510843  0.8211128493492716  0.4273204837851892
  0.5890619264265403  0.8339057080700779  0.4636610666149127
  0.5000470954711557  0.8339057080700779  0.4636610666149127
  0.5890499521373096  0.7824454989516164  0.5363398344564513
  0.5222893774329681  0.7696532727879758  0.4999982368130922
  0.5667968129618537  0.7696526402308101  0.4999992516267276
  0.5890579252476924  0.8081782589661539  0.5000000000000000
  0.5000430942923078  0.8081782589661539  0.5000000000000000
  0.5668075664837373  0.8466978375295142  0.4999982368130922
  0.5223001710572380  0.8466972049723487  0.4999992516267276
  0.3887216553264690  0.5126430925108102  0.6453567873098046
  0.3887228359914298  0.4870593694448989  0.5726770046546307
  0.4109827676123078  0.5511687112461541  0.6453575356830772
  0.4554794095169231  0.4741241465046154  0.6453575356830772
  0.4332290507529682  0.5126437250679758  0.6453557724961693
  0.4777376669468145  0.4870593694448989  0.5726770046546307
  0.4554913838061540  0.5255843556230769  0.5726787678415386
  0.4777484605710844  0.5641033016292716  0.5726780194682660
  0.4554834106957711  0.4998515956085396  0.6090186022979897
  0.4777364862818534  0.5126430925108102  0.6453567873098046
  0.3887443831375838  0.6411484989279759  0.5726770046546307
  0.4332518186664691  0.6411478663708100  0.5726780194682660
  0.4332398443772382  0.5896876572523486  0.6453567873098046
  0.4109867687911558  0.5768961603500780  0.6090186022979897
  0.3887324088483528  0.5896882898095143  0.6453557724961693
  0.4555009566630771  0.6282132759876924  0.6453575356830772
  0.4555049578419249  0.6539407250916165  0.6090186022979897
  0.5445062147615386  0.5255843556230769  0.5726787678415386
  0.5444982416511558  0.4998515956085396  0.6090186022979897
  0.5222438817083529  0.5126437250679758  0.6453557724961693
  0.5444942404723077  0.4741241465046154  0.6453575356830772
  0.5667632915264690  0.5641033016292716  0.5726780194682660
  0.5667524979021989  0.4870593694448989  0.5726770046546307
  0.5667513172372383  0.5126430925108102  0.6453567873098046
  0.5890124295230768  0.5511687112461541  0.6453575356830772
  0.5000015997465403  0.5768961603500780  0.6090186022979897
  0.5445157876184612  0.6282132759876924  0.6453575356830772
  0.5890244038123078  0.6026289203646155  0.5726787678415386
  0.5667740450483529  0.6411484989279759  0.5726770046546307
  0.5890164307019250  0.5768961603500780  0.6090186022979897
  0.5667620707591221  0.5896882898095143  0.6453557724961693
  0.3887204345591221  0.5382280806910528  0.7180345403377076
  0.4109747945019251  0.5254359512316165  0.6816973701395280
  0.4109707933230768  0.4997085021276924  0.7180363035246154
  0.4332278700880074  0.5382274481338870  0.7180355551513430
  0.4777352655145067  0.5382280806910528  0.7180345403377076
  0.4999856242784615  0.4997085021276924  0.7180363035246154
  0.3887084602698916  0.4867678715725912  0.7907133081792460
  0.4332158957987767  0.4867672390154255  0.7907143229928814
  0.4109628202126943  0.4739757421131549  0.7543761379810665
  0.4554770080846154  0.5252928577507694  0.7907150713661539
  0.4999776511680789  0.4739757421131549  0.7543761379810665
  0.4777232912252759  0.4867678715725912  0.7907133081792460
  0.4554810092634634  0.5510203068546934  0.7543761379810665
  0.4554889823738462  0.5767530668692308  0.7180363035246154
  0.4554929835526942  0.6024805159731548  0.6816973701395280
  0.3887312281833921  0.6152720128754255  0.7180355551513430
  0.4777460591387767  0.6152720128754255  0.7180355551513430
  0.4332386236098915  0.6152726454325911  0.7180345403377076
  0.4109923404692306  0.6537976316107692  0.7180363035246154
  0.4109803661799999  0.6023374224923078  0.7907150713661539
  0.3887300074160451  0.6408570010556682  0.7907133081792460
  0.3887192538941612  0.5638118037569639  0.7907143229928814
  0.4109843673588482  0.6280648715962318  0.7543761379810665
  0.4332374429449306  0.6408563684985026  0.7907143229928814
  0.4777448383714298  0.6408570010556682  0.7907133081792460
  0.4777340848495458  0.5638118037569639  0.7907143229928814
  0.4332266493206606  0.5638124363141296  0.7907133081792460
  0.4999896254573097  0.5254359512316165  0.6816973701395280
  0.5222427010433919  0.5382274481338870  0.7180355551513430
  0.5890004552338461  0.4997085021276924  0.7180363035246154
  0.5890044564126942  0.5254359512316165  0.6816973701395280
  0.5889924821234636  0.4739757421131549  0.7543761379810665
  0.5667381221806606  0.4867678715725912  0.7907133081792460
  0.5222307267541614  0.4867672390154255  0.7907143229928814
  0.5444918390399999  0.5252928577507694  0.7907150713661539
  0.5444958402188480  0.5510203068546934  0.7543761379810665
  0.5667489158049305  0.5638118037569639  0.7907143229928814
  0.5222414802760451  0.5638124363141296  0.7907133081792460
  0.5000071714246154  0.6537976316107692  0.7180363035246154
  0.5445038133292308  0.5767530668692308  0.7180363035246154
  0.5445078145080787  0.6024805159731548  0.6816973701395280
  0.5667608900941612  0.6152720128754255  0.7180355551513430
  0.5890220023799998  0.6537976316107692  0.7180363035246154
  0.4999991983142327  0.6280648715962318  0.7543761379810665
  0.4999951971353847  0.6023374224923078  0.7907150713661539
  0.5222522739003153  0.6408563684985026  0.7907143229928814
  0.5667596693268143  0.6408570010556682  0.7907133081792460
  0.5890100280907693  0.6023374224923078  0.7907150713661539
  0.5890140292696173  0.6280648715962318  0.7543761379810665
  0.3887551767618537  0.7181924311123485  0.5726780194682660
  0.3887432024726227  0.6667322219938870  0.6453567873098046
  0.3887539559945066  0.7437774192925910  0.6453557724961693
  0.4332505978991222  0.6667328545510528  0.6453557724961693
  0.4110083159373095  0.7309852898331551  0.6090186022979897
  0.4110043147584617  0.7052578407292307  0.6453575356830772
  0.4332625721883529  0.7181930636695143  0.5726770046546307
  0.4777700077172380  0.7181924311123485  0.5726780194682660
  0.4555129309523078  0.6796734851061539  0.5726787678415386
  0.4777687869498913  0.7437774192925910  0.6453557724961693
  0.4332613915233921  0.7437767867354256  0.6453567873098046
  0.4332733658126228  0.7952369958538869  0.5726780194682660
  0.4110162890476923  0.7567180498476924  0.5726787678415386
  0.4777807612391223  0.7952376284110526  0.5726770046546307
  0.3887659302837377  0.7952376284110526  0.5726770046546307
  0.4555344780984616  0.8337626145892308  0.5726787678415386
  0.3887647496187766  0.8208213514769640  0.6453567873098046
  0.4332721450452759  0.8208219840341296  0.6453557724961693
  0.4110258619046154  0.8593469702123078  0.6453575356830772
  0.4555265049880788  0.8080298545746933  0.6090186022979897
  0.4555225038092308  0.7823024054707692  0.6453575356830772
  0.4777795805741613  0.8208213514769640  0.6453567873098046
  0.5000231468926941  0.7309852898331551  0.6090186022979897
  0.5445277619076925  0.6796734851061539  0.5726787678415386
  0.5667848386726230  0.7181924311123485  0.5726780194682660
  0.5667836179052759  0.7437774192925910  0.6453557724961693
  0.5667728643833920  0.6667322219938870  0.6453567873098046
  0.5222881967680074  0.7952369958538869  0.5726780194682660
  0.5890459509584615  0.7567180498476924  0.5726787678415386
  0.5667955921945067  0.7952376284110526  0.5726770046546307
  0.5445493090538464  0.8337626145892308  0.5726787678415386
  0.5445413359434634  0.8080298545746933  0.6090186022979897
  0.5667944115295460  0.8208213514769640  0.6453567873098046
  0.5222869760006607  0.8208219840341296  0.6453557724961693
  0.5890555238153846  0.8593469702123078  0.6453575356830772
  0.5000406928600001  0.8593469702123078  0.6453575356830772
  0.4332494172341611  0.6923165776169639  0.7180355551513430
  0.3887419817052760  0.6923172101741297  0.7180345403377076
  0.4109963416480789  0.6795250807146933  0.6816973701395280
  0.4555105295199999  0.7308421963523077  0.7180363035246154
  0.4555145306988481  0.7565696454562320  0.6816973701395280
  0.4777676062849304  0.7693611423585025  0.7180355551513430
  0.4777568126606608  0.6923172101741297  0.7180345403377076
  0.5000111726034634  0.6795250807146933  0.6816973701395280
  0.4554985552307693  0.6793819872338462  0.7907150713661539
  0.3887408010403149  0.7179009332400407  0.7907143229928814
  0.4332481964668145  0.7179015657972065  0.7907133081792460
  0.4110019133261537  0.7564265519753847  0.7907150713661539
  0.4555025564096174  0.7051094363377702  0.7543761379810665
  0.4777556319956997  0.7179009332400407  0.7907143229928814
  0.3887635288514298  0.8464063396572066  0.7180345403377076
  0.4110138876153845  0.8078867610938462  0.7180363035246154
  0.3887527753295458  0.7693611423585025  0.7180355551513430
  0.4110178887942326  0.8336142101977703  0.6816973701395280
  0.4332601707560449  0.7693617749156679  0.7180345403377076
  0.4332709643803150  0.8464057071000408  0.7180355551513430
  0.4777783598068146  0.8464063396572066  0.7180345403377076
  0.3887515545621989  0.7949461305387451  0.7907133081792460
  0.4110059145050021  0.7821540010793089  0.7543761379810665
  0.4332589900910843  0.7949454979815792  0.7907143229928814
  0.4777663855175835  0.7949461305387451  0.7907133081792460
  0.4555241035557712  0.8591985658208472  0.7543761379810665
  0.4555201023769229  0.8334711167169231  0.7907150713661539
  0.5222642481895459  0.6923165776169639  0.7180355551513430
  0.5890260035588480  0.6795250807146933  0.6816973701395280
  0.5667716436160452  0.6923172101741297  0.7180345403377076
  0.5445293616542328  0.7565696454562320  0.6816973701395280
  0.5445253604753846  0.7308421963523077  0.7180363035246154
  0.5667824372403149  0.7693611423585025  0.7180355551513430
  0.5222750017114299  0.7693617749156679  0.7180345403377076
  0.5222630274221991  0.7179015657972065  0.7907133081792460
  0.5000167442815385  0.7564265519753847  0.7907150713661539
  0.5445133861861539  0.6793819872338462  0.7907150713661539
  0.5445173873650021  0.7051094363377702  0.7543761379810665
  0.5667704629510844  0.7179009332400407  0.7907143229928814
  0.5890315752369231  0.7564265519753847  0.7907150713661539
  0.5000327197496172  0.8336142101977703  0.6816973701395280
  0.5000287185707690  0.8078867610938462  0.7180363035246154
  0.5222857953356997  0.8464057071000408  0.7180355551513430
  0.5667931907621993  0.8464063396572066  0.7180345403377076
  0.5890475507050020  0.8336142101977703  0.6816973701395280
  0.5890435495261538  0.8078867610938462  0.7180363035246154
  0.5445349333323076  0.8334711167169231  0.7907150713661539
  0.5000207454603867  0.7821540010793089  0.7543761379810665
  0.5222738210464690  0.7949454979815792  0.7907143229928814
  0.5445389345111560  0.8591985658208472  0.7543761379810665
  0.5667812164729682  0.7949461305387451  0.7907133081792460
  0.5890355764157713  0.7821540010793089  0.7543761379810665
  0.7003011143972382  0.5388104438785024  0.2819629481021122
  0.6112862834418538  0.5388104438785024  0.2819629481021122
  0.6780440376323075  0.5002914978723078  0.2819636964753848
  0.6335394226173096  0.5516033025993087  0.3183035309318357
  0.6780360645219250  0.4745587378577703  0.3183035309318357
  0.6335354214384615  0.5258758534953847  0.3546424643169231
  0.7002891401080075  0.4873502347600408  0.3546417159436507
  0.6112743091526228  0.4873502347600408  0.3546417159436507
  0.6335274483280789  0.5001430934808473  0.3909822987733743
  0.7225422792834636  0.5001430934808473  0.3909822987733743
  0.6558044724926229  0.6158550086200409  0.2819629481021122
  0.6780655847784616  0.6543806273553846  0.2819636964753848
  0.6335473957276924  0.5773360626138462  0.2819636964753848
  0.6780576116680789  0.6286478673408471  0.3183035309318357
  0.6558032517252760  0.6414399968002835  0.3546407011300154
  0.7002998936298915  0.5643954320587450  0.3546407011300154
  0.6112850626745068  0.5643954320587450  0.3546407011300154
  0.6112958562987765  0.6414393642431178  0.3546417159436507
  0.7003106872541612  0.6414393642431178  0.3546417159436507
  0.6557924982033920  0.5643947995015791  0.3546417159436507
  0.6780536104892307  0.6029204182369231  0.3546424643169231
  0.6780456373788482  0.5771876582223856  0.3909822987733743
  0.6335489954742327  0.6542322229639244  0.3909822987733743
  0.8115690845280790  0.5516033025993087  0.3183035309318357
  0.7670508954773096  0.4745587378577703  0.3183035309318357
  0.7670588685876923  0.5002914978723078  0.2819636964753848
  0.7893159453526228  0.5388104438785024  0.2819629481021122
  0.7893147245852762  0.5643954320587450  0.3546407011300154
  0.7447965355345066  0.4873508673172067  0.3546407011300154
  0.8115650833492308  0.5258758534953847  0.3546424643169231
  0.7893039710633921  0.4873502347600408  0.3546417159436507
  0.7448073291587767  0.5643947995015791  0.3546417159436507
  0.7225502523938461  0.5258758534953847  0.3546424643169231
  0.8115571102388480  0.5001430934808473  0.3909822987733743
  0.7225622266830767  0.5773360626138462  0.2819636964753848
  0.8115770576384616  0.5773360626138462  0.2819636964753848
  0.7448193034480074  0.6158550086200409  0.2819629481021122
  0.7670724426234634  0.6286478673408471  0.3183035309318357
  0.7670804157338461  0.6543806273553846  0.2819636964753848
  0.7225638264296175  0.6542322229639244  0.3909822987733743
  0.7893255182095459  0.6414393642431178  0.3546417159436507
  0.7670684414446154  0.6029204182369231  0.3546424643169231
  0.7670604683342328  0.5771876582223856  0.3909822987733743
  0.8115786573850021  0.6542322229639244  0.3909822987733743
  0.7448180826806607  0.6414399968002835  0.3546407011300154
  0.6557805239141613  0.5129345903831178  0.4273204837851892
  0.6335234471492308  0.4744156443769231  0.4273212321584617
  0.6112730883852761  0.5129352229402834  0.4273194689715538
  0.6780336630896173  0.5257274491039241  0.4636610666149127
  0.6780416362000000  0.5514602091184615  0.4273212321584617
  0.7002879193406606  0.5129352229402834  0.4273194689715538
  0.7225382781046154  0.4744156443769231  0.4273212321584617
  0.6780216888003866  0.4742672399854627  0.5363398344564513
  0.6557793031468143  0.5385195785633604  0.4999982368130922
  0.6112719077203150  0.5385189460061948  0.4999992516267276
  0.6780296619107693  0.5000000000000000  0.5000000000000000
  0.7225398778511558  0.5513118047270010  0.5363398344564513
  0.7002867386756998  0.5385189460061948  0.4999992516267276
  0.6335449942953846  0.6285047738600000  0.4273212321584617
  0.6112838820095456  0.5899791551246563  0.4273204837851892
  0.6557912774360454  0.5899797876818220  0.4273194689715538
  0.7002987129649304  0.5899791551246563  0.4273204837851892
  0.6335370211850018  0.6027720138454625  0.4636610666149127
  0.6112826612421988  0.6155641433048988  0.4999982368130922
  0.6335330200061537  0.5770445647415384  0.5000000000000000
  0.6557900967710841  0.6155635107477331  0.4999992516267276
  0.6780512090569232  0.6540891294830770  0.5000000000000000
  0.7002974921975836  0.6155641433048988  0.4999982368130922
  0.6780432359465403  0.6283563694685395  0.5363398344564513
  0.7447953548695460  0.5129345903831178  0.4273204837851892
  0.7670484940450019  0.5257274491039241  0.4636610666149127
  0.7670564671553846  0.5514602091184615  0.4273212321584617
  0.7893027502960452  0.5129352229402834  0.4273194689715538
  0.8115531090599999  0.4744156443769231  0.4273212321584617
  0.7447941341021992  0.5385195785633604  0.4999982368130922
  0.7670365197557711  0.4742672399854627  0.5363398344564513
  0.7670444928661539  0.5000000000000000  0.5000000000000000
  0.8115547088065405  0.5513118047270010  0.5363398344564513
  0.7893015696310843  0.5385189460061948  0.4999992516267276
  0.7225598252507692  0.6285047738600000  0.4273212321584617
  0.7448061083914299  0.5899797876818220  0.4273194689715538
  0.7893135439203151  0.5899791551246563  0.4273204837851892
  0.8115746562061539  0.6285047738600000  0.4273212321584617
  0.7225518521403865  0.6027720138454625  0.4636610666149127
  0.7225478509615385  0.5770445647415384  0.5000000000000000
  0.7448049277264690  0.6155635107477331  0.4999992516267276
  0.7670580669019250  0.6283563694685395  0.5363398344564513
  0.7670660400123078  0.6540891294830770  0.5000000000000000
  0.7893123231529684  0.6155641433048988  0.4999982368130922
  0.8115666830957712  0.6027720138454625  0.4636610666149127
  0.8115626819169232  0.5770445647415384  0.5000000000000000
  0.6335689428738461  0.7314251920969231  0.2819636964753848
  0.7003226615433923  0.6928995733615794  0.2819629481021122
  0.6335609697634634  0.7056924320823857  0.3183035309318357
  0.6113078305880073  0.6928995733615794  0.2819629481021122
  0.6335569685846154  0.6799649829784615  0.3546424643169231
  0.6113066098206604  0.7184845615418219  0.3546407011300154
  0.6558140453495457  0.7184839289846561  0.3546417159436507
  0.6780671845250019  0.7312767877054626  0.3909822987733743
  0.6780751576353845  0.7570095477200001  0.3546424643169231
  0.7003214407760452  0.7184845615418219  0.3546407011300154
  0.6558260196387767  0.7699441381031177  0.2819629481021122
  0.6113293777341614  0.8469887028446562  0.2819629481021122
  0.7003442086895459  0.8469887028446562  0.2819629481021122
  0.6780791588142326  0.7827369968239243  0.3183035309318357
  0.6780871319246154  0.8084697568384616  0.2819636964753848
  0.6113174034449306  0.7955284937261946  0.3546417159436507
  0.6335785157307693  0.8340541124615385  0.3546424643169231
  0.6335705426203867  0.8083213524470011  0.3909822987733743
  0.7003322344003150  0.7955284937261946  0.3546417159436507
  0.6558247988714299  0.7955291262833605  0.3546407011300154
  0.7225758007188482  0.7056924320823857  0.3183035309318357
  0.8115986047846154  0.7314251920969231  0.2819636964753848
  0.7225837738292308  0.7314251920969231  0.2819636964753848
  0.8115906316742328  0.7056924320823857  0.3183035309318357
  0.7893362717314300  0.7184845615418219  0.3546407011300154
  0.7448288763049304  0.7184839289846561  0.3546417159436507
  0.7670899885907693  0.7570095477200001  0.3546424643169231
  0.8115866304953843  0.6799649829784615  0.3546424643169231
  0.7670820154803867  0.7312767877054626  0.3909822987733743
  0.7225717995400001  0.6799649829784615  0.3546424643169231
  0.7448408505941615  0.7699441381031177  0.2819629481021122
  0.7670939897696174  0.7827369968239243  0.3183035309318357
  0.7225853735757714  0.8083213524470011  0.3909822987733743
  0.7225933466861538  0.8340541124615385  0.3546424643169231
  0.7448396298268144  0.7955291262833605  0.3546407011300154
  0.7893470653556998  0.7955284937261946  0.3546417159436507
  0.8116002045311560  0.8083213524470011  0.3909822987733743
  0.6558128245821990  0.7440689171648990  0.4273194689715538
  0.6558020710603150  0.6670237198661948  0.4273204837851892
  0.6112946355314299  0.6670243524233603  0.4273194689715538
  0.7003202601110842  0.7440682846077332  0.4273204837851892
  0.7003094664868144  0.6670243524233603  0.4273194689715538
  0.6113054291556997  0.7440682846077332  0.4273204837851892
  0.6780631833461538  0.7055493386015385  0.4273212321584617
  0.6780552102357712  0.6798165785870008  0.4636610666149127
  0.6112934548664690  0.6926080754892717  0.4999992516267276
  0.6335545671523077  0.7311336942246154  0.5000000000000000
  0.6558008502929681  0.6926087080464373  0.4999982368130922
  0.7003082858218536  0.6926080754892717  0.4999992516267276
  0.6335665414415385  0.7825939033430770  0.4273212321584617
  0.6113161826775836  0.8211134819064373  0.4273194689715538
  0.6558236182064690  0.8211128493492716  0.4273204837851892
  0.6780767573819249  0.8339057080700779  0.4636610666149127
  0.7003310136329683  0.8211134819064373  0.4273194689715538
  0.7003190393437373  0.7696532727879758  0.4999982368130922
  0.6558116439172382  0.7696526402308101  0.4999992516267276
  0.6113042083883528  0.7696532727879758  0.4999982368130922
  0.6780647830926941  0.7824454989516164  0.5363398344564513
  0.6780727562030772  0.8081782589661539  0.5000000000000000
  0.7003298329680075  0.8466972049723487  0.4999992516267276
  0.6113150020126228  0.8466972049723487  0.4999992516267276
  0.6558223974391221  0.8466978375295142  0.4999982368130922
  0.6335681411880790  0.8594900636931548  0.5363398344564513
  0.7670700411911556  0.6798165785870008  0.4636610666149127
  0.7893242974421988  0.6670243524233603  0.4273194689715538
  0.7448169020156997  0.6670237198661948  0.4273204837851892
  0.7670780143015384  0.7055493386015385  0.4273212321584617
  0.7893350910664689  0.7440682846077332  0.4273204837851892
  0.7448276555375837  0.7440689171648990  0.4273194689715538
  0.8115882302419251  0.7568611433285395  0.4636610666149127
  0.7225733992865403  0.7568611433285395  0.4636610666149127
  0.7225614249973095  0.7054009342100780  0.5363398344564513
  0.7225693981076923  0.7311336942246154  0.5000000000000000
  0.7448156812483528  0.6926087080464373  0.4999982368130922
  0.8115842290630770  0.7311336942246154  0.5000000000000000
  0.7893231167772383  0.6926080754892717  0.4999992516267276
  0.8115762559526946  0.7054009342100780  0.5363398344564513
  0.7225813723969231  0.7825939033430770  0.4273212321584617
  0.7448384491618534  0.8211128493492716  0.4273204837851892
  0.7670915883373097  0.8339057080700779  0.4636610666149127
  0.7893458445883531  0.8211134819064373  0.4273194689715538
  0.8115962033523078  0.7825939033430770  0.4273212321584617
  0.7893338702991221  0.7696532727879758  0.4999982368130922
  0.7448264748726228  0.7696526402308101  0.4999992516267276
  0.7670796140480788  0.7824454989516164  0.5363398344564513
  0.7670875871584618  0.8081782589661539  0.5000000000000000
  0.7225829721434636  0.8594900636931548  0.5363398344564513
  0.7893446639233920  0.8466972049723487  0.4999992516267276
  0.7448372283945067  0.8466978375295142  0.4999982368130922
  0.9005839154834635  0.5516033025993087  0.3183035309318357
  0.8783307763080075  0.5388104438785024  0.2819629481021122
  0.8560736995430769  0.5002914978723078  0.2819636964753848
  0.8560657264326943  0.4745587378577703  0.3183035309318357
  0.8338221601141614  0.5643947995015791  0.3546417159436507
  0.8338113664898913  0.4873508673172067  0.3546407011300154
  0.8783295555406607  0.5643954320587450  0.3546407011300154
  0.8783188020187765  0.4873502347600408  0.3546417159436507
  0.9005719411942328  0.5001430934808473  0.3909822987733743
  0.9005799143046154  0.5258758534953847  0.3546424643169231
  0.9228261974452763  0.4873508673172067  0.3546407011300154
  0.9228369910695458  0.5643947995015791  0.3546417159436507
  0.8338341344033919  0.6158550086200409  0.2819629481021122
  0.8560952466892308  0.6543806273553846  0.2819636964753848
  0.8560872735788482  0.6286478673408471  0.3183035309318357
  0.8560752992896172  0.5771876582223856  0.3909822987733743
  0.8560832724000000  0.6029204182369231  0.3546424643169231
  0.9005934883403867  0.6542322229639244  0.3909822987733743
  0.8783403491649306  0.6414393642431178  0.3546417159436507
  0.8338329136360454  0.6414399968002835  0.3546407011300154
  0.8560712981107692  0.5514602091184615  0.4273212321584617
  0.8560633250003867  0.5257274491039241  0.4636610666149127
  0.8338101858249307  0.5129345903831178  0.4273204837851892
  0.9005679400153848  0.4744156443769231  0.4273212321584617
  0.8783175812514298  0.5129352229402834  0.4273194689715538
  0.9228250167803153  0.5129345903831178  0.4273204837851892
  0.8560513507111558  0.4742672399854627  0.5363398344564513
  0.8560593238215385  0.5000000000000000  0.5000000000000000
  0.8338089650575836  0.5385195785633604  0.4999982368130922
  0.8783164005864691  0.5385189460061948  0.4999992516267276
  0.9005695397619250  0.5513118047270010  0.5363398344564513
  0.9450741547769230  0.5000000000000000  0.5000000000000000
  0.9228237960129684  0.5385195785633604  0.4999982368130922
  0.9450661816665406  0.4742672399854627  0.5363398344564513
  0.8338209393468144  0.5899797876818220  0.4273194689715538
  0.8783283748756997  0.5899791551246563  0.4273204837851892
  0.9005815140511559  0.6027720138454625  0.4636610666149127
  0.9005894871615386  0.6285047738600000  0.4273212321584617
  0.9228357703021993  0.5899797876818220  0.4273194689715538
  0.8338197586818535  0.6155635107477331  0.4999992516267276
  0.8560728978573097  0.6283563694685395  0.5363398344564513
  0.8783271541083530  0.6155641433048988  0.4999982368130922
  0.8560808709676924  0.6540891294830770  0.5000000000000000
  0.9005775128723077  0.5770445647415384  0.5000000000000000
  0.9228345896372383  0.6155635107477331  0.4999992516267276
  0.9450781559557710  0.5257274491039241  0.4636610666149127
  0.9450861290661540  0.5514602091184615  0.4273212321584617
  0.8783511026868148  0.7184845615418219  0.3546407011300154
  0.8338437072603151  0.7184839289846561  0.3546417159436507
  0.8560968464357713  0.7312767877054626  0.3909822987733743
  0.8783499220218537  0.7440682846077332  0.4273204837851892
  0.8338424864929687  0.7440689171648990  0.4273194689715538
  0.8338317329710844  0.6670237198661948  0.4273204837851892
  0.8783391283975838  0.6670243524233603  0.4273194689715538
  0.9228465639264690  0.6670237198661948  0.4273204837851892
  0.8560928452569231  0.7055493386015385  0.4273212321584617
  0.8560848721465404  0.6798165785870008  0.4636610666149127
  0.8783379477326230  0.6926080754892717  0.4999992516267276
  0.8338305122037377  0.6926087080464373  0.4999982368130922
  0.9005910869080790  0.7054009342100780  0.5363398344564513
  0.8560944450034635  0.7824454989516164  0.5363398344564513
  0.8338413058280076  0.7696526402308101  0.4999992516267276
  0.6335090714276923  0.4741241465046154  0.6453575356830772
  0.6112587126637373  0.5126437250679758  0.6453557724961693
  0.6112599334310844  0.4870587368877332  0.5726780194682660
  0.6335210457169232  0.5255843556230769  0.5726787678415386
  0.6557781224818534  0.5641033016292716  0.5726780194682660
  0.6557673288575838  0.4870593694448989  0.5726770046546307
  0.7002747643864692  0.4870587368877332  0.5726780194682660
  0.7225279035619250  0.4998515956085396  0.6090186022979897
  0.7002735436191221  0.5126437250679758  0.6453557724961693
  0.6557661481926227  0.5126430925108102  0.6453567873098046
  0.7225239023830768  0.4741241465046154  0.6453575356830772
  0.6780272604784616  0.5511687112461541  0.6453575356830772
  0.7002855179083529  0.5641039341864373  0.5726770046546307
  0.6780392347676925  0.6026289203646155  0.5726787678415386
  0.6112706869529685  0.5641039341864373  0.5726770046546307
  0.6112814805772384  0.6411478663708100  0.5726780194682660
  0.7002963115326228  0.6411478663708100  0.5726780194682660
  0.6557888760037374  0.6411484989279759  0.5726770046546307
  0.6557769017145066  0.5896882898095143  0.6453557724961693
  0.6112695062880074  0.5896876572523486  0.6453567873098046
  0.6780312616573094  0.5768961603500780  0.6090186022979897
  0.7002843372433920  0.5896876572523486  0.6453567873098046
  0.6335306185738460  0.6282132759876924  0.6453575356830772
  0.7447809791480074  0.5126430925108102  0.6453567873098046
  0.7447821598129684  0.4870593694448989  0.5726770046546307
  0.7225358766723079  0.5255843556230769  0.5726787678415386
  0.7447929534372384  0.5641033016292716  0.5726780194682660
  0.7670420914338463  0.5511687112461541  0.6453575356830772
  0.7893003488637377  0.5641039341864373  0.5726770046546307
  0.7892895953418536  0.4870587368877332  0.5726780194682660
  0.8115507076276922  0.5255843556230769  0.5726787678415386
  0.8115427345173096  0.4998515956085396  0.6090186022979897
  0.7892883745745068  0.5126437250679758  0.6453557724961693
  0.8115387333384617  0.4741241465046154  0.6453575356830772
  0.7448037069591221  0.6411484989279759  0.5726770046546307
  0.7670540657230770  0.6026289203646155  0.5726787678415386
  0.7893111424880076  0.6411478663708100  0.5726780194682660
  0.7447917326698914  0.5896882898095143  0.6453557724961693
  0.7892991681987768  0.5896876572523486  0.6453567873098046
  0.7670460926126942  0.5768961603500780  0.6090186022979897
  0.7225454495292308  0.6282132759876924  0.6453575356830772
  0.7448025262941611  0.6667322219938870  0.6453567873098046
  0.7225494507080787  0.6539407250916165  0.6090186022979897
  0.8115642816634637  0.6539407250916165  0.6090186022979897
  0.6780192873680788  0.5254359512316165  0.6816973701395280
  0.6557649274252759  0.5382280806910528  0.7180345403377076
  0.7002723629541613  0.5382274481338870  0.7180355551513430
  0.6112575319987766  0.5382274481338870  0.7180355551513430
  0.6780152861892308  0.4997085021276924  0.7180363035246154
  0.6112455577095459  0.4867672390154255  0.7907143229928814
  0.6335066699953846  0.5252928577507694  0.7907150713661539
  0.6335106711742328  0.5510203068546934  0.7543761379810665
  0.6557529531360450  0.4867678715725912  0.7907133081792460
  0.6780073130788480  0.4739757421131549  0.7543761379810665
  0.7002603886649305  0.4867672390154255  0.7907143229928814
  0.7225215009507693  0.5252928577507694  0.7907150713661539
  0.6335186442846154  0.5767530668692308  0.7180363035246154
  0.6557757210495460  0.6152720128754255  0.7180355551513430
  0.7002831164760451  0.6152726454325911  0.7180345403377076
  0.6780368333353846  0.6537976316107692  0.7180363035246154
  0.6112671048556998  0.6408563684985026  0.7907143229928814
  0.6557745002821989  0.6408570010556682  0.7907133081792460
  0.6112563112314296  0.5638124363141296  0.7907133081792460
  0.6557637467603150  0.5638118037569639  0.7907143229928814
  0.6780248590461538  0.6023374224923078  0.7907150713661539
  0.6780288602250020  0.6280648715962318  0.7543761379810665
  0.7002819358110843  0.6408563684985026  0.7907143229928814
  0.7002711421868144  0.5638124363141296  0.7907133081792460
  0.7670301171446153  0.4997085021276924  0.7180363035246154
  0.7447797583806605  0.5382280806910528  0.7180345403377076
  0.7670341183234636  0.5254359512316165  0.6816973701395280
  0.7892871939095458  0.5382274481338870  0.7180355551513430
  0.7225255021296172  0.5510203068546934  0.7543761379810665
  0.7447785777156997  0.5638118037569639  0.7907143229928814
  0.7447677840914297  0.4867678715725912  0.7907133081792460
  0.7670221440342327  0.4739757421131549  0.7543761379810665
  0.7892752196203150  0.4867672390154255  0.7907143229928814
  0.8115403330850023  0.5510203068546934  0.7543761379810665
  0.8115363319061539  0.5252928577507694  0.7907150713661539
  0.7225334752400000  0.5767530668692308  0.7180363035246154
  0.7225374764188479  0.6024805159731548  0.6816973701395280
  0.7447905520049304  0.6152720128754255  0.7180355551513430
  0.7670516642907692  0.6537976316107692  0.7180363035246154
  0.8115483061953846  0.5767530668692308  0.7180363035246154
  0.8115523073742326  0.6024805159731548  0.6816973701395280
  0.7670396900015385  0.6023374224923078  0.7907150713661539
  0.7892859731421988  0.5638124363141296  0.7907133081792460
  0.7892967667664690  0.6408563684985026  0.7907143229928814
  0.7670436911803864  0.6280648715962318  0.7543761379810665
  0.7447893312375834  0.6408570010556682  0.7907133081792460
  0.6780607819138463  0.7567180498476924  0.5726787678415386
  0.6335425928630772  0.6796734851061539  0.5726787678415386
  0.6112922340991220  0.7181930636695143  0.5726770046546307
  0.6557996696280075  0.7181924311123485  0.5726780194682660
  0.7003070650545066  0.7181930636695143  0.5726770046546307
  0.6780528088034635  0.7309852898331551  0.6090186022979897
  0.6780488076246156  0.7052578407292307  0.6453575356830772
  0.6557876953387766  0.6667322219938870  0.6453567873098046
  0.7002950907652762  0.6667328545510528  0.6453557724961693
  0.6112802598098914  0.6667328545510528  0.6453557724961693
  0.6557984488606605  0.7437774192925910  0.6453557724961693
  0.7003058843895460  0.7437767867354256  0.6453567873098046
  0.6113030277233921  0.7952369958538869  0.5726780194682660
  0.6558104231498912  0.7952376284110526  0.5726770046546307
  0.7003178586787767  0.7952369958538869  0.5726780194682660
  0.6335641400092309  0.8337626145892308  0.5726787678415386
  0.6113018069560452  0.8208219840341296  0.6453557724961693
  0.6335561668988480  0.8080298545746933  0.6090186022979897
  0.6780703547707693  0.8593469702123078  0.6453575356830772
  0.7003166379114298  0.8208219840341296  0.6453557724961693
  0.7893218960098913  0.7181930636695143  0.5726770046546307
  0.7448145005833919  0.7181924311123485  0.5726780194682660
  0.7670756128692309  0.7567180498476924  0.5726787678415386
  0.7225574238184617  0.6796734851061539  0.5726787678415386
  0.8115722547738463  0.6796734851061539  0.5726787678415386
  0.7670676397588481  0.7309852898331551  0.6090186022979897
  0.7893099217206606  0.6667328545510528  0.6453557724961693
  0.7670636385799999  0.7052578407292307  0.6453575356830772
  0.7448132798160452  0.7437774192925910  0.6453557724961693
  0.7893207153449304  0.7437767867354256  0.6453567873098046
  0.7225789709646157  0.8337626145892308  0.5726787678415386
  0.7448252541052759  0.7952376284110526  0.5726770046546307
  0.7893326896341610  0.7952369958538869  0.5726780194682660
  0.7448240734403153  0.8208213514769640  0.6453567873098046
  0.7225669966753847  0.7823024054707692  0.6453575356830772
  0.7893314688668146  0.8208219840341296  0.6453557724961693
  0.8115818276307692  0.7823024054707692  0.6453575356830772
  0.8115858288096176  0.8080298545746933  0.6090186022979897
  0.6112790791449305  0.6923165776169639  0.7180355551513430
  0.7002939101003151  0.6923165776169639  0.7180355551513430
  0.6780408345142326  0.6795250807146933  0.6816973701395280
  0.6557864745714298  0.6923172101741297  0.7180345403377076
  0.6335401914307691  0.7308421963523077  0.7180363035246154
  0.6112778583775835  0.7179015657972065  0.7907133081792460
  0.6335282171415384  0.6793819872338462  0.7907150713661539
  0.6335322183203864  0.7051094363377702  0.7543761379810665
  0.6780464061923076  0.7564265519753847  0.7907150713661539
  0.6557852939064689  0.7179009332400407  0.7907143229928814
  0.7002926893329682  0.7179015657972065  0.7907133081792460
  0.7225430480969227  0.6793819872338462  0.7907150713661539
  0.6557972681956996  0.7693611423585025  0.7180355551513430
  0.6113006262910844  0.8464057071000408  0.7180355551513430
  0.6558080217175836  0.8464063396572066  0.7180345403377076
  0.6780583804815382  0.8078867610938462  0.7180363035246154
  0.6780623816603866  0.8336142101977703  0.6816973701395280
  0.7003154572464690  0.8464057071000408  0.7180355551513430
  0.6112886520018537  0.7949454979815792  0.7907143229928814
  0.6335537654665403  0.8591985658208472  0.7543761379810665
  0.6557960474283527  0.7949461305387451  0.7907133081792460
  0.7003034829572381  0.7949454979815792  0.7907143229928814
  0.6780504073711558  0.7821540010793089  0.7543761379810665
  0.7448013055268147  0.6923172101741297  0.7180345403377076
  0.7670556654696172  0.6795250807146933  0.6816973701395280
  0.8115738545203864  0.7565696454562320  0.6816973701395280
  0.7893087410556995  0.6923165776169639  0.7180355551513430
  0.7225550223861540  0.7308421963523077  0.7180363035246154
  0.8115698533415385  0.7308421963523077  0.7180363035246154
  0.7448001248618534  0.7179009332400407  0.7907143229928814
  0.7225470492757712  0.7051094363377702  0.7543761379810665
  0.8115618802311557  0.7051094363377702  0.7543761379810665
  0.7448120991510844  0.7693611423585025  0.7180355551513430
  0.8783151798191223  0.5641039341864373  0.5726770046546307
  0.8783044262972384  0.4870587368877332  0.5726780194682660
  0.8337969907683533  0.4870593694448989  0.5726770046546307
  0.8783032055298912  0.5126437250679758  0.6453557724961693
  0.8337958101033919  0.5126430925108102  0.6453567873098046
  0.8560569223892307  0.5511687112461541  0.6453575356830772
  0.9228118217237377  0.4870593694448989  0.5726770046546307
  0.9005655385830770  0.5255843556230769  0.5726787678415386
  0.9228226153480076  0.5641033016292716  0.5726780194682660
  0.9005575654726944  0.4998515956085396  0.6090186022979897
  0.9228106410587766  0.5126430925108102  0.6453567873098046
  0.8783259734433920  0.6411478663708100  0.5726780194682660
  0.8338185379145070  0.6411484989279759  0.5726770046546307
  0.9228333688698915  0.6411484989279759  0.5726770046546307
  0.8560688966784614  0.6026289203646155  0.5726787678415386
  0.8560609235680793  0.5768961603500780  0.6090186022979897
  0.8338065636252761  0.5896882898095143  0.6453557724961693
  0.8338173572495460  0.6667322219938870  0.6453567873098046
  0.8783139991541615  0.5896876572523486  0.6453567873098046
  0.9005791126188480  0.6539407250916165  0.6090186022979897
  0.9005751114399999  0.6282132759876924  0.6453575356830772
  0.9228213945806604  0.5896882898095143  0.6453557724961693
  0.8337945893360453  0.5382280806910528  0.7180345403377076
  0.8560489492788481  0.5254359512316165  0.6816973701395280
  0.8560449481000000  0.4997085021276924  0.7180363035246154
  0.8783020248649304  0.5382274481338870  0.7180355551513430
  0.8337826150468146  0.4867678715725912  0.7907133081792460
  0.8560369749896174  0.4739757421131549  0.7543761379810665
  0.8338053829603150  0.6152720128754255  0.7180355551513430
  0.8783127783868148  0.6152726454325911  0.7180345403377076
  0.8560664952461539  0.6537976316107692  0.7180363035246154
  0.9005671383296171  0.6024805159731548  0.6816973701395280
  0.8337934086710843  0.5638118037569639  0.7907143229928814
  0.8560585221357715  0.6280648715962318  0.7543761379810665
  0.8560904438246155  0.7567180498476924  0.5726787678415386
  0.9005870857292311  0.6796734851061539  0.5726787678415386
  0.8338293315387765  0.7181924311123485  0.5726780194682660
  0.8783367269652762  0.7181930636695143  0.5726770046546307
  0.8560824707142329  0.7309852898331551  0.6090186022979897
  0.8783247526760455  0.6667328545510528  0.6453557724961693
  0.8560784695353846  0.7052578407292307  0.6453575356830772
  0.8338281107714297  0.7437774192925910  0.6453557724961693
  0.8338400850606607  0.7952376284110526  0.5726770046546307
  0.8560704964250020  0.6795250807146933  0.6816973701395280
  0.8338161364821990  0.6923172101741297  0.7180345403377076
  0.2551850131206607  0.5123522271956682  0.8633920760207846
  0.2774353718846154  0.4738326486323077  0.8633938392076924
  0.2996924486495459  0.5123515946385024  0.8633930908344200
  0.2774393730634634  0.4995600977362319  0.8270549058226049
  0.2997032021714298  0.5893967919372065  0.8633920760207846
  0.2551958067449304  0.5893961593800409  0.8633930908344200
  0.2329387299799999  0.5508772133738463  0.8633938392076924
  0.3441998440760452  0.5123522271956682  0.8633920760207846
  0.3887072796049305  0.5123515946385024  0.8633930908344200
  0.3664502028400000  0.4738326486323077  0.8633938392076924
  0.3219455878250019  0.5251444533593087  0.8997336736641435
  0.3219575621142327  0.5766046624777702  0.8270549058226049
  0.3887180331268145  0.5893967919372065  0.8633920760207846
  0.3442106377003151  0.5893961593800409  0.8633930908344200
  0.3219535609353845  0.5508772133738463  0.8633938392076924
  0.3664637768757713  0.6021890181008474  0.8997336736641435
  0.3887060588375837  0.5379365828187450  0.9360708438623230
  0.4109564176015384  0.4994170042553847  0.9360726070492308
  0.4554690349742327  0.4995600977362319  0.8270549058226049
  0.4554650337953846  0.4738326486323077  0.8633938392076924
  0.4332146750314301  0.5123522271956682  0.8633920760207846
  0.4109604187803867  0.5251444533593087  0.8997336736641435
  0.4332134943664691  0.5379359502615794  0.9360718586759583
  0.4109683918907692  0.5508772133738463  0.8633938392076924
  0.4109723930696172  0.5766046624777702  0.8270549058226049
  0.4332254686556996  0.5893961593800409  0.8633930908344200
  0.4554786078311559  0.6021890181008474  0.8997336736641435
  0.5444838659296173  0.4995600977362319  0.8270549058226049
  0.4999872240250020  0.5766046624777702  0.8270549058226049
  0.5222295059868144  0.5123522271956682  0.8633920760207846
  0.4777328640821993  0.5893967919372065  0.8633920760207846
  0.5222402996110841  0.5893961593800409  0.8633930908344200
  0.4777221105603149  0.5123515946385024  0.8633930908344200
  0.5444798647507690  0.4738326486323077  0.8633938392076924
  0.4999712485569232  0.4994170042553847  0.9360726070492308
  0.4999752497357710  0.5251444533593087  0.8997336736641435
  0.4999832228461539  0.5508772133738463  0.8633938392076924
  0.4777208897929684  0.5379365828187450  0.9360708438623230
  0.5222283253218536  0.5379359502615794  0.9360718586759583
  0.2997139957956997  0.6664407241215794  0.8633930908344200
  0.3442213912221992  0.6664413566787448  0.8633920760207846
  0.2774569190307691  0.6279217781153847  0.8633938392076924
  0.3664717499861536  0.6279217781153847  0.8633938392076924
  0.3664757511650018  0.6536492272193088  0.8270549058226049
  0.4332362221775837  0.6664413566787448  0.8633920760207846
  0.3887288267510843  0.6664407241215794  0.8633930908344200
  0.4109819659265405  0.6792335828423857  0.8997336736641435
  0.4109899390369229  0.7049663428569231  0.8633938392076924
  0.3219751080815385  0.7049663428569231  0.8633938392076924
  0.4109939402157711  0.7306937919608473  0.8270549058226049
  0.4332470158018535  0.7434852888631178  0.8633930908344200
  0.4777436577064689  0.6664407241215794  0.8633930908344200
  0.4554865809415384  0.6279217781153847  0.8633938392076924
  0.5222510531329684  0.6664413566787448  0.8633920760207846
  0.5000087711711559  0.7306937919608473  0.8270549058226049
  0.5222618467572380  0.7434852888631178  0.8633930908344200
  0.5000047699923075  0.7049663428569231  0.8633938392076924
  0.4999967968819250  0.6792335828423857  0.8997336736641435
  0.4777544112283530  0.7434859214202836  0.8633920760207846
  0.4555121292665403  0.8077383567023858  0.8270549058226049
  0.4332242478883530  0.6149811475602837  0.9360708438623230
  0.4777316834172382  0.6149805150031177  0.9360718586759583
  0.5222390788437375  0.6149811475602837  0.9360708438623230
  0.6334986968850019  0.4995600977362319  0.8270549058226049
  0.5890020549803865  0.5766046624777702  0.8270549058226049
  0.6112443369421990  0.5123522271956682  0.8633920760207846
  0.5667369415156996  0.5123515946385024  0.8633930908344200
  0.6334946957061538  0.4738326486323077  0.8633938392076924
  0.5889900806911558  0.5251444533593087  0.8997336736641435
  0.6112431562772384  0.5379359502615794  0.9360718586759583
  0.5667357207483528  0.5379365828187450  0.9360708438623230
  0.5889980538015381  0.5508772133738463  0.8633938392076924
  0.6112551305664687  0.5893961593800409  0.8633930908344200
  0.5445054130757713  0.6536492272193088  0.8270549058226049
  0.6335202440311558  0.6536492272193088  0.8270549058226049
  0.5667584886618533  0.6664407241215794  0.8633930908344200
  0.5667476950375836  0.5893967919372065  0.8633920760207846
  0.5445014118969230  0.6279217781153847  0.8633938392076924
  0.5444934387865404  0.6021890181008474  0.8997336736641435
  0.5667465143726228  0.6149805150031177  0.9360718586759583
  0.6335082697419250  0.6021890181008474  0.8997336736641435
  0.6335162428523078  0.6279217781153847  0.8633938392076924
  0.6780168859357710  0.5766046624777702  0.8270549058226049
  0.7225135278403866  0.4995600977362319  0.8270549058226049
  0.7002591678975837  0.5123522271956682  0.8633920760207846
  0.7447666034264688  0.5123515946385024  0.8633930908344200
  0.7225095266615386  0.4738326486323077  0.8633938392076924
  0.6557517724710843  0.5123515946385024  0.8633930908344200
  0.6780049116465404  0.5251444533593087  0.8997336736641435
  0.6780128847569231  0.5508772133738463  0.8633938392076924
  0.7225350749865406  0.6536492272193088  0.8270549058226049
  0.7447773569483530  0.5893967919372065  0.8633920760207846
  0.6557625259929682  0.5893967919372065  0.8633920760207846
  0.6557733196172382  0.6664407241215794  0.8633930908344200
  0.7002699615218536  0.5893961593800409  0.8633930908344200
  0.7225310738076923  0.6279217781153847  0.8633938392076924
  0.5889860795123077  0.4994170042553847  0.9360726070492308
  0.5444894376076924  0.5764615689969232  0.9360726070492308
  0.6112658840883527  0.6664413566787448  0.8633920760207846
  0.5667692421837376  0.7434859214202836  0.8633920760207846
  0.5890236021265404  0.7306937919608473  0.8270549058226049
  0.5890196009476923  0.7049663428569231  0.8633938392076924
  0.6112766777126227  0.7434852888631178  0.8633930908344200
  0.5890116278373096  0.6792335828423857  0.8997336736641435
  0.5445269602219250  0.8077383567023858  0.8270549058226049
  0.6780344319030768  0.7049663428569231  0.8633938392076924
  0.7002807150437375  0.6664413566787448  0.8633920760207846
  0.6780384330819249  0.7306937919608473  0.8270549058226049
  0.7670277157123078  0.5508772133738463  0.8633938392076924
  0.8115283587957711  0.4995600977362319  0.8270549058226049
  0.7670317168911556  0.5766046624777702  0.8270549058226049
  0.2775231930880788  0.8597815615654625  0.3183035309318357
  0.2997762686741611  0.8725730584677333  0.3546417159436507
  0.3665380240434634  0.8597815615654625  0.3183035309318357
  0.3442836641006608  0.8725736910248989  0.3546407011300154
  0.3220254066707692  0.8596384680846154  0.4273212321584617
  0.2997750479068145  0.8981580466479758  0.4273194689715538
  0.2330105757153846  0.8596384680846154  0.4273212321584617
  0.3220294078496175  0.8853659171885395  0.3909822987733743
  0.3887898788621992  0.8981580466479758  0.4273194689715538
  0.3442824834356999  0.8981574140908102  0.4273204837851892
  0.3665356226111557  0.9109502728116164  0.4636610666149127
  0.4110522119153847  0.9110986772030770  0.3546424643169231
  0.3887910996295458  0.8725730584677333  0.3546417159436507
  0.4778059305849306  0.8725730584677333  0.3546417159436507
  0.4555608281092307  0.8855143215800001  0.2819636964753848
  0.4555528549988481  0.8597815615654625  0.3183035309318357
  0.4110442388050019  0.8853659171885395  0.3909822987733743
  0.4778047098175838  0.8981580466479758  0.4273194689715538
  0.4110402376261538  0.8596384680846154  0.4273212321584617
  0.4555504535665406  0.9109502728116164  0.4636610666149127
  0.4555584266769230  0.9366830328261539  0.4273212321584617
  0.5668207615403152  0.8725730584677333  0.3546417159436507
  0.5445676859542325  0.8597815615654625  0.3183035309318357
  0.5000670428707693  0.9110986772030770  0.3546424643169231
  0.5223133260114298  0.8725736910248989  0.3546407011300154
  0.5445756590646156  0.8855143215800001  0.2819636964753848
  0.5890818738261538  0.9110986772030770  0.3546424643169231
  0.6113281569668144  0.8725736910248989  0.3546407011300154
  0.6558355924956998  0.8725730584677333  0.3546417159436507
  0.6335825169096174  0.8597815615654625  0.3183035309318357
  0.5000590697603866  0.8853659171885395  0.3909822987733743
  0.5668195407729684  0.8981580466479758  0.4273194689715538
  0.5223121453464690  0.8981574140908102  0.4273204837851892
  0.5890698995369230  0.8596384680846154  0.4273212321584617
  0.5000550685815385  0.8596384680846154  0.4273212321584617
  0.5445652845219250  0.9109502728116164  0.4636610666149127
  0.5445732576323078  0.9366830328261539  0.4273212321584617
  0.5890739007157711  0.8853659171885395  0.3909822987733743
  0.6780887316711559  0.8853659171885395  0.3909822987733743
  0.6558343717283530  0.8981580466479758  0.4273194689715538
  0.6113269763018536  0.8981574140908102  0.4273204837851892
  0.6780847304923077  0.8596384680846154  0.4273212321584617
  0.6335801154773095  0.9109502728116164  0.4636610666149127
  0.2775167904769230  0.8852228237076925  0.5000000000000000
  0.3442812626683527  0.9237424022710526  0.4999982368130922
  0.3665316214323077  0.8852228237076925  0.5000000000000000
  0.3442692883791222  0.8722821931525911  0.5726770046546307
  0.2997618929526227  0.8722815605954254  0.5726780194682660
  0.3220230052384617  0.9108071793307693  0.5726787678415386
  0.4332960936237376  0.9237424022710526  0.4999982368130922
  0.3887886981972382  0.9237417697138872  0.4999992516267276
  0.4110418373726942  0.9365346284346933  0.5363398344564513
  0.3887767239080074  0.8722815605954254  0.5726780194682660
  0.4332841193345069  0.8722821931525911  0.5726770046546307
  0.4110378361938462  0.9108071793307693  0.5726787678415386
  0.4332949129587767  0.9493261253369640  0.5726780194682660
  0.4778035291526229  0.9237417697138872  0.4999992516267276
  0.5223109245791220  0.9237424022710526  0.4999982368130922
  0.4555464523876923  0.8852228237076925  0.5000000000000000
  0.4777915548633919  0.8722815605954254  0.5726780194682660
  0.5000526671492308  0.9108071793307693  0.5726787678415386
  0.5222989502898916  0.8722821931525911  0.5726770046546307
  0.5000566683280787  0.9365346284346933  0.5363398344564513
  0.4778023083852761  0.9493267578941296  0.5726770046546307
  0.5223097439141614  0.9493261253369640  0.5726780194682660
  0.3442681077141612  0.8978659162185024  0.6453567873098046
  0.3887755031406606  0.8978665487756681  0.6453557724961693
  0.4110298630834635  0.8850744193162319  0.6090186022979897
  0.4332829386695456  0.8978659162185024  0.6453567873098046
  0.4555360778450020  0.9106587749393087  0.6816973701395280
  0.4555320766661538  0.8849313258353847  0.7180363035246154
  0.5000446940388482  0.8850744193162319  0.6090186022979897
  0.4777903340960453  0.8978665487756681  0.6453557724961693
  0.5222977696249305  0.8978659162185024  0.6453567873098046
  0.5445469076215383  0.8849313258353847  0.7180363035246154
  0.5668183601080073  0.9237417697138872  0.4999992516267276
  0.5890674981046156  0.9108071793307693  0.5726787678415386
  0.5890595249942325  0.8850744193162319  0.6090186022979897
  0.5668063858187768  0.8722815605954254  0.5726780194682660
  0.6113137812452759  0.8722821931525911  0.5726770046546307
  0.6113257555345066  0.9237424022710526  0.4999982368130922
  0.6335761142984615  0.8852228237076925  0.5000000000000000
  0.6558331910633921  0.9237417697138872  0.4999992516267276
  0.6558212167741614  0.8722815605954254  0.5726780194682660
  0.6780823290600000  0.9108071793307693  0.5726787678415386
  0.6780743559496175  0.8850744193162319  0.6090186022979897
  0.5890714992834634  0.9365346284346933  0.5363398344564513
  0.5668171393406608  0.9493267578941296  0.5726770046546307
  0.5668051650514301  0.8978665487756681  0.6453557724961693
  0.6113126005803150  0.8978659162185024  0.6453567873098046
  0.6558199960068144  0.8978665487756681  0.6453557724961693
  0.7225973478650018  0.8597815615654625  0.3183035309318357
  0.7003429879221992  0.8725736910248989  0.3546407011300154
  0.7003418072572383  0.8981574140908102  0.4273204837851892
  0.7670995614476924  0.8596384680846154  0.4273212321584617
  0.7225909452538463  0.8852228237076925  0.5000000000000000
  0.7448360477295460  0.8722815605954254  0.5726780194682660
  0.7003286122006606  0.8722821931525911  0.5726770046546307
  0.2106764297991220  0.2306328174695142  0.2819619332884768
  0.1884341478373097  0.2948852527516164  0.2456247630902969
  0.1661797878945067  0.3076773822110527  0.2819619332884768
  0.1439375059326941  0.3719298174931549  0.2456247630902969
  0.1216831459898916  0.3847219469525912  0.2819619332884768
  0.2106991977126227  0.3591369587723485  0.2092841802605735
  0.2329603099984613  0.3976625775076923  0.2092849286338463
  0.2329523368880789  0.3719298174931549  0.2456247630902969
  0.1662013350406606  0.4617665116941295  0.2819619332884768
  0.1439590530788482  0.5260189469762319  0.2456247630902969
  0.2329643111773096  0.4233900266116165  0.1729459952487588
  0.2329722842876922  0.4491227866261540  0.1366061607923075
  0.1884676692726943  0.5004345913531550  0.1729459952487588
  0.1662025558080076  0.4361815235138872  0.2092841802605735
  0.2107099512345066  0.4361821560710528  0.2092831654469384
  0.1884556949834633  0.4489743822346933  0.2456247630902969
  0.1884636680938462  0.4747071422492309  0.2092849286338463
  0.2329738840342326  0.5260189469762319  0.2456247630902969
  0.1662133093298915  0.5132267208125912  0.2092831654469384
  0.2107207448587768  0.5132260882554255  0.2092841802605735
  0.1217046931360451  0.5388110764356681  0.2819619332884768
  0.2329858583234635  0.5774791560946935  0.1729459952487588
  0.2107314983806607  0.5902712855541296  0.2092831654469384
  0.2329818571446154  0.5517517069907694  0.2092849286338463
  0.2107195240914298  0.5388110764356681  0.2819619332884768
  0.1884772421296174  0.6030635117177703  0.2456247630902969
  0.1884852152399999  0.6287962717323078  0.2092849286338463
  0.1662228821868143  0.6158556411772065  0.2819619332884768
  0.2330034042907693  0.7058408364738463  0.2092849286338463
  0.2107422920049304  0.6673152177385026  0.2092841802605735
  0.2329954311803864  0.6801080764593087  0.2456247630902969
  0.2107410712375837  0.6929002059187451  0.2819619332884768
  0.2996912607545066  0.2306328174695142  0.2819619332884768
  0.3441879026591220  0.1535882527279755  0.2819619332884768
  0.3664422626019252  0.1407961232685395  0.2456247630902969
  0.3441998769483529  0.2050484618464373  0.2092831654469384
  0.2996924815218535  0.2050478292892716  0.2092841802605735
  0.3219456206973096  0.2178406880100779  0.2456247630902969
  0.3887073124772382  0.2050478292892716  0.2092841802605735
  0.4332147079037376  0.2050484618464373  0.2092831654469384
  0.4554690678465405  0.1922563323870010  0.1729459952487588
  0.4554650666676924  0.1665288832830771  0.2092849286338463
  0.4777221434326225  0.2050478292892716  0.2092841802605735
  0.4109604516526945  0.2178406880100779  0.2456247630902969
  0.4332027336145060  0.1535882527279755  0.2819619332884768
  0.4554570935573096  0.1407961232685395  0.2456247630902969
  0.4332494501064690  0.3850128122677332  0.0639266445774968
  0.4777568455329685  0.3850134448248989  0.0639256297638615
  0.3219655680969231  0.2950336571430770  0.1366061607923075
  0.2997152093329685  0.3335532357064374  0.1366043976053998
  0.3442226448618539  0.3335526031492716  0.1366054124190351
  0.2774689261923080  0.3720782218846156  0.1366061607923075
  0.2552185674283531  0.4105978004479758  0.1366043976053998
  0.3442333983837377  0.4105978004479758  0.1366043976053998
  0.3219871152430770  0.4491227866261540  0.1366061607923075
  0.2997260029572384  0.4105971678908101  0.1366054124190351
  0.2997032350437373  0.2820930265879758  0.2092831654469384
  0.2551958396172382  0.2820923940308102  0.2092841802605735
  0.2774489787926944  0.2948852527516164  0.2456247630902969
  0.2774569519030771  0.3206180127661540  0.2092849286338463
  0.2551946188498913  0.3076773822110527  0.2819619332884768
  0.3219575949865405  0.2693008971285397  0.1729459952487588
  0.3442106705726226  0.2820923940308102  0.2092841802605735
  0.3664717828584616  0.3206180127661540  0.2092849286338463
  0.3219535938076924  0.2435734480246155  0.2092849286338463
  0.3664638097480790  0.2948852527516164  0.2456247630902969
  0.3442094498052762  0.3076773822110527  0.2819619332884768
  0.2774609530819249  0.3463454618700780  0.1729459952487588
  0.2997247821898914  0.4361821560710528  0.2092831654469384
  0.2552173867633919  0.4361815235138872  0.2092841802605735
  0.2997140286680074  0.3591369587723485  0.2092841802605735
  0.2552065931391222  0.3591375913295143  0.2092831654469384
  0.2774705259388481  0.4489743822346933  0.2456247630902969
  0.2997128079006605  0.3847219469525912  0.2819619332884768
  0.3442214240945063  0.3591375913295143  0.2092831654469384
  0.3219671678434632  0.3719298174931549  0.2456247630902969
  0.3219751409538463  0.3976625775076923  0.2092849286338463
  0.3442322177187767  0.4361815235138872  0.2092841802605735
  0.3219791421326941  0.4233900266116165  0.1729459952487588
  0.3887192867664691  0.2565080384077332  0.1366054124190351
  0.4109803990523077  0.2950336571430770  0.1366061607923075
  0.3887300402883530  0.3335532357064374  0.1366043976053998
  0.4109844002311557  0.3207611062470011  0.1002672274072204
  0.4777341177218536  0.2565080384077332  0.1366054124190351
  0.4332266821929686  0.2565086709648988  0.1366043976053998
  0.4777448712437375  0.3335532357064374  0.1366043976053998
  0.4332374758172383  0.3335526031492716  0.1366054124190351
  0.3887180659991221  0.2820930265879758  0.2092831654469384
  0.4777328969545068  0.2820930265879758  0.2092831654469384
  0.4109724259419250  0.2693008971285397  0.1729459952487588
  0.4109684247630769  0.2435734480246155  0.2092849286338463
  0.4332255015280073  0.2820923940308102  0.2092841802605735
  0.4777209226652759  0.2306328174695142  0.2819619332884768
  0.3887060917098914  0.2306328174695142  0.2819619332884768
  0.4554906149926941  0.3463454618700780  0.1729459952487588
  0.3664757840373097  0.3463454618700780  0.1729459952487588
  0.4554866138138462  0.3206180127661540  0.2092849286338463
  0.4554786407034638  0.2948852527516164  0.2456247630902969
  0.4332242807606606  0.3076773822110527  0.2819619332884768
  0.3664877583265402  0.3978056709885395  0.1002672274072204
  0.3887408339126227  0.4105971678908101  0.1366054124190351
  0.4110019461984615  0.4491227866261540  0.1366061607923075
  0.4332482293391222  0.4105978004479758  0.1366043976053998
  0.4554985881030771  0.3720782218846156  0.1366061607923075
  0.4555105623923078  0.4235384310030770  0.0639273929507692
  0.4555025892819249  0.3978056709885395  0.1002672274072204
  0.4777556648680077  0.4105971678908101  0.1366054124190351
  0.3887288596233920  0.3591369587723485  0.2092841802605735
  0.3887396131452756  0.4361821560710528  0.2092831654469384
  0.4109939730880787  0.4233900266116165  0.1729459952487588
  0.4777436905787766  0.3591369587723485  0.2092841802605735
  0.4332362550498913  0.3591375913295143  0.2092831654469384
  0.4777544441006605  0.4361821560710528  0.2092831654469384
  0.4332470486741610  0.4361815235138872  0.2092841802605735
  0.4109819987988480  0.3719298174931549  0.2456247630902969
  0.3664853568942327  0.4489743822346933  0.2456247630902969
  0.3887276388560453  0.3847219469525912  0.2819619332884768
  0.4109899719092309  0.3976625775076923  0.2092849286338463
  0.4555001878496172  0.4489743822346933  0.2456247630902969
  0.4777424698114300  0.3847219469525912  0.2819619332884768
  0.5444719245126943  0.1407961232685395  0.2456247630902969
  0.5222175645698915  0.1535882527279755  0.2819619332884768
  0.5444798976230771  0.1665288832830771  0.2092849286338463
  0.5222295388591222  0.2050484618464373  0.2092831654469384
  0.4999752826080788  0.2178406880100779  0.2456247630902969
  0.5444838988019248  0.1922563323870010  0.1729459952487588
  0.5667369743880073  0.2050478292892716  0.2092841802605735
  0.5889901135634635  0.2178406880100779  0.2456247630902969
  0.6112323955252760  0.1535882527279755  0.2819619332884768
  0.6334867554680791  0.1407961232685395  0.2456247630902969
  0.6112443698145067  0.2050484618464373  0.2092831654469384
  0.6557518053433921  0.2050478292892716  0.2092841802605735
  0.7002592007698915  0.2050484618464373  0.2092831654469384
  0.7002472264806607  0.1535882527279755  0.2819619332884768
  0.6780049445188479  0.2178406880100779  0.2456247630902969
  0.5222642810618535  0.3850128122677332  0.0639266445774968
  0.5667716764883530  0.3850134448248989  0.0639256297638615
  0.5222415131483533  0.2565086709648988  0.1366043976053998
  0.5667489486772381  0.2565080384077332  0.1366054124190351
  0.5890100609630767  0.2950336571430770  0.1366061607923075
  0.4999952300076924  0.2950336571430770  0.1366061607923075
  0.4999992311865405  0.3207611062470011  0.1002672274072204
  0.5222523067726228  0.3335526031492716  0.1366054124190351
  0.5667597021991225  0.3335532357064374  0.1366043976053998
  0.5890140621419251  0.3207611062470011  0.1002672274072204
  0.4999872568973096  0.2693008971285397  0.1729459952487588
  0.5890020878526941  0.2693008971285397  0.1729459952487588
  0.5222403324833919  0.2820923940308102  0.2092841802605735
  0.5667477279098911  0.2820930265879758  0.2092831654469384
  0.5889980866738462  0.2435734480246155  0.2092849286338463
  0.4999832557184615  0.2435734480246155  0.2092849286338463
  0.5667357536206609  0.2306328174695142  0.2819619332884768
  0.5444934716588483  0.2948852527516164  0.2456247630902969
  0.5222391117160453  0.3076773822110527  0.2819619332884768
  0.5445014447692307  0.3206180127661540  0.2092849286338463
  0.5445174202373098  0.3978056709885395  0.1002672274072204
  0.5222630602945068  0.4105978004479758  0.1366043976053998
  0.5445253933476923  0.4235384310030770  0.0639273929507692
  0.5000167771538461  0.4491227866261540  0.1366061607923075
  0.5000088040434633  0.4233900266116165  0.1729459952487588
  0.5445134190584616  0.3720782218846156  0.1366061607923075
  0.5890236349988478  0.4233900266116165  0.1729459952487588
  0.5890316081092308  0.4491227866261540  0.1366061607923075
  0.5667704958233920  0.4105971678908101  0.1366054124190351
  0.5222510860052760  0.3591375913295143  0.2092831654469384
  0.4999968297542328  0.3719298174931549  0.2456247630902969
  0.5000048028646153  0.3976625775076923  0.2092849286338463
  0.5222618796295457  0.4361815235138872  0.2092841802605735
  0.5890116607096177  0.3719298174931549  0.2456247630902969
  0.5667585215341611  0.3591369587723485  0.2092841802605735
  0.5667573007668146  0.3847219469525912  0.2819619332884768
  0.5890196338199999  0.3976625775076923  0.2092849286338463
  0.5667692750560452  0.4361821560710528  0.2092831654469384
  0.5445150188050020  0.4489743822346933  0.2456247630902969
  0.6112563441037379  0.2565086709648988  0.1366043976053998
  0.6112671377280073  0.3335526031492716  0.1366054124190351
  0.6780248919184615  0.2950336571430770  0.1366061607923075
  0.7002819686833921  0.3335526031492716  0.1366054124190351
  0.6335162757246154  0.3206180127661540  0.2092849286338463
  0.6112551634387766  0.2820923940308102  0.2092841802605735
  0.6780129176292309  0.2435734480246155  0.2092849286338463
  0.6557625588652759  0.2820930265879758  0.2092831654469384
  0.6780169188080789  0.2693008971285397  0.1729459952487588
  0.7225311066800001  0.3206180127661540  0.2092849286338463
  0.7002699943941610  0.2820923940308102  0.2092841802605735
  0.6112539426714300  0.3076773822110527  0.2819619332884768
  0.6335083026142329  0.2948852527516164  0.2456247630902969
  0.6557505845760453  0.2306328174695142  0.2819619332884768
  0.7002687736268145  0.3076773822110527  0.2819619332884768
  0.7225231335696176  0.2948852527516164  0.2456247630902969
  0.6557745331545068  0.3335532357064374  0.1366043976053998
  0.6335202769034636  0.3463454618700780  0.1729459952487588
  0.7225351078588481  0.3463454618700780  0.1729459952487588
  0.6335282500138462  0.3720782218846156  0.1366061607923075
  0.6335322511926943  0.3978056709885395  0.1002672274072204
  0.6112778912498913  0.4105978004479758  0.1366043976053998
  0.7002927222052761  0.4105978004479758  0.1366043976053998
  0.6557853267787768  0.4105971678908101  0.1366054124190351
  0.6780384659542328  0.4233900266116165  0.1729459952487588
  0.6780464390646154  0.4491227866261540  0.1366061607923075
  0.6557733524895460  0.3591369587723485  0.2092841802605735
  0.6112659169606603  0.3591375913295143  0.2092831654469384
  0.6780264916650018  0.3719298174931549  0.2456247630902969
  0.7002807479160452  0.3591375913295143  0.2092831654469384
  0.6112767105849305  0.4361815235138872  0.2092841802605735
  0.6557841060114297  0.4361821560710528  0.2092831654469384
  0.6780344647753848  0.3976625775076923  0.2092849286338463
  0.7002915415403154  0.4361815235138872  0.2092841802605735
  0.7447654155314298  0.2306328174695142  0.2819619332884768
  0.7225430809692307  0.3720782218846156  0.1366061607923075
  0.7448001577341615  0.4105971678908101  0.1366054124190351
  0.7670612700200000  0.4491227866261540  0.1366061607923075
  0.7447773898206608  0.2820930265879758  0.2092831654469384
  0.7892836045821993  0.3076773822110527  0.2819619332884768
  0.8115379645250020  0.2948852527516164  0.2456247630902969
  0.7670492957307691  0.3976625775076923  0.2092849286338463
  0.7447881834449305  0.3591369587723485  0.2092841802605735
  0.7447989369668144  0.4361821560710528  0.2092831654469384
  0.7670532969096173  0.4233900266116165  0.1729459952487588
  0.7892955788714298  0.3591375913295143  0.2092831654469384
  0.7893063724956997  0.4361815235138872  0.2092841802605735
  0.8338137679221991  0.4361821560710528  0.2092831654469384
  0.7447869626775837  0.3847219469525912  0.2819619332884768
  0.7225446807157710  0.4489743822346933  0.2456247630902969
  0.7670413226203868  0.3719298174931549  0.2456247630902969
  0.8115595116711561  0.4489743822346933  0.2456247630902969
  0.8338017936329681  0.3847219469525912  0.2819619332884768
  0.8560561535757713  0.3719298174931549  0.2456247630902969
  0.3219911164219246  0.4748502357300781  0.1002672274072204
  0.3887635617237374  0.5391025743079757  0.0639256297638615
  0.3887528082018537  0.4620573770092718  0.0639266445774968
  0.4110059473773096  0.4748502357300781  0.1002672274072204
  0.4332602036283529  0.4620580095664373  0.0639256297638615
  0.4332709972526229  0.5391019417508102  0.0639266445774968
  0.4110139204876923  0.5005829957446153  0.0639273929507692
  0.2774944745173095  0.5518948004716165  0.1002672274072204
  0.3220126635680787  0.6289393652131550  0.1002672274072204
  0.3665093054726943  0.5518948004716165  0.1002672274072204
  0.4110274945234635  0.6289393652131550  0.1002672274072204
  0.4332817507745066  0.6161471390495143  0.0639256297638615
  0.2552293610526228  0.4876417326323487  0.1366054124190351
  0.2552281402852759  0.5132267208125912  0.2092831654469384
  0.2774825002280788  0.5004345913531550  0.1729459952487588
  0.2774904733384614  0.5261673513676923  0.1366061607923075
  0.3442429712406606  0.5132267208125912  0.2092831654469384
  0.2997367564791221  0.4876423651895143  0.1366043976053998
  0.3442441920080078  0.4876417326323487  0.1366054124190351
  0.2997355758141611  0.5132260882554255  0.2092841802605735
  0.2774784990492305  0.4747071422492309  0.2092849286338463
  0.2552161659960452  0.4617665116941295  0.2819619332884768
  0.2997343550468144  0.5388110764356681  0.2819619332884768
  0.3219887149896173  0.5260189469762319  0.2456247630902969
  0.3442309969514297  0.4617665116941295  0.2819619332884768
  0.2997475501033920  0.5646862973738871  0.1366054124190351
  0.2552401145745068  0.5646869299310526  0.1366043976053998
  0.3442549455298911  0.5646869299310526  0.1366043976053998
  0.3220006892788480  0.5774791560946935  0.1729459952487588
  0.3220086623892306  0.6032119161092310  0.1366061607923075
  0.2552377131421993  0.6158556411772065  0.2819619332884768
  0.2552389339095460  0.5902706529969639  0.2092841802605735
  0.2774920730850020  0.6030635117177703  0.2456247630902969
  0.2775000461953848  0.6287962717323078  0.2092849286338463
  0.2997463293360451  0.5902712855541296  0.2092831654469384
  0.3442525440975838  0.6158556411772065  0.2819619332884768
  0.3219966880999999  0.5517517069907694  0.2092849286338463
  0.3442537648649303  0.5902706529969639  0.2092841802605735
  0.3665053042938462  0.5261673513676923  0.1366061607923075
  0.3664973311834633  0.5004345913531550  0.1729459952487588
  0.3887515874345069  0.4876423651895143  0.1366043976053998
  0.4332590229633921  0.4876417326323487  0.1366054124190351
  0.4555121621388479  0.5004345913531550  0.1729459952487588
  0.3887504067695459  0.5132260882554255  0.2092841802605735
  0.3664933300046155  0.4747071422492309  0.2092849286338463
  0.4110035459450017  0.5260189469762319  0.2456247630902969
  0.4332458279068145  0.4617665116941295  0.2819619332884768
  0.4332578021960454  0.5132267208125912  0.2092831654469384
  0.4555081609600001  0.4747071422492309  0.2092849286338463
  0.4332697764852761  0.5646869299310526  0.1366043976053998
  0.4110234933446154  0.6032119161092310  0.1366061607923075
  0.3887623810587768  0.5646862973738871  0.1366054124190351
  0.4110155202342326  0.5774791560946935  0.1729459952487588
  0.3887611602914299  0.5902712855541296  0.2092831654469384
  0.4332685958203151  0.5902706529969639  0.2092841802605735
  0.3665148771507692  0.6287962717323078  0.2092849286338463
  0.3665069040403865  0.6030635117177703  0.2456247630902969
  0.3887491860021989  0.5388110764356681  0.2819619332884768
  0.4110115190553850  0.5517517069907694  0.2092849286338463
  0.4332673750529681  0.6158556411772065  0.2819619332884768
  0.2552509081987767  0.6417308621154254  0.1366054124190351
  0.2775040473742327  0.6545237208362318  0.1729459952487588
  0.2997583036252762  0.6417314946725912  0.1366043976053998
  0.3442657391541613  0.6417308621154254  0.1366054124190351
  0.2997571229603152  0.6673152177385026  0.2092841802605735
  0.2552496874314300  0.6673158502956682  0.2092831654469384
  0.2997559021929683  0.6929002059187451  0.2819619332884768
  0.3220102621357712  0.6801080764593087  0.2456247630902969
  0.3220182352461539  0.7058408364738463  0.2092849286338463
  0.3442645183868145  0.6673158502956682  0.2092831654469384
  0.3220222364250019  0.7315682855777704  0.1729459952487588
  0.2997678764821992  0.7443604150372064  0.2092831654469384
  0.2552604810556997  0.7443597824800409  0.2092841802605735
  0.2552592602883529  0.7699447706602833  0.2819619332884768
  0.2775136202311559  0.7571526412008472  0.2456247630902969
  0.3442740912437377  0.7699447706602833  0.2819619332884768
  0.3887731345806605  0.6417314946725912  0.1366043976053998
  0.3665188783296173  0.6545237208362318  0.1729459952487588
  0.4332805701095460  0.6417308621154254  0.1366054124190351
  0.3665268514399996  0.6802564808507694  0.1366061607923075
  0.4332913236314302  0.7187760594141296  0.1366043976053998
  0.3887839282049305  0.7187754268569638  0.1366054124190351
  0.3442764926760452  0.7187760594141296  0.1366043976053998
  0.4110370673803867  0.7315682855777704  0.1729459952487588
  0.3887719539156996  0.6673152177385026  0.2092841802605735
  0.4332793493421991  0.6673158502956682  0.2092831654469384
  0.4110250930911558  0.6801080764593087  0.2456247630902969
  0.3887707331483533  0.6929002059187451  0.2819619332884768
  0.4110330662015386  0.7058408364738463  0.2092849286338463
  0.3887827074375835  0.7443604150372064  0.2092831654469384
  0.3442860655329684  0.8214049797787450  0.2092831654469384
  0.4333008964883530  0.8214049797787450  0.2092831654469384
  0.4110450404907691  0.7573010455923077  0.1366061607923075
  0.3442753120110845  0.7443597824800409  0.2092841802605735
  0.3665364242969233  0.7828854012153846  0.2092849286338463
  0.3665284511865404  0.7571526412008472  0.2456247630902969
  0.3887935010618537  0.8214043472215794  0.2092841802605735
  0.4332889221991222  0.7699447706602833  0.2819619332884768
  0.4332901429664690  0.7443597824800409  0.2092841802605735
  0.4777783926791221  0.5391025743079757  0.0639256297638615
  0.4777676391572382  0.4620573770092718  0.0639266445774968
  0.5000207783326942  0.4748502357300781  0.1002672274072204
  0.5000287514430770  0.5005829957446153  0.0639273929507692
  0.5222858282080074  0.5391019417508102  0.0639266445774968
  0.5222750345837377  0.4620580095664373  0.0639256297638615
  0.4555241364280786  0.5518948004716165  0.1002672274072204
  0.5445389673834634  0.5518948004716165  0.1002672274072204
  0.4555321095384615  0.5776275604861539  0.0639273929507692
  0.5445469404938462  0.5776275604861539  0.0639273929507692
  0.4777891863033921  0.6161465064923485  0.0639266445774968
  0.5222965817298916  0.6161471390495143  0.0639256297638615
  0.5000423254788481  0.6289393652131550  0.1002672274072204
  0.5667824701126227  0.4620573770092718  0.0639266445774968
  0.6112898655391222  0.4620580095664373  0.0639256297638615
  0.5890356092880790  0.4748502357300781  0.1002672274072204
  0.5890435823984618  0.5005829957446153  0.0639273929507692
  0.6113006591633919  0.5391019417508102  0.0639266445774968
  0.5667932236345069  0.5391025743079757  0.0639256297638615
  0.6335537983388482  0.5518948004716165  0.1002672274072204
  0.5668040172587768  0.6161465064923485  0.0639266445774968
  0.5890571564342326  0.6289393652131550  0.1002672274072204
  0.4555201352492307  0.5261673513676923  0.1366061607923075
  0.4777664183898914  0.4876423651895143  0.1366043976053998
  0.5222738539187769  0.4876417326323487  0.1366054124190351
  0.5445269930942327  0.5004345913531550  0.1729459952487588
  0.5445349662046153  0.5261673513676923  0.1366061607923075
  0.5222606588621991  0.4617665116941295  0.2819619332884768
  0.5445229919153846  0.4747071422492309  0.2092849286338463
  0.4777652377249302  0.5132260882554255  0.2092841802605735
  0.5222726331514297  0.5132267208125912  0.2092831654469384
  0.5000183769003866  0.5260189469762319  0.2456247630902969
  0.4777640169575839  0.5388110764356681  0.2819619332884768
  0.4777772120141611  0.5646862973738871  0.1366054124190351
  0.5000303511896171  0.5774791560946935  0.1729459952487588
  0.5222846074406606  0.5646869299310526  0.1366043976053998
  0.5000383242999999  0.6032119161092310  0.1366061607923075
  0.4555217349957711  0.6030635117177703  0.2456247630902969
  0.4555297081061542  0.6287962717323078  0.2092849286338463
  0.4777759912468144  0.5902712855541296  0.2092831654469384
  0.5000263500107692  0.5517517069907694  0.2092849286338463
  0.5222822060083530  0.6158556411772065  0.2819619332884768
  0.5222834267756994  0.5902706529969639  0.2092841802605735
  0.5445365659511558  0.6030635117177703  0.2456247630902969
  0.6335497971600000  0.5261673513676923  0.1366061607923075
  0.5667812493452760  0.4876423651895143  0.1366043976053998
  0.6112886848741612  0.4876417326323487  0.1366054124190351
  0.6335418240496170  0.5004345913531550  0.1729459952487588
  0.6112874641068146  0.5132267208125912  0.2092831654469384
  0.6112754898175836  0.4617665116941295  0.2819619332884768
  0.6335378228707692  0.4747071422492309  0.2092849286338463
  0.5667800686803149  0.5132260882554255  0.2092841802605735
  0.5667788479129683  0.5388110764356681  0.2819619332884768
  0.5667920429695461  0.5646862973738871  0.1366054124190351
  0.5890451821450021  0.5774791560946935  0.1729459952487588
  0.6112994383960452  0.5646869299310526  0.1366043976053998
  0.5445445390615385  0.6287962717323078  0.2092849286338463
  0.5890411809661539  0.5517517069907694  0.2092849286338463
  0.5667908222021990  0.5902712855541296  0.2092831654469384
  0.6112982577310843  0.5902706529969639  0.2092841802605735
  0.6335513969065406  0.6030635117177703  0.2456247630902969
  0.6335593700169233  0.6287962717323078  0.2092849286338463
  0.4777879655360451  0.6417314946725912  0.1366043976053998
  0.4555456835742327  0.7059839299546933  0.1002672274072204
  0.5445605145296175  0.7059839299546933  0.1002672274072204
  0.5223061545868147  0.7187760594141296  0.1366043976053998
  0.5668027964914301  0.6417314946725912  0.1366043976053998
  0.6113209855421990  0.7187760594141296  0.1366043976053998
  0.5000518983357710  0.7315682855777704  0.1729459952487588
  0.4777987591603154  0.7187754268569638  0.1366054124190351
  0.5445565133507694  0.6802564808507694  0.1366061607923075
  0.4555337092850018  0.6545237208362318  0.1729459952487588
  0.5222954010649303  0.6417308621154254  0.1366054124190351
  0.4555416823953847  0.6802564808507694  0.1366061607923075
  0.5445485402403863  0.6545237208362318  0.1729459952487588
  0.5222941802975838  0.6673158502956682  0.2092831654469384
  0.4777867848710843  0.6673152177385026  0.2092841802605735
  0.5000478971569232  0.7058408364738463  0.2092849286338463
  0.4777855641037373  0.6929002059187451  0.2819619332884768
  0.5000399240465403  0.6801080764593087  0.2456247630902969
  0.4555552564311559  0.8086128503193087  0.1729459952487588
  0.5000598714461538  0.7573010455923077  0.1366061607923075
  0.4777975383929683  0.7443604150372064  0.2092831654469384
  0.5223157274437376  0.8214049797787450  0.2092831654469384
  0.4778083320172382  0.8214043472215794  0.2092841802605735
  0.4555512552523078  0.7828854012153846  0.2092849286338463
  0.4555432821419250  0.7571526412008472  0.2456247630902969
  0.5223049739218536  0.7443597824800409  0.2092841802605735
  0.5223037531545066  0.7699447706602833  0.2819619332884768
  0.5445581130973097  0.7571526412008472  0.2456247630902969
  0.6113102320203153  0.6417308621154254  0.1366054124190351
  0.6335633711957713  0.6545237208362318  0.1729459952487588
  0.6335713443061539  0.6802564808507694  0.1366061607923075
  0.5890667292911556  0.7315682855777704  0.1729459952487588
  0.5668135901156998  0.7187754268569638  0.1366054124190351
  0.6113090112529687  0.6673158502956682  0.2092831654469384
  0.5668016158264687  0.6673152177385026  0.2092841802605735
  0.5890627281123078  0.7058408364738463  0.2092849286338463
  0.5890547550019253  0.6801080764593087  0.2456247630902969
  0.5668003950591224  0.6929002059187451  0.2819619332884768
  0.5445700873865400  0.8086128503193087  0.1729459952487588
  0.5890747024015386  0.7573010455923077  0.1366061607923075
  0.6113305583991221  0.8214049797787450  0.2092831654469384
  0.5668123693483529  0.7443604150372064  0.2092831654469384
  0.5668231629726228  0.8214043472215794  0.2092841802605735
  0.5445660862076922  0.7828854012153846  0.2092849286338463
  0.6113185841098914  0.7699447706602833  0.2819619332884768
  0.6113198048772381  0.7443597824800409  0.2092841802605735
  0.6335729440526940  0.7571526412008472  0.2456247630902969
  0.6335809171630770  0.7828854012153846  0.2092849286338463
  0.6780504402434635  0.4748502357300781  0.1002672274072204
  0.6780719873896174  0.6289393652131550  0.1002672274072204
  0.7225686292942327  0.5518948004716165  0.1002672274072204
  0.6557948996356996  0.5132260882554255  0.2092841802605735
  0.7003022950621993  0.5132267208125912  0.2092831654469384
  0.7003035158295460  0.4876417326323487  0.1366054124190351
  0.6557960803006605  0.4876423651895143  0.1366043976053998
  0.7225566550050020  0.5004345913531550  0.1729459952487588
  0.7225646281153847  0.5261673513676923  0.1366061607923075
  0.7448109112560453  0.4876423651895143  0.1366043976053998
  0.7448097305910844  0.5132260882554255  0.2092841802605735
  0.6557936788683530  0.5388110764356681  0.2819619332884768
  0.6780480388111562  0.5260189469762319  0.2456247630902969
  0.7002903207729686  0.4617665116941295  0.2819619332884768
  0.7448085098237376  0.5388110764356681  0.2819619332884768
  0.7225526538261540  0.4747071422492309  0.2092849286338463
  0.6558068739249306  0.5646862973738871  0.1366054124190351
  0.6780600131003862  0.5774791560946935  0.1729459952487588
  0.6780679862107692  0.6032119161092310  0.1366061607923075
  0.7003142693514297  0.5646869299310526  0.1366043976053998
  0.7448217048803152  0.5646862973738871  0.1366054124190351
  0.6558056531575838  0.5902712855541296  0.2092831654469384
  0.6780560119215389  0.5517517069907694  0.2092849286338463
  0.7003130886864690  0.5902706529969639  0.2092841802605735
  0.7003118679191223  0.6158556411772065  0.2819619332884768
  0.7225662278619251  0.6030635117177703  0.2456247630902969
  0.7225742009723076  0.6287962717323078  0.2092849286338463
  0.7448204841129685  0.5902712855541296  0.2092831654469384
  0.7893171260175834  0.5132267208125912  0.2092831654469384
  0.8115714859603866  0.5004345913531550  0.1729459952487588
  0.8338245615464688  0.5132260882554255  0.2092841802605735
  0.7893051517283529  0.4617665116941295  0.2819619332884768
  0.8115674847815382  0.4747071422492309  0.2092849286338463
  0.7670628697665405  0.5260189469762319  0.2456247630902969
  0.8560777007219253  0.5260189469762319  0.2456247630902969
  0.8338233407791227  0.5388110764356681  0.2819619332884768
  0.7670748440557712  0.5774791560946935  0.1729459952487588
  0.8115810588173098  0.6030635117177703  0.2456247630902969
  0.7893279196418536  0.5902706529969639  0.2092841802605735
  0.7670708428769232  0.5517517069907694  0.2092849286338463
  0.7893266988745068  0.6158556411772065  0.2819619332884768
  0.8115890319276923  0.6287962717323078  0.2092849286338463
  0.8338353150683523  0.5902712855541296  0.2092831654469384
  0.7003250629756999  0.6417308621154254  0.1366054124190351
  0.6558284210710845  0.7187754268569638  0.1366054124190351
  0.7448324584021995  0.6417314946725912  0.1366043976053998
  0.6558176274468148  0.6417314946725912  0.1366043976053998
  0.7225782021511554  0.6545237208362318  0.1729459952487588
  0.7003238422083532  0.6673158502956682  0.2092831654469384
  0.7448312777372382  0.6673152177385026  0.2092841802605735
  0.6780775590676925  0.7058408364738463  0.2092849286338463
  0.6780695859573098  0.6801080764593087  0.2456247630902969
  0.7448300569698919  0.6929002059187451  0.2819619332884768
  0.6558152260145069  0.6929002059187451  0.2819619332884768
  0.7893386731637373  0.6673158502956682  0.2092831654469384
  0.7670923900230771  0.7058408364738463  0.2092849286338463
  0.7670844169126942  0.6801080764593087  0.2456247630902969
  0.8338448879252763  0.6929002059187451  0.2819619332884768
  0.6780815602465405  0.7315682855777704  0.1729459952487588
  0.7225877750080790  0.7571526412008472  0.2456247630902969
  0.6558272003037376  0.7443604150372064  0.2092831654469384
  0.7003346358326227  0.7443597824800409  0.2092841802605735
  0.7003334150652761  0.7699447706602833  0.2819619332884768
  0.6558379939280076  0.8214043472215794  0.2092841802605735
  0.7448420312591224  0.7443604150372064  0.2092831654469384
  0.7893482460206609  0.7699447706602833  0.2819619332884768
  0.8783199826837378  0.4617665116941295  0.2819619332884768
  0.8783415298298914  0.6158556411772065  0.2819619332884768
  0.2997774493391221  0.8469893354018220  0.2819619332884768
  0.3220318092819251  0.8341972059423857  0.2456247630902969
  0.3887922802945067  0.8469893354018220  0.2819619332884768
  0.4778071112498914  0.8469893354018220  0.2819619332884768
  0.4110466402373096  0.8341972059423857  0.2456247630902969
  0.5000614711926942  0.8341972059423857  0.2456247630902969
  0.5668219422052758  0.8469893354018220  0.2819619332884768
  0.5890763021480787  0.8341972059423857  0.2456247630902969
  0.6558367731606608  0.8469893354018220  0.2819619332884768
  0.6780911331034634  0.8341972059423857  0.2456247630902969
  0.0549298464019249  0.5257274491039241  0.4636610666149127
  0.0549178721126944  0.4742672399854627  0.5363398344564513
  0.0994480354526941  0.6027720138454625  0.4636610666149127
  0.0771936755098912  0.6155641433048988  0.4999982368130922
  0.0994360611634636  0.5513118047270010  0.5363398344564513
  0.1439542502142329  0.6283563694685395  0.5363398344564513
  0.0771924948449306  0.6411478663708100  0.5726780194682660
  0.0771817012206607  0.5641039341864373  0.5726770046546307
  0.1216998902714299  0.6411484989279759  0.5726770046546307
  0.0772056497991219  0.6670243524233603  0.4273194689715538
  0.0994600097419251  0.6542322229639244  0.3909822987733743
  0.1217238388498913  0.7440689171648990  0.4273194689715538
  0.1439781987926943  0.7312767877054626  0.3909822987733743
  0.0994576083096173  0.7054009342100780  0.5363398344564513
  0.1217118645606604  0.6926087080464373  0.4999982368130922
  0.1439662245034636  0.6798165785870008  0.4636610666149127
  0.1884724392650019  0.7054009342100780  0.5363398344564513
  0.1217106838956998  0.7181924311123485  0.5726780194682660
  0.1662180793221985  0.7181930636695143  0.5726770046546307
  0.1662300536114296  0.7696532727879758  0.4999982368130922
  0.1662288729464690  0.7952369958538869  0.5726780194682660
  0.0994121125850018  0.4483913864900780  0.6816973701395280
  0.0994240868742325  0.4998515956085396  0.6090186022979897
  0.1439303016357710  0.5254359512316165  0.6816973701395280
  0.0771697269314298  0.5126437250679758  0.6453557724961693
  0.1216759416929681  0.5382280806910528  0.7180345403377076
  0.0771805205556995  0.5896876572523486  0.6453567873098046
  0.1439422759250017  0.5768961603500780  0.6090186022979897
  0.1216879159821990  0.5896882898095143  0.6453557724961693
  0.0994336597311557  0.6024805159731548  0.6816973701395280
  0.1884484906865400  0.6024805159731548  0.6816973701395280
  0.1216867353172382  0.6152720128754255  0.7180355551513430
  0.0994456340203866  0.6539407250916165  0.6090186022979897
  0.0994416328415383  0.6282132759876924  0.6453575356830772
  0.0994536071307692  0.6796734851061539  0.5726787678415386
  0.1884604649757709  0.6539407250916165  0.6090186022979897
  0.1439638230711558  0.7309852898331551  0.6090186022979897
  0.1439598218923080  0.7052578407292307  0.6453575356830772
  0.1216987096064687  0.6667322219938870  0.6453567873098046
  0.1662061050329684  0.6667328545510528  0.6453557724961693
  0.1661941307437373  0.6152726454325911  0.7180345403377076
  0.1439478476030768  0.6537976316107692  0.7180363035246154
  0.1439518487819249  0.6795250807146933  0.6816973701395280
  0.1662049243680074  0.6923165776169639  0.7180355551513430
  0.1884660366538460  0.7308421963523077  0.7180363035246154
  0.1439717961815385  0.7567180498476924  0.5726787678415386
  0.1884820121219251  0.8080298545746933  0.6090186022979897
  0.1662168986572383  0.7437767867354256  0.6453567873098046
  0.1884780109430770  0.7823024054707692  0.6453575356830772
  0.1884700378326941  0.7565696454562320  0.6816973701395280
  0.1439183273465405  0.4739757421131549  0.7543761379810665
  0.1884365163973095  0.5510203068546934  0.7543761379810665
  0.1439398744926942  0.6280648715962318  0.7543761379810665
  0.1661821564545066  0.5638124363141296  0.7907133081792460
  0.1884580635434632  0.7051094363377702  0.7543761379810665
  0.1884245421080786  0.4995600977362319  0.8270549058226049
  0.1884963878434633  0.8083213524470011  0.3909822987733743
  0.2330026026050016  0.8339057080700779  0.4636610666149127
  0.2329906283157711  0.7824454989516164  0.5363398344564513
  0.1884844135542328  0.7568611433285395  0.4636610666149127
  0.2107482426621988  0.8466978375295142  0.4999982368130922
  0.2775088173665403  0.8594900636931548  0.5363398344564513
  0.2329786540265406  0.7309852898331551  0.6090186022979897
  0.2107242940837374  0.7437774192925910  0.6453557724961693
  0.2107362683729679  0.7952376284110526  0.5726770046546307
  0.2774968430773098  0.8080298545746933  0.6090186022979897
  0.2552544574237376  0.8722821931525911  0.5726770046546307
  0.2552424831345066  0.8208219840341296  0.6453557724961693
  0.2107350877080076  0.8208213514769640  0.6453567873098046
  0.3220150321280786  0.8850744193162319  0.6090186022979897
  0.2329666797373093  0.6795250807146933  0.6816973701395280
  0.2329427311588478  0.5766046624777702  0.8270549058226049
  0.2774609202096170  0.6536492272193088  0.8270549058226049
  0.2329547054480788  0.6280648715962318  0.7543761379810665
  0.2107003455052756  0.6408570010556682  0.7907133081792460
  0.2107123197945069  0.6923172101741297  0.7180345403377076
  0.2774728944988480  0.7051094363377702  0.7543761379810665
  0.2552185345560453  0.7179015657972065  0.7907133081792460
  0.3219791092603863  0.7306937919608473  0.8270549058226049
  0.2107231134187762  0.7693611423585025  0.7180355551513430
  0.2552305088452757  0.7693617749156679  0.7180345403377076
  0.2774848687880789  0.7565696454562320  0.6816973701395280
  0.3219910835496176  0.7821540010793089  0.7543761379810665
  0.2997367236068136  0.7949461305387451  0.7907133081792460
  0.2997486978960450  0.8464063396572066  0.7180345403377076
  0.3220030578388485  0.8336142101977703  0.6816973701395280
  0.3665092726003864  0.8591985658208472  0.7543761379810665
  0.2552269596203149  0.5388104438785024  0.2819629481021122
  0.3664949297511556  0.5516033025993087  0.3183035309318357
  0.2329698828553846  0.5002914978723078  0.2819636964753848
  0.2774760976169232  0.5258758534953847  0.3546424643169231
  0.3442285955191220  0.5129352229402834  0.4273194689715538
  0.3442393891433921  0.5899791551246563  0.4273204837851892
  0.4555073592742325  0.6027720138454625  0.4636610666149127
  0.3219823123784615  0.5514602091184615  0.4273212321584617
  0.3887348102806605  0.5385195785633604  0.4999982368130922
  0.4332410250421990  0.5641039341864373  0.5726770046546307
  0.5445197887973096  0.6539407250916165  0.6090186022979897
  0.4109947419015386  0.6026289203646155  0.5726787678415386
  0.4777472398037375  0.5896882898095143  0.6453557724961693
  0.4777580334280074  0.6667322219938870  0.6453567873098046
  0.5222534545652758  0.6152726454325911  0.7180345403377076
  0.2997451486710841  0.6158550086200409  0.2819629481021122
  0.3442405698083529  0.5643954320587450  0.3546407011300154
  0.4555193335634634  0.6542322229639244  0.3909822987733743
  0.4332529993314297  0.6155641433048988  0.4999982368130922
  0.4332637929556996  0.6926080754892717  0.4999992516267276
  0.4110067161907692  0.6540891294830770  0.5000000000000000
  0.4777592140929682  0.6411484989279759  0.5726770046546307
  0.5890379778480789  0.7309852898331551  0.6090186022979897
  0.5222654288545068  0.6667328545510528  0.6453557724961693
  0.5222762224787765  0.7437767867354256  0.6453567873098046
  0.6335441926096175  0.7565696454562320  0.6816973701395280
  0.5000191457138463  0.7052578407292307  0.6453575356830772
  0.3887587588591221  0.6414399968002835  0.3546407011300154
  0.4332649736206605  0.6670243524233603  0.4273194689715538
  0.4332757672449307  0.7440682846077332  0.4273204837851892
  0.4110186904800001  0.7055493386015385  0.4273212321584617
  0.4777711883821990  0.6926087080464373  0.4999982368130922
  0.5222774031437375  0.7181930636695143  0.5726770046546307
  0.5445373347646155  0.7823024054707692  0.6453575356830772
  0.6112898326668145  0.7693617749156679  0.7180345403377076
  0.3664614083157712  0.3460539639977703  0.3909822987733743
  0.2996888593221990  0.2818015287156680  0.4273194689715538
  0.2996996529464688  0.3588454609000408  0.4273204837851892
  0.3441950740837374  0.3073858843387450  0.4999982368130922
  0.4554738378388482  0.3972226752439241  0.5363398344564513
  0.3219487909430769  0.3459108705169232  0.5000000000000000
  0.3887120824695457  0.4100141721461946  0.5726780194682660
  0.5444862673619251  0.4483913864900780  0.6816973701395280
  0.4109612204661539  0.3970795817630771  0.6453575356830772
  0.3664733826050020  0.3975141731162319  0.3183035309318357
  0.2997008336114298  0.3332617378341297  0.3546407011300154
  0.3442178419972381  0.4358900256415794  0.4273204837851892
  0.4554858121280789  0.4486828843623856  0.4636610666149127
  0.3219607652323075  0.3973710796353848  0.4273212321584617
  0.3887132631345066  0.3844304490802835  0.4999982368130922
  0.3887240567587766  0.4614743812646563  0.4999992516267276
  0.4332302715203151  0.4870587368877332  0.5726780194682660
  0.4109731947553846  0.4485397908815386  0.5726787678415386
  0.4777256926575836  0.4355991603264374  0.6453557724961693
  0.3442190226621990  0.4103063025756681  0.3546407011300154
  0.3442298162864689  0.4873502347600408  0.3546417159436507
  0.4554977864173097  0.5001430934808473  0.3909822987733743
  0.3219727395215383  0.4488312887538462  0.3546424643169231
  0.5445102159403866  0.5513118047270010  0.5363398344564513
  0.4109851690446155  0.5000000000000000  0.5000000000000000
  0.5222546753326228  0.5896876572523486  0.6453567873098046
  0.6335226454634634  0.6024805159731548  0.6816973701395280
  0.4999975985676922  0.5511687112461541  0.6453575356830772
  0.5667500964698913  0.5382280806910528  0.7180345403377076
  0.3442417905756998  0.5388104438785024  0.2819629481021122
  0.4555097607065402  0.5516033025993087  0.3183035309318357
  0.3219847138107692  0.5002914978723078  0.2819636964753848
  0.4332434264745066  0.5129352229402834  0.4273194689715538
  0.4332542200987767  0.5899791551246563  0.4273204837851892
  0.5445221902296173  0.6027720138454625  0.4636610666149127
  0.4109971433338461  0.5514602091184615  0.4273212321584617
  0.4777496412360450  0.5385195785633604  0.4999982368130922
  0.4777604348603152  0.6155635107477331  0.4999992516267276
  0.5222558559975836  0.5641039341864373  0.5726770046546307
  0.5222666496218535  0.6411478663708100  0.5726780194682660
  0.6335346197526943  0.6539407250916165  0.6090186022979897
  0.5000095728569232  0.6026289203646155  0.5726787678415386
  0.6112682855206605  0.6152726454325911  0.7180345403377076
  0.5000279497573096  0.6286478673408471  0.3183035309318357
  0.4332554007637375  0.5643954320587450  0.3546407011300154
  0.4332661943880074  0.6414393642431178  0.3546417159436507
  0.5445341645188482  0.6542322229639244  0.3909822987733743
  0.4110091176230769  0.6029204182369231  0.3546424643169231
  0.5222786239110843  0.6926080754892717  0.4999992516267276
  0.6335465940419250  0.7054009342100780  0.5363398344564513
  0.5000215471461539  0.6540891294830770  0.5000000000000000
  0.6112910534341612  0.7437767867354256  0.6453567873098046
  0.7225590235650020  0.7565696454562320  0.6816973701395280
  0.5890339766692307  0.7052578407292307  0.6453575356830772
  0.4110210919123076  0.6543806273553846  0.2819636964753848
  0.4555273066738460  0.6799649829784615  0.3546424643169231
  0.5222798045760452  0.6670243524233603  0.4273194689715538
  0.6335585683311556  0.7568611433285395  0.4636610666149127
  0.5000335214353845  0.7055493386015385  0.4273212321584617
  0.5667860193375834  0.6926087080464373  0.4999982368130922
  0.7225709978542328  0.8080298545746933  0.6090186022979897
  0.6558092424849304  0.8208213514769640  0.6453567873098046
  0.6335521657199998  0.7823024054707692  0.6453575356830772
  0.7003046636221989  0.7693617749156679  0.7180345403377076
  0.2997020543787766  0.3076767496538870  0.2819629481021122
  0.4554762392711557  0.3460539639977703  0.3909822987733743
  0.3219511923753846  0.2947421592707693  0.3546424643169231
  0.3887036902775836  0.2818015287156680  0.4273194689715538
  0.3887144839018535  0.3588454609000408  0.4273204837851892
  0.4332099050391218  0.3073858843387450  0.4999982368130922
  0.5444886687942326  0.3972226752439241  0.5363398344564513
  0.4109636218984617  0.3459108705169232  0.5000000000000000
  0.4777269134249305  0.4100141721461946  0.5726780194682660
  0.6335010983173095  0.4483913864900780  0.6816973701395280
  0.4999760514215384  0.3970795817630771  0.6453575356830772
  0.4554882135603864  0.3975141731162319  0.3183035309318357
  0.3219631666646155  0.3462023683892309  0.2819636964753848
  0.3887156645668144  0.3332617378341297  0.3546407011300154
  0.4332326729526228  0.4358900256415794  0.4273204837851892
  0.4109755961876924  0.3973710796353848  0.4273212321584617
  0.4777280940898911  0.3844304490802835  0.4999982368130922
  0.4777388877141613  0.4614743812646563  0.4999992516267276
  0.5890068578450018  0.4742672399854627  0.5363398344564513
  0.5222343088514300  0.4100148047033605  0.5726770046546307
  0.5222451024756999  0.4870587368877332  0.5726780194682660
  0.6335130726065402  0.4998515956085396  0.6090186022979897
  0.5667405236129683  0.4355991603264374  0.6453557724961693
  0.5000064026111556  0.4745587378577703  0.3183035309318357
  0.4332338536175837  0.4103063025756681  0.3546407011300154
  0.4332446472418536  0.4873502347600408  0.3546417159436507
  0.4109875704769231  0.4488312887538462  0.3546424643169231
  0.6335250468957710  0.5513118047270010  0.5363398344564513
  0.1241950056778066  0.2575948273141304  0.4101727275433518
  0.1191130084429658  0.2545485512093370  0.5171461191525918
  0.2329058405548806  0.1376670718355702  0.4102025335421162
  0.2329178148441113  0.1891272809540319  0.3375237657005778
  0.2329190012031915  0.1663339568979239  0.3697129965443885
  0.2526388570245043  0.1777954843401063  0.2991098156279764
  0.2526326061058518  0.1549619602591672  0.3375011673278990
  0.1687082919355155  0.2548436729876997  0.2991038899826768
  0.1687036218716524  0.2320104716910535  0.3374939597018133
  0.1884211729394960  0.2661718456955703  0.3375237657005778
  0.1884223592985761  0.2433785216394624  0.3697129965443885
  0.2081422151198890  0.2548400490816449  0.2991098156279764
  0.2081359642012365  0.2320065250007055  0.3375011673278990
  0.2329309754924224  0.2177941660163855  0.2970342287028500
  0.2081302408306583  0.2033798399631832  0.3717885834695149
  0.1884091986502650  0.2147116365771088  0.4102025335421162
  0.2081239899120055  0.1805463158822441  0.4101799351694375
  0.1884103850093454  0.1919183125210007  0.4423917643859269
  0.2329188348639212  0.1948019302326391  0.4444370996460845
  0.2081182665414274  0.1519196308447217  0.4444673513110535
  0.2131978623439602  0.2061346181956687  0.4828514953848903
  0.1636273480073902  0.2575908806237824  0.4101799351694375
  0.1439137431047299  0.2689628772625393  0.4423917643859269
  0.1636216246368123  0.2289641955862601  0.4444673513110535
  0.1439159781977672  0.2462621393511010  0.3717583318045461
  0.2132025324078231  0.2289678194923151  0.4444614256657537
  0.2132098366331912  0.2575948273141304  0.4101727275433518
  0.2329167827889337  0.2175966994453947  0.4122482676633518
  0.2329285740601146  0.2689628772625393  0.4423917643859269
  0.2526421789627747  0.2575908806237824  0.4101799351694375
  0.2329308091531519  0.2462621393511010  0.3717583318045461
  0.2526364555921966  0.2289641955862601  0.4444673513110535
  0.1883972243610346  0.1632514274586471  0.4828813013836548
  0.2329068605746903  0.1433417211141774  0.5171158674876231
  0.2526182303843134  0.1546704623868595  0.5555374708525144
  0.2131858880547293  0.1546744090772074  0.5555302632264286
  0.2526125070137352  0.1260437773493372  0.5898248869941304
  0.2329046254816530  0.1660424590256164  0.5877493000690038
  0.1636153737181595  0.2061306715053209  0.4828587030109758
  0.1883961923058570  0.1917208459500099  0.5576058033464286
  0.1439017688154994  0.2175026681440776  0.5150705322274655
  0.1686892461501140  0.2317189738187460  0.5555302632264286
  0.1686939162139769  0.2545521751153920  0.5171401935072921
  0.1884067972179573  0.2658803478232625  0.5555600692251931
  0.1439005824564190  0.2402959922001857  0.4828813013836548
  0.1438995504012412  0.2687654106915485  0.5576058033464286
  0.1884081665950879  0.2431810550684716  0.4849270355048902
  0.2526302046735440  0.2061306715053209  0.4828587030109758
  0.2329048084997030  0.1661364903269330  0.4849270355048902
  0.2526244813029666  0.1775039864677986  0.5171461191525918
  0.2131905581185922  0.1775076103738536  0.5171401935072921
  0.2329034391225729  0.1888357830817240  0.5555600692251931
  0.2329165997708839  0.2175026681440776  0.5150705322274655
  0.1884102186700750  0.2203862858557160  0.5171158674876231
  0.2081215884796980  0.2317150271283978  0.5555374708525144
  0.2329154134118038  0.2402959922001857  0.4828813013836548
  0.2081278393983508  0.2545485512093370  0.5171461191525918
  0.2329143813566262  0.2687654106915485  0.5576058033464286
  0.2131954609116525  0.2573033294418229  0.6282090310679671
  0.1884079835770375  0.2430870237671547  0.5877493000690038
  0.1439016024762287  0.2459706414787929  0.5897946353291614
  0.1686819419247462  0.2030919659969305  0.5898189613488307
  0.2081158651091199  0.2030883420908755  0.5898248869941304
  0.2329164334316133  0.2459706414787929  0.5897946353291614
  0.2526278032412363  0.2572993827514750  0.6282162386940529
  0.1636129722858520  0.2572993827514750  0.6282162386940529
  0.1883948229287268  0.2144201387048011  0.6282388370667316
  0.2081096141904671  0.1802548180099364  0.6282162386940529
  0.1438993673831914  0.2686713793902316  0.6604280679105424
  0.2131834866224216  0.2058431203233612  0.7008877989095055
  0.2131881566862845  0.2286763216200074  0.6624977291903692
  0.2329010376902653  0.2400044943278780  0.7009176049082699
  0.2329024070673953  0.2173052015730868  0.6302845711879672
  0.2329141983385762  0.2686713793902316  0.6604280679105424
  0.2526220798706584  0.2286726977139522  0.6625036548356688
  0.2329044591423826  0.1945104323603314  0.6624734031706999
  0.2526158289520056  0.2058391736330132  0.7008950065355914
  0.0994172842181647  0.3461014733053947  0.3395694998218133
  0.0994053099289337  0.2946412641869330  0.4122482676633518
  0.0994193362931519  0.3233067040926392  0.3717583318045461
  0.1191307061027750  0.3346354453653211  0.4101799351694375
  0.0796983637731909  0.3346393920556691  0.4101727275433518
  0.0994159148410344  0.3688007660601857  0.4102025335421162
  0.1191369570214274  0.3574689694462602  0.3717885834695149
  0.0994410497785762  0.4489278602410010  0.2970342287028500
  0.1191489313106582  0.4089291785647218  0.2991098156279764
  0.0746460384873903  0.4631402192253210  0.3375011673278990
  0.0746340641981593  0.4116800101068595  0.4101799351694375
  0.0746403151168122  0.4345135341877988  0.3717885834695149
  0.0994278891302653  0.4202609751786474  0.3375237657005778
  0.1191426803920057  0.3860956544837825  0.3375011673278990
  0.0994290754893451  0.3974676511225393  0.3697129965443885
  0.1191249827321968  0.3060087603277988  0.4444673513110535
  0.0994039405518037  0.3173405569417241  0.4828813013836548
  0.1191187318135442  0.2831752362468593  0.4828587030109758
  0.0746220899089287  0.3602198009883980  0.4828587030109758
  0.0994148827858571  0.3972701845515485  0.4849270355048902
  0.0549072986471882  0.3943851216832627  0.4828813013836548
  0.0549204592954992  0.4230520067456163  0.4423917643859269
  0.1191402789596979  0.4372643657299364  0.4828587030109758
  0.0797079366301140  0.4372683124202844  0.4828514953848903
  0.1191465298783507  0.4600978898108756  0.4444673513110535
  0.0994254876979575  0.4714296864248012  0.4828813013836548
  0.0746163665383506  0.3315931159508757  0.5171461191525918
  0.0994029084966261  0.3458099754330869  0.5576058033464286
  0.0994051269108838  0.2945472328856162  0.5150705322274655
  0.0746316627658519  0.4628487213530133  0.5555374708525144
  0.0549202929562289  0.4515199800803315  0.5171158674876231
  0.0549062665920106  0.4228545401746255  0.5576058033464286
  0.0796959623408832  0.3858081033018229  0.5555302632264286
  0.0797006324047460  0.4086413045984689  0.5171401935072921
  0.0994135134087270  0.4199694773063396  0.5555600692251931
  0.1191345555891199  0.4086376806924141  0.5171461191525918
  0.0994266740570377  0.4486363623686932  0.5150705322274655
  0.1191283046704671  0.3858041566114749  0.5555374708525144
  0.0994169348608443  0.3744754153387930  0.5171158674876231
  0.0994027254785761  0.3457159441317700  0.6604280679105424
  0.1191163303812364  0.3343439474930133  0.6282162386940529
  0.0994049605716130  0.3230152062203315  0.5897946353291614
  0.1191106070106581  0.3057172624554906  0.6625036548356688
  0.1191225812998891  0.3571774715739526  0.5898248869941304
  0.0994146997678069  0.3971761532502317  0.5877493000690038
  0.0994015391194959  0.3685092681878780  0.6282388370667316
  0.0746259393952736  0.4342220363154910  0.5898248869941304
  0.0796886581155154  0.3571810954800074  0.5898189613488307
  0.0746196884766210  0.4113885122345519  0.6282162386940529
  0.0994124813535493  0.4484388957977024  0.6302845711879672
  0.1191259032381594  0.4369728678576287  0.7008950065355914
  0.0994145334285366  0.4256441265849468  0.6624734031706999
  0.1191321541568121  0.4598063919385679  0.6625036548356688
  0.1439139261227800  0.2690569085638562  0.3395694998218133
  0.1439245310348805  0.3432164104371088  0.3375237657005778
  0.1242116500308999  0.3318882377292382  0.2991038899826768
  0.1242069799670370  0.3090550364325921  0.3374939597018133
  0.1636393222966210  0.3090510897422441  0.3375011673278990
  0.1439257173939606  0.3204230863810010  0.3697129965443885
  0.1439279524869982  0.2977223484695622  0.2990795639630076
  0.1636455732152737  0.3318846138231833  0.2991098156279764
  0.1884321151735492  0.3461014733053947  0.3395694998218133
  0.1884341672485366  0.3233067040926392  0.3717583318045461
  0.2526541532520056  0.3090510897422441  0.3375011673278990
  0.2329287570781646  0.2690569085638562  0.3395694998218133
  0.2132218109224216  0.3090550364325921  0.3374939597018133
  0.2132264809862847  0.3318882377292382  0.2991038899826768
  0.2329393619902653  0.3432164104371088  0.3375237657005778
  0.2329427834423827  0.2977223484695622  0.2990795639630076
  0.1884343335878068  0.2948387307579240  0.2970342287028500
  0.2526604041706582  0.3318846138231833  0.2991098156279764
  0.2329405483493453  0.3204230863810010  0.3697129965443885
  0.1687131947285755  0.3346393920556691  0.4101727275433518
  0.1241996757416692  0.2804280286107766  0.3717826578242152
  0.1687178647924383  0.3574725933523152  0.3717826578242152
  0.1636335989260430  0.2804244047047218  0.3717885834695149
  0.1439125567456497  0.2917562013186472  0.4102025335421162
  0.1687058905032077  0.3060123842338535  0.4444614256657537
  0.1439255510546904  0.3488910597157160  0.4444370996460845
  0.1636369208643134  0.3602198009883980  0.4828587030109758
  0.1242045785347293  0.3602237476787459  0.4828514953848903
  0.1884187715071882  0.3173405569417241  0.4828813013836548
  0.1687012204393447  0.2831791829372071  0.4828514953848903
  0.2329273877010344  0.2917562013186472  0.4102025335421162
  0.2526484298814275  0.2804244047047218  0.3717885834695149
  0.2132145066970539  0.2804280286107766  0.3717826578242152
  0.2081517879768122  0.3574689694462602  0.3717885834695149
  0.2081455370581596  0.3346354453653211  0.4101799351694375
  0.1884201408843184  0.2946412641869330  0.4122482676633518
  0.1884307457964189  0.3688007660601857  0.4102025335421162
  0.1884221929593057  0.2718464949741777  0.4444370996460845
  0.1884319321554990  0.3460074420040779  0.4423917643859269
  0.2329403820100749  0.3488910597157160  0.4444370996460845
  0.2081398136875815  0.3060087603277988  0.4444673513110535
  0.2081335627689291  0.2831752362468593  0.4828587030109758
  0.2132194094901139  0.3602237476787459  0.4828514953848903
  0.2526517518196980  0.3602198009883980  0.4828587030109758
  0.1439376916831916  0.3718832954994624  0.2970342287028500
  0.1687298390816693  0.4089328024707767  0.2991038899826768
  0.1439375253439212  0.4003512688341777  0.3717583318045461
  0.1687251690178062  0.3860996011741304  0.3374939597018133
  0.1884427200856498  0.4202609751786474  0.3375237657005778
  0.1439354732689339  0.4231460380469331  0.3395694998218133
  0.1439494996331519  0.4518114779526391  0.2990795639630076
  0.1242212228878232  0.4345171580938537  0.3717826578242152
  0.1636608694427750  0.4631402192253210  0.3375011673278990
  0.1242285271131908  0.4631441659156690  0.3374939597018133
  0.2329525226385760  0.3718832954994624  0.2970342287028500
  0.1884439064447298  0.3974676511225393  0.3697129965443885
  0.2081575113473903  0.3860956544837825  0.3375011673278990
  0.2329523562993057  0.4003512688341777  0.3717583318045461
  0.2329503042243184  0.4231460380469331  0.3395694998218133
  0.2132360538432077  0.4345171580938537  0.3717826578242152
  0.2132433580685755  0.4631441659156690  0.3374939597018133
  0.2526757003981595  0.4631402192253210  0.3375011673278990
  0.2329643305885365  0.4518114779526391  0.2990795639630076
  0.1884558807339606  0.4489278602410010  0.2970342287028500
  0.1439341038918038  0.4458453308017241  0.4102025335421162
  0.1636488951535442  0.4116800101068595  0.4101799351694375
  0.1636551460721967  0.4345135341877988  0.3717885834695149
  0.1242165528239601  0.4116839567972075  0.4101727275433518
  0.1439234989797031  0.3716858289284716  0.4122482676633518
  0.1439352902508839  0.4230520067456163  0.4423917643859269
  0.1242092485985923  0.3830569489753921  0.4444614256657537
  0.1687274376493617  0.4601015137169306  0.4444614256657537
  0.1636431717829659  0.3830533250693371  0.4444673513110535
  0.1884403186533422  0.4714296864248012  0.4828813013836548
  0.1687227675854987  0.4372683124202844  0.4828514953848903
  0.1439221296025729  0.3943851216832627  0.4828813013836548
  0.1884416880304724  0.4487303936700101  0.4122482676633518
  0.2526699770275814  0.4345135341877988  0.3717885834695149
  0.2329383299350876  0.3716858289284716  0.4122482676633518
  0.2132313837793448  0.4116839567972075  0.4101727275433518
  0.2329489348471883  0.4458453308017241  0.4102025335421162
  0.2526637261089287  0.4116800101068595  0.4101799351694375
  0.2329501212062685  0.4230520067456163  0.4423917643859269
  0.2526580027383507  0.3830533250693371  0.4444673513110535
  0.1884437401054594  0.4259356244572544  0.4444370996460845
  0.2132240795539770  0.3830569489753921  0.4444614256657537
  0.2329369605579577  0.3943851216832627  0.4828813013836548
  0.2081551099150827  0.4372643657299364  0.4828587030109758
  0.2081613608337350  0.4600978898108756  0.4444673513110535
  0.1439115246904724  0.3202256198100100  0.4849270355048902
  0.1439101553133421  0.3429249125648012  0.5555600692251931
  0.1439113416724224  0.3201315885086931  0.5877493000690038
  0.1241972743093615  0.3315967398569306  0.5171401935072921
  0.1241926042454986  0.3087635385602842  0.5555302632264286
  0.1439135767654596  0.2974308505972545  0.5171158674876231
  0.1636249465750824  0.3087595918699362  0.5555374708525144
  0.1636311974937354  0.3315931159508757  0.5171461191525918
  0.1884199578662686  0.2945472328856162  0.5150705322274655
  0.2329263556458570  0.3202256198100100  0.4849270355048902
  0.2526460284491199  0.3315931159508757  0.5171461191525918
  0.2329284077208442  0.2974308505972545  0.5171158674876231
  0.2132121052647462  0.3315967398569306  0.5171401935072921
  0.2132074352008832  0.3087635385602842  0.5555302632264286
  0.2526397775304672  0.3087595918699362  0.5555374708525144
  0.2329249862687268  0.3429249125648012  0.5555600692251931
  0.1884177394520108  0.3458099754330869  0.5576058033464286
  0.2329261726278067  0.3201315885086931  0.5877493000690038
  0.1884197915269979  0.3230152062203315  0.5897946353291614
  0.1439210975473953  0.4228545401746255  0.5576058033464286
  0.1242141513916525  0.4628526680433613  0.5555302632264286
  0.1439231496223828  0.4000597709618700  0.5897946353291614
  0.1636464937212364  0.4628487213530133  0.5555374708525144
  0.1439351239116136  0.4515199800803315  0.5171158674876231
  0.1439233159616528  0.3715917976271548  0.5150705322274655
  0.1687154633601305  0.4086413045984689  0.5171401935072921
  0.1687107932962678  0.3858081033018229  0.5555302632264286
  0.1884283443641113  0.4199694773063396  0.5555600692251931
  0.2329381469170377  0.3715917976271548  0.5150705322274655
  0.1884297137412417  0.3972701845515485  0.4849270355048902
  0.2329499548669981  0.4515199800803315  0.5171158674876231
  0.1884317658162290  0.3744754153387930  0.5171158674876231
  0.1884415050124222  0.4486363623686932  0.5150705322274655
  0.2081493865445044  0.4086376806924141  0.5171461191525918
  0.2081431356258519  0.3858041566114749  0.5555374708525144
  0.1884295307231916  0.3971761532502317  0.5877493000690038
  0.2329379805777672  0.4000597709618700  0.5897946353291614
  0.1884057651627802  0.2943497663146254  0.6302845711879672
  0.1686988190070370  0.3343478941833613  0.6282090310679671
  0.1687034890709001  0.3571810954800074  0.5898189613488307
  0.1438981810241110  0.2914647034463395  0.6282388370667316
  0.1241853000201306  0.2801365307384691  0.5898189613488307
  0.1636192232045041  0.2801329068324139  0.5898248869941304
  0.1439111753331519  0.3485995618434083  0.6624734031706999
  0.1686915147816691  0.3057208863615460  0.6624977291903692
  0.1636225451427747  0.3599283031160902  0.7008950065355914
  0.1884043957856496  0.3170490590694163  0.7009176049082699
  0.1686868447178062  0.2828876850648998  0.7008877989095055
  0.1241902028131909  0.3599322498064382  0.7008877989095055
  0.2329130119794956  0.2914647034463395  0.6282388370667316
  0.2132001309755154  0.2801365307384691  0.5898189613488307
  0.2081374122552737  0.3571774715739526  0.5898248869941304
  0.2526340541598889  0.2801329068324139  0.5898248869941304
  0.2081311613366212  0.3343439474930133  0.6282162386940529
  0.1884163700748806  0.3685092681878780  0.6282388370667316
  0.1884078172377674  0.2715549971018698  0.6624734031706999
  0.2081254379660428  0.3057172624554906  0.6625036548356688
  0.1884175564339607  0.3457159441317700  0.6604280679105424
  0.2329260062885367  0.3485995618434083  0.6624734031706999
  0.2526373760981597  0.3599283031160902  0.7008950065355914
  0.2081191870473903  0.2828837383745518  0.7008950065355914
  0.1242021771024217  0.4113924589248998  0.6282090310679671
  0.1242068471662847  0.4342256602215460  0.5898189613488307
  0.1636407703506583  0.4342220363154910  0.5898248869941304
  0.1439197281702650  0.4455538329294165  0.6282388370667316
  0.1439091232581646  0.3713943310561639  0.6302845711879672
  0.1636345194320056  0.4113885122345519  0.6282162386940529
  0.1439209145293454  0.4227605088733087  0.6604280679105424
  0.1241948728770539  0.3827654511030844  0.6624977291903692
  0.1687130619278230  0.4598100158446229  0.6624977291903692
  0.1636287960614276  0.3827618271970294  0.6625036548356688
  0.1884259429318037  0.4711381885524935  0.7009176049082699
  0.1687083918639602  0.4369768145479767  0.7008877989095055
  0.1439077538810344  0.3940936238109549  0.7009176049082699
  0.1884273123089339  0.4484388957977024  0.6302845711879672
  0.2526493503873903  0.4113885122345519  0.6282162386940529
  0.2329345591256499  0.4455538329294165  0.6282388370667316
  0.2329239542135493  0.3713943310561639  0.6302845711879672
  0.2132216781216694  0.4342256602215460  0.5898189613488307
  0.2132170080578062  0.4113924589248998  0.6282090310679671
  0.2329357454847299  0.4227605088733087  0.6604280679105424
  0.1884293643839212  0.4256441265849468  0.6624734031706999
  0.2329225848364189  0.3940936238109549  0.7009176049082699
  0.2132097038324386  0.3827654511030844  0.6624977291903692
  0.2081407341935441  0.4369728678576287  0.7008950065355914
  0.2081469851121967  0.4598063919385679  0.6625036548356688
  0.2526436270168120  0.3827618271970294  0.6625036548356688
  0.3022077905062847  0.1263388991276994  0.3717826578242152
  0.3664292877041114  0.1120827162124933  0.3375237657005778
  0.3219220408873955  0.1149677790807793  0.3395694998218133
  0.3664304740631916  0.0892893921563855  0.3697129965443885
  0.3416417136906582  0.1263352752216449  0.3717885834695149
  0.2971268465781596  0.1290861067637826  0.4828587030109758
  0.2576945042485753  0.1290900534541304  0.4828514953848903
  0.2774154767685363  0.1177573654911005  0.4444370996460845
  0.3219086972210344  0.0862068627171087  0.4828813013836548
  0.3022031204424218  0.1035056978310537  0.4101727275433518
  0.3416297394014275  0.0748750661031832  0.4444673513110535
  0.3664162813597031  0.0890919255853945  0.4849270355048902
  0.3664303077239211  0.1177573654911005  0.4444370996460845
  0.3219218578693453  0.1148737477794624  0.4423917643859269
  0.3416354627720056  0.1035017511407057  0.4101799351694375
  0.3467093352039604  0.1290900534541304  0.4828514953848903
  0.2971507951566212  0.2320065250007055  0.3375011673278990
  0.2971450717860431  0.2033798399631832  0.3717885834695149
  0.2577111486016692  0.2033834638692380  0.3717826578242152
  0.2774253989827800  0.1920123438223176  0.3395694998218133
  0.2774394253469982  0.2206777837280237  0.2990795639630076
  0.2774274510577675  0.1692175746095624  0.3717583318045461
  0.2577184528270372  0.2320104716910535  0.3374939597018133
  0.3022150947316528  0.1549659069495151  0.3374939597018133
  0.3022197647955154  0.1777991082461611  0.2991038899826768
  0.3416536879798891  0.1777954843401063  0.2991098156279764
  0.3219360672516135  0.1436332189864851  0.2990795639630076
  0.3219458064478070  0.2177941660163855  0.2970342287028500
  0.3664424483524223  0.1407496012748470  0.2970342287028500
  0.3467332837824217  0.2320104716910535  0.3374939597018133
  0.3416474370612365  0.1549619602591672  0.3375011673278990
  0.3219326457994958  0.1891272809540319  0.3375237657005778
  0.3664402299381647  0.1920123438223176  0.3395694998218133
  0.3219338321585760  0.1663339568979239  0.3697129965443885
  0.3664422820131523  0.1692175746095624  0.3717583318045461
  0.3467259795570539  0.2033834638692380  0.3717826578242152
  0.2774134246935495  0.1405521347038561  0.4122482676633518
  0.3219206715102654  0.1376670718355702  0.4102025335421162
  0.2971330974968122  0.1519196308447217  0.4444673513110535
  0.3219196394550880  0.1661364903269330  0.4849270355048902
  0.2774120553164189  0.1632514274586471  0.4828813013836548
  0.2576991743124382  0.1519232547507765  0.4444614256657537
  0.2971388208673905  0.1805463158822441  0.4101799351694375
  0.2577064785378065  0.1805502625725920  0.4101727275433518
  0.2774252159647300  0.1919183125210007  0.4423917643859269
  0.2774240296056498  0.2147116365771088  0.4102025335421162
  0.3022126932993448  0.2061346181956687  0.4828514953848903
  0.3022173633632077  0.2289678194923151  0.4444614256657537
  0.2774229975504722  0.2431810550684716  0.4849270355048902
  0.3664282556489336  0.1405521347038561  0.4122482676633518
  0.3664400469201145  0.1919183125210007  0.4423917643859269
  0.3664268862718036  0.1632514274586471  0.4828813013836548
  0.3467213094931912  0.1805502625725920  0.4101727275433518
  0.3467140052678233  0.1519232547507765  0.4444614256657537
  0.3219336658193060  0.1948019302326391  0.4444370996460845
  0.3416450356289288  0.2061306715053209  0.4828587030109758
  0.3664388605610346  0.2147116365771088  0.4102025335421162
  0.3664378285058568  0.2431810550684716  0.4849270355048902
  0.3416512865475814  0.2289641955862601  0.4444673513110535
  0.3219316137443182  0.2175966994453947  0.4122482676633518
  0.3219302443671881  0.2402959922001857  0.4828813013836548
  0.3912226214616693  0.1263388991276994  0.3717826578242152
  0.3861503298845047  0.1007509195985677  0.2991098156279764
  0.4109368718427798  0.1149677790807793  0.3395694998218133
  0.4306565446460432  0.1263352752216449  0.3717885834695149
  0.4109389239177678  0.0921730098680238  0.3717583318045461
  0.4357265675916526  0.0779213422079768  0.3374939597018133
  0.4357312376555155  0.1007545435046227  0.2991038899826768
  0.4554441186594962  0.1120827162124933  0.3375237657005778
  0.4802374524170538  0.1263388991276994  0.3717826578242152
  0.4751651608398892  0.1007509195985677  0.2991098156279764
  0.4306383194381597  0.0520415420222440  0.4828587030109758
  0.3912059771085757  0.0520454887125918  0.4828514953848903
  0.4109248975535491  0.0635075699623176  0.4122482676633518
  0.4306445703568118  0.0748750661031832  0.4444673513110535
  0.3912106471724384  0.0748786900092381  0.4444614256657537
  0.3912179513978066  0.1035056978310537  0.4101727275433518
  0.4306502937273904  0.1035017511407057  0.4101799351694375
  0.4109235281764194  0.0862068627171087  0.4828813013836548
  0.4109366888247301  0.1148737477794624  0.4423917643859269
  0.4554321443702652  0.0606225070940318  0.4102025335421162
  0.4802208080639600  0.0520454887125918  0.4828514953848903
  0.4999397285089337  0.0635075699623176  0.4122482676633518
  0.4802254781278229  0.0748786900092381  0.4444614256657537
  0.4999383591318037  0.0862068627171087  0.4828813013836548
  0.4554311123150876  0.0890919255853945  0.4849270355048902
  0.4802327823531911  0.1035056978310537  0.4101727275433518
  0.4554451386793059  0.1177573654911005  0.4444370996460845
  0.4109486631139606  0.1663339568979239  0.3697129965443885
  0.3912345957509000  0.1777991082461611  0.2991038899826768
  0.3861656261120058  0.2320065250007055  0.3375011673278990
  0.3861599027414274  0.2033798399631832  0.3717885834695149
  0.4109474767548806  0.1891272809540319  0.3375237657005778
  0.3664542563023827  0.2206777837280237  0.2990795639630076
  0.3912299256870371  0.1549659069495151  0.3374939597018133
  0.4109508982069980  0.1436332189864851  0.2990795639630076
  0.4306622680166211  0.1549619602591672  0.3375011673278990
  0.4109606374031915  0.2177941660163855  0.2970342287028500
  0.4802447566424221  0.1549659069495151  0.3374939597018133
  0.4306685189352737  0.1777954843401063  0.2991098156279764
  0.4554690872577673  0.2206777837280237  0.2990795639630076
  0.4802494267062850  0.1777991082461611  0.2991038899826768
  0.4554572793078068  0.1407496012748470  0.2970342287028500
  0.4357481147378061  0.2320104716910535  0.3374939597018133
  0.4751804570673905  0.2320065250007055  0.3375011673278990
  0.4554550608935493  0.1920123438223176  0.3395694998218133
  0.4554571129685370  0.1692175746095624  0.3717583318045461
  0.4357408105124385  0.2033834638692380  0.3717826578242152
  0.4751747336968122  0.2033798399631832  0.3717885834695149
  0.3861536518227748  0.1805463158822441  0.4101799351694375
  0.3861416775335441  0.1290861067637826  0.4828587030109758
  0.3861479284521967  0.1519196308447217  0.4444673513110535
  0.4109344704104723  0.1661364903269330  0.4849270355048902
  0.4109355024656497  0.1376670718355702  0.4102025335421162
  0.4357288362232078  0.1519232547507765  0.4444614256657537
  0.4357241661593451  0.1290900534541304  0.4828514953848903
  0.4554417172271884  0.1632514274586471  0.4828813013836548
  0.4554430866043181  0.1405521347038561  0.4122482676633518
  0.4751565084889287  0.1290861067637826  0.4828587030109758
  0.4751627594075813  0.1519196308447217  0.4444673513110535
  0.4999503334210345  0.1376670718355702  0.4102025335421162
  0.4751684827781589  0.1805463158822441  0.4101799351694375
  0.4999493013658566  0.1661364903269330  0.4849270355048902
  0.4109484967746903  0.1948019302326391  0.4444370996460845
  0.3912321943185922  0.2289678194923151  0.4444614256657537
  0.4109450753225729  0.2402959922001857  0.4828813013836548
  0.4109464446997028  0.2175966994453947  0.4122482676633518
  0.4306661175029661  0.2289641955862601  0.4444673513110535
  0.4554536915164189  0.2147116365771088  0.4102025335421162
  0.4554548778754993  0.1919183125210007  0.4423917643859269
  0.4554526594612417  0.2431810550684716  0.4849270355048902
  0.4357361404485760  0.1805502625725920  0.4101727275433518
  0.4802470252739770  0.2289678194923151  0.4444614256657537
  0.4802423552101141  0.2061346181956687  0.4828514953848903
  0.2774000810271884  0.1117912183401856  0.5555600692251931
  0.3021934147847460  0.1260474012553919  0.5898189613488307
  0.2971211232075814  0.1004594217262603  0.5171461191525918
  0.3466973609147294  0.0776298443356689  0.5555302632264286
  0.3664183334346904  0.0662971563726390  0.5171158674876231
  0.3467020309785923  0.1004630456323150  0.5171401935072921
  0.3861297032443137  0.0776258976453209  0.5555374708525144
  0.3664149119825730  0.1117912183401856  0.5555600692251931
  0.3219076651658568  0.1146762812084716  0.5576058033464286
  0.3664160983416529  0.0889978942840778  0.5877493000690038
  0.3219097172408439  0.0918815119957161  0.5897946353291614
  0.3021887447208831  0.1032141999587458  0.6282090310679671
  0.3664159320023824  0.1174658676187930  0.6624734031706999
  0.3219074821478068  0.1145822499071547  0.6604280679105424
  0.3416210870504670  0.1032102532683978  0.6282162386940529
  0.3416273379691198  0.1260437773493372  0.5898248869941304
  0.3861273018120059  0.1287946088914749  0.7008950065355914
  0.3466949594824215  0.1287985555818229  0.7008877989095055
  0.3219062957887267  0.1373755739632627  0.6282388370667316
  0.3022053890739770  0.1775076103738536  0.5171401935072921
  0.2774130753362286  0.1689260767372545  0.5897946353291614
  0.2774132416754993  0.1404581034025393  0.5150705322274655
  0.3022007190101141  0.1546744090772074  0.5555302632264286
  0.3219182700779576  0.1888357830817240  0.5555600692251931
  0.2774110232612417  0.1917208459500099  0.5576058033464286
  0.2774250496254593  0.2203862858557160  0.5171158674876231
  0.2577040771054985  0.2317189738187460  0.5555302632264286
  0.2774228145324222  0.2430870237671547  0.5877493000690038
  0.2971364194350823  0.2317150271283978  0.5555374708525144
  0.3219194564370378  0.1660424590256164  0.5877493000690038
  0.3219216915300750  0.1433417211141774  0.5171158674876231
  0.3664280726308841  0.1404581034025393  0.5150705322274655
  0.3664279062916134  0.1689260767372545  0.5897946353291614
  0.3416330613396981  0.1546704623868595  0.5555374708525144
  0.3416393122583507  0.1775039864677986  0.5171461191525918
  0.3664258542166260  0.1917208459500099  0.5576058033464286
  0.3664398805808443  0.2203862858557160  0.5171158674876231
  0.3219314307262685  0.2175026681440776  0.5150705322274655
  0.3664376454878068  0.2430870237671547  0.5877493000690038
  0.3467189080608833  0.2317189738187460  0.5555302632264286
  0.2971244451458518  0.1802548180099364  0.6282162386940529
  0.2576967728801309  0.2030919659969305  0.5898189613488307
  0.2576921028162676  0.1802587647002843  0.6282090310679671
  0.2971306960645044  0.2030883420908755  0.5898248869941304
  0.2773990489720108  0.1402606368315485  0.6302845711879672
  0.2774096538841112  0.2144201387048011  0.6282388370667316
  0.2774108402431913  0.1916268146486932  0.6604280679105424
  0.3022029876416693  0.2286763216200074  0.6624977291903692
  0.2971187217752735  0.1516281329724138  0.6625036548356688
  0.2576847985909000  0.1516317568784688  0.6624977291903692
  0.3021983175778064  0.2058431203233612  0.7008877989095055
  0.3219158686456496  0.2400044943278780  0.7009176049082699
  0.2773976795948804  0.1629599295863396  0.7009176049082699
  0.3219172380227798  0.2173052015730868  0.6302845711879672
  0.3664244848394959  0.2144201387048011  0.6282388370667316
  0.3664138799273954  0.1402606368315485  0.6302845711879672
  0.3467116038355153  0.2030919659969305  0.5898189613488307
  0.3467069337716524  0.1802587647002843  0.6282090310679671
  0.3664256711985763  0.1916268146486932  0.6604280679105424
  0.3219192900977673  0.1945104323603314  0.6624734031706999
  0.3466996295462846  0.1516317568784688  0.6624977291903692
  0.3664125105502652  0.1629599295863396  0.7009176049082699
  0.3861335527306582  0.1516281329724138  0.6625036548356688
  0.3416369108260428  0.2286726977139522  0.6625036548356688
  0.3416306599073902  0.2058391736330132  0.7008950065355914
  0.3861359541629663  0.1004594217262603  0.5171461191525918
  0.4109247145354994  0.0634135386610009  0.5150705322274655
  0.4357168619339769  0.1004630456323150  0.5171401935072921
  0.4357121918701140  0.0776298443356689  0.5555302632264286
  0.3912082457401308  0.1260474012553919  0.5898189613488307
  0.4751507851183506  0.1004594217262603  0.5171461191525918
  0.4554331643900750  0.0662971563726390  0.5171158674876231
  0.4999395454908839  0.0634135386610009  0.5150705322274655
  0.4554297429379575  0.1117912183401856  0.5555600692251931
  0.4554309292970377  0.0889978942840778  0.5877493000690038
  0.4751388108291199  0.0489992126077986  0.5898248869941304
  0.4306301946352736  0.0745835682308752  0.6625036548356688
  0.4306359180058517  0.1032102532683978  0.6282162386940529
  0.3912035756762680  0.1032141999587458  0.6282090310679671
  0.4109223131031912  0.1145822499071547  0.6604280679105424
  0.4554177686487266  0.0603310092217241  0.6282388370667316
  0.4802111024062847  0.0745871921369304  0.6624977291903692
  0.4999253527873952  0.0632160720900101  0.6302845711879672
  0.4999239834102651  0.0859153648448010  0.7009176049082699
  0.4554307629577677  0.1174658676187930  0.6624734031706999
  0.4999371440585762  0.1145822499071547  0.6604280679105424
  0.4802184066316521  0.1032141999587458  0.6282090310679671
  0.4751421327673903  0.1287946088914749  0.7008950065355914
  0.4357097904378062  0.1287985555818229  0.7008877989095055
  0.4109342873924221  0.1660424590256164  0.5877493000690038
  0.4306478922950827  0.1546704623868595  0.5555374708525144
  0.4109365224854599  0.1433417211141774  0.5171158674876231
  0.3912155499654988  0.1546744090772074  0.5555302632264286
  0.4109331010333420  0.1888357830817240  0.5555600692251931
  0.3861512503904673  0.2317150271283978  0.5555374708525144
  0.4999491183478069  0.1660424590256164  0.5877493000690038
  0.4554429035862686  0.1404581034025393  0.5150705322274655
  0.4802303809208832  0.1546744090772074  0.5555302632264286
  0.4802350509847461  0.1775076103738536  0.5171401935072921
  0.4999479319887267  0.1888357830817240  0.5555600692251931
  0.4554406851720109  0.1917208459500099  0.5576058033464286
  0.4554524764431911  0.2430870237671547  0.5877493000690038
  0.4554547115362289  0.2203862858557160  0.5171158674876231
  0.4751660813458519  0.2317150271283978  0.5555374708525144
  0.4357337390162681  0.2317189738187460  0.5555302632264286
  0.3861455270198892  0.2030883420908755  0.5898248869941304
  0.4357264347908998  0.2030919659969305  0.5898189613488307
  0.3861392761012366  0.1802548180099364  0.6282162386940529
  0.4357217647270374  0.1802587647002843  0.6282090310679671
  0.4109320689781644  0.2173052015730868  0.6302845711879672
  0.4109211267441112  0.1373755739632627  0.6282388370667316
  0.4109341210531517  0.1945104323603314  0.6624734031706999
  0.4357144605016691  0.1516317568784688  0.6624977291903692
  0.3912178185970538  0.2286763216200074  0.6624977291903692
  0.4306517417814275  0.2286726977139522  0.6625036548356688
  0.4306454908627751  0.2058391736330132  0.7008950065355914
  0.4554273415056496  0.1629599295863396  0.7009176049082699
  0.3912131485331907  0.2058431203233612  0.7008877989095055
  0.4109306996010345  0.2400044943278780  0.7009176049082699
  0.4554427372469981  0.1689260767372545  0.5897946353291614
  0.4999359576994962  0.1373755739632627  0.6282388370667316
  0.4554287108827801  0.1402606368315485  0.6302845711879672
  0.4751603579752737  0.2030883420908755  0.5898248869941304
  0.4751541070566211  0.1802548180099364  0.6282162386940529
  0.4999468999335491  0.2173052015730868  0.6302845711879672
  0.4554393157948807  0.2144201387048011  0.6282388370667316
  0.4554405021539604  0.1916268146486932  0.6604280679105424
  0.4999489520085365  0.1945104323603314  0.6624734031706999
  0.4802326495524388  0.2286763216200074  0.6624977291903692
  0.4751483836860431  0.1516281329724138  0.6625036548356688
  0.4802279794885757  0.2058431203233612  0.7008877989095055
  0.4999455305564192  0.2400044943278780  0.7009176049082699
  0.2774489982039212  0.3233067040926392  0.3717583318045461
  0.2774360038948805  0.2661718456955703  0.3375237657005778
  0.2774469461289339  0.3461014733053947  0.3395694998218133
  0.2577231228909000  0.2548436729876997  0.2991038899826768
  0.2774371902539605  0.2433785216394624  0.3697129965443885
  0.2971570460752736  0.2548400490816449  0.2991098156279764
  0.2774491645431915  0.2948387307579240  0.2970342287028500
  0.3022366418778062  0.3090550364325921  0.3374939597018133
  0.3022413119416693  0.3318882377292382  0.2991038899826768
  0.3664508348502653  0.2661718456955703  0.3375237657005778
  0.3219456401085367  0.2462621393511010  0.3717583318045461
  0.3467379538462845  0.2548436729876997  0.2991038899826768
  0.3664520212093457  0.2433785216394624  0.3697129965443885
  0.3219435880335492  0.2690569085638562  0.3395694998218133
  0.3416689842073906  0.3090510897422441  0.3375011673278990
  0.3219576143977673  0.2977223484695622  0.2990795639630076
  0.3219553793047300  0.3204230863810010  0.3697129965443885
  0.3416752351260428  0.3318846138231833  0.2991098156279764
  0.3219541929456498  0.3432164104371088  0.3375237657005778
  0.2971666189321967  0.3574689694462602  0.3717885834695149
  0.3022246675885757  0.2575948273141304  0.4101727275433518
  0.2774349718397030  0.2946412641869330  0.4122482676633518
  0.2971603680135443  0.3346354453653211  0.4101799351694375
  0.2577280256839601  0.3346393920556691  0.4101727275433518
  0.2774370239146904  0.2718464949741777  0.4444370996460845
  0.2774467631108837  0.3460074420040779  0.4423917643859269
  0.2971546446429660  0.3060087603277988  0.4444673513110535
  0.2577207214585924  0.3060123842338535  0.4444614256657537
  0.2971483937243132  0.2831752362468593  0.4828587030109758
  0.2774336024625729  0.3173405569417241  0.4828813013836548
  0.2577160513947295  0.2831791829372071  0.4828514953848903
  0.3022293376524384  0.2804280286107766  0.3717826578242152
  0.3416632608368121  0.2804244047047218  0.3717885834695149
  0.3219422186564190  0.2917562013186472  0.4102025335421162
  0.3416570099181593  0.2575908806237824  0.4101799351694375
  0.3467428566393447  0.3346393920556691  0.4101727275433518
  0.3664498027950877  0.2946412641869330  0.4122482676633518
  0.3664518548700752  0.2718464949741777  0.4444370996460845
  0.3467355524139769  0.3060123842338535  0.4444614256657537
  0.3219552129654595  0.3488910597157160  0.4444370996460845
  0.3219434050154992  0.2689628772625393  0.4423917643859269
  0.3467308823501142  0.2831791829372071  0.4828514953848903
  0.3664484334179574  0.3173405569417241  0.4828813013836548
  0.3664617770843185  0.3461014733053947  0.3395694998218133
  0.3664639954985761  0.2948387307579240  0.2970342287028500
  0.4109584189889339  0.2690569085638562  0.3395694998218133
  0.3861718770306583  0.2548400490816449  0.2991098156279764
  0.3912514728331911  0.3090550364325921  0.3374939597018133
  0.3912561428970537  0.3318882377292382  0.2991038899826768
  0.4109702102601145  0.3204230863810010  0.3697129965443885
  0.4109690239010345  0.3432164104371088  0.3375237657005778
  0.4109724453531519  0.2977223484695622  0.2990795639630076
  0.4306838151627750  0.3090510897422441  0.3375011673278990
  0.4306900660814275  0.3318846138231833  0.2991098156279764
  0.4554668521647300  0.2433785216394624  0.3697129965443885
  0.4554656658056500  0.2661718456955703  0.3375237657005778
  0.4357527848016693  0.2548436729876997  0.2991038899826768
  0.4802709738524385  0.3318882377292382  0.2991038899826768
  0.4751867079860427  0.2548400490816449  0.2991098156279764
  0.4554788264539607  0.2948387307579240  0.2970342287028500
  0.4802663037885757  0.3090550364325921  0.3374939597018133
  0.4554766080397032  0.3461014733053947  0.3395694998218133
  0.4802543294993450  0.2575948273141304  0.4101727275433518
  0.3912394985439605  0.2575948273141304  0.4101727275433518
  0.4109604710639215  0.2462621393511010  0.3717583318045461
  0.3912441686078230  0.2804280286107766  0.3717826578242152
  0.4802589995632078  0.2804280286107766  0.3717826578242152
  0.4306780917921967  0.2804244047047218  0.3717885834695149
  0.4306718408735440  0.2575908806237824  0.4101799351694375
  0.4109570496118038  0.2917562013186472  0.4102025335421162
  0.4109582359708838  0.2689628772625393  0.4423917643859269
  0.4554666858254596  0.2718464949741777  0.4444370996460845
  0.4751780556350826  0.2831752362468593  0.4828587030109758
  0.3861632246796980  0.2831752362468593  0.4828587030109758
  0.4357457133054988  0.2831791829372071  0.4828514953848903
  0.4751900299243134  0.3346354453653211  0.4101799351694375
  0.3861751989689289  0.3346354453653211  0.4101799351694375
  0.3861814498875813  0.3574689694462602  0.3717885834695149
  0.4751962808429659  0.3574689694462602  0.3717885834695149
  0.4357576875947294  0.3346393920556691  0.4101727275433518
  0.3664638291593058  0.3233067040926392  0.3717583318045461
  0.4554786601146903  0.3233067040926392  0.3717583318045461
  0.4554646337504725  0.2946412641869330  0.4122482676633518
  0.3664615940662684  0.3460074420040779  0.4423917643859269
  0.4109700439208441  0.3488910597157160  0.4444370996460845
  0.4554764250216531  0.3460074420040779  0.4423917643859269
  0.4554632643733422  0.3173405569417241  0.4828813013836548
  0.4357503833693614  0.3060123842338535  0.4444614256657537
  0.3861694755983507  0.3060087603277988  0.4444673513110535
  0.4751843065537353  0.3060087603277988  0.4444673513110535
  0.2971723423027749  0.3860956544837825  0.3375011673278990
  0.2577326957478231  0.3574725933523152  0.3717826578242152
  0.2577399999731907  0.3860996011741304  0.3374939597018133
  0.2774575510410343  0.4202609751786474  0.3375237657005778
  0.2971785932214274  0.4089291785647218  0.2991098156279764
  0.2774707116893453  0.4489278602410010  0.2970342287028500
  0.2774587374001145  0.3974676511225393  0.3697129965443885
  0.3022508847985923  0.4345171580938537  0.3717826578242152
  0.3219673535939607  0.3718832954994624  0.2970342287028500
  0.3467595009924385  0.4089328024707767  0.2991038899826768
  0.3219791615439211  0.4518114779526391  0.2990795639630076
  0.3467548309285754  0.3860996011741304  0.3374939597018133
  0.3022581890239600  0.4631441659156690  0.3374939597018133
  0.3416905313535439  0.4631402192253210  0.3375011673278990
  0.3664723819964191  0.4202609751786474  0.3375237657005778
  0.3219651351797029  0.4231460380469331  0.3395694998218133
  0.3416848079829660  0.4345135341877988  0.3717885834695149
  0.3467475267032077  0.3574725933523152  0.3717826578242152
  0.3219671872546903  0.4003512688341777  0.3717583318045461
  0.3022462147347292  0.4116839567972075  0.4101727275433518
  0.3022342404454985  0.3602237476787459  0.4828514953848903
  0.3022389105093617  0.3830569489753921  0.4444614256657537
  0.2774455767518037  0.3688007660601857  0.4102025335421162
  0.3219517915133422  0.3943851216832627  0.4828813013836548
  0.3219531608904723  0.3716858289284716  0.4122482676633518
  0.3219649521616530  0.4230520067456163  0.4423917643859269
  0.3416665827750827  0.3602198009883980  0.4828587030109758
  0.3416785570643135  0.4116800101068595  0.4101799351694375
  0.3416728336937352  0.3830533250693371  0.4444673513110535
  0.3664604077071882  0.3688007660601857  0.4102025335421162
  0.3664734020162288  0.4259356244572544  0.4444370996460845
  0.2577375985408832  0.4372683124202844  0.4828514953848903
  0.2774585710608441  0.4259356244572544  0.4444370996460845
  0.2774565189858569  0.4487303936700101  0.4122482676633518
  0.2774551496087267  0.4714296864248012  0.4828813013836548
  0.2577422686047461  0.4601015137169306  0.4444614256657537
  0.2971699408704672  0.4372643657299364  0.4828587030109758
  0.2971761917891197  0.4600978898108756  0.4444673513110535
  0.3219637658025730  0.4458453308017241  0.4102025335421162
  0.3664713499412416  0.4487303936700101  0.4122482676633518
  0.3467524294962679  0.4372683124202844  0.4828514953848903
  0.3664699805641115  0.4714296864248012  0.4828813013836548
  0.3467570995601308  0.4601015137169306  0.4444614256657537
  0.3861934241768120  0.4089291785647218  0.2991098156279764
  0.3664758034485366  0.3747669132111007  0.2990795639630076
  0.4109820182100746  0.4003512688341777  0.3717583318045461
  0.3664735683554992  0.3974676511225393  0.3697129965443885
  0.4109821845493453  0.3718832954994624  0.2970342287028500
  0.3861871732581595  0.3860956544837825  0.3375011673278990
  0.4109799661350876  0.4231460380469331  0.3395694998218133
  0.3912657157539771  0.4345171580938537  0.3717826578242152
  0.3664855426447299  0.4489278602410010  0.2970342287028500
  0.4109939924993058  0.4518114779526391  0.2990795639630076
  0.4307053623089288  0.4631402192253210  0.3375011673278990
  0.3912730199793446  0.4631441659156690  0.3374939597018133
  0.4357623576585923  0.3574725933523152  0.3717826578242152
  0.4554906344039212  0.3747669132111007  0.2990795639630076
  0.4554883993108836  0.3974676511225393  0.3697129965443885
  0.4752020042135442  0.3860956544837825  0.3375011673278990
  0.4357696618839603  0.3860996011741304  0.3374939597018133
  0.4752082551321967  0.4089291785647218  0.2991098156279764
  0.4555003736001143  0.4489278602410010  0.2970342287028500
  0.4357743319478231  0.4089328024707767  0.2991038899826768
  0.4802805467093616  0.4345171580938537  0.3717826578242152
  0.4802878509347295  0.4631441659156690  0.3374939597018133
  0.4554872129518036  0.4202609751786474  0.3375237657005778
  0.3912537414647462  0.3830569489753921  0.4444614256657537
  0.3912610456901139  0.4116839567972075  0.4101727275433518
  0.3912490714008832  0.3602237476787459  0.4828514953848903
  0.4109666224687269  0.3943851216832627  0.4828813013836548
  0.4109679918458569  0.3716858289284716  0.4122482676633518
  0.4306814137304674  0.3602198009883980  0.4828587030109758
  0.4306876646491198  0.3830533250693371  0.4444673513110535
  0.4802685724201307  0.3830569489753921  0.4444614256657537
  0.4554752386625724  0.3688007660601857  0.4102025335421162
  0.4802758766454986  0.4116839567972075  0.4101727275433518
  0.4306933880196979  0.4116800101068595  0.4101799351694375
  0.4802639023562680  0.3602237476787459  0.4828514953848903
  0.4306996389383505  0.4345135341877988  0.3717885834695149
  0.4109785967579576  0.4458453308017241  0.4102025335421162
  0.4554861808966261  0.4487303936700101  0.4122482676633518
  0.4109797831170378  0.4230520067456163  0.4423917643859269
  0.4554882329716133  0.4259356244572544  0.4444370996460845
  0.4357719305155153  0.4601015137169306  0.4444614256657537
  0.4752058536998890  0.4600978898108756  0.4444673513110535
  0.4357672604516525  0.4372683124202844  0.4828514953848903
  0.3861910227445045  0.4600978898108756  0.4444673513110535
  0.3861847718258518  0.4372643657299364  0.4828587030109758
  0.4554848115194960  0.4714296864248012  0.4828813013836548
  0.4751996027812364  0.4372643657299364  0.4828587030109758
  0.2774346224823825  0.3230152062203315  0.5897946353291614
  0.2774325704073953  0.3458099754330869  0.5576058033464286
  0.2577087471693614  0.2545521751153920  0.5171401935072921
  0.2774216281733421  0.2658803478232625  0.5555600692251931
  0.3022222661562677  0.3087635385602842  0.5555302632264286
  0.2971426703537351  0.2545485512093370  0.5171461191525918
  0.2774347888216532  0.2945472328856162  0.5150705322274655
  0.3022269362201308  0.3315967398569306  0.5171401935072921
  0.3219292123120107  0.2687654106915485  0.5576058033464286
  0.3219312643869978  0.2459706414787929  0.5897946353291614
  0.3219398172241114  0.3429249125648012  0.5555600692251931
  0.3416608594045045  0.3315931159508757  0.5171461191525918
  0.3219411866012415  0.3202256198100100  0.4849270355048902
  0.3416546084858518  0.3087595918699362  0.5555374708525144
  0.3219410035831914  0.3201315885086931  0.5877493000690038
  0.3219432386762285  0.2974308505972545  0.5171158674876231
  0.3664364591287269  0.2658803478232625  0.5555600692251931
  0.3467235781247462  0.2545521751153920  0.5171401935072921
  0.2577183200262846  0.3571810954800074  0.5898189613488307
  0.2971522432106584  0.3571774715739526  0.5898248869941304
  0.2577136499624215  0.3343478941833613  0.6282090310679671
  0.2774205961181643  0.2943497663146254  0.6302845711879672
  0.2971459922920055  0.3343439474930133  0.6282162386940529
  0.2774226481931518  0.2715549971018698  0.6624734031706999
  0.2774323873893454  0.3457159441317700  0.6604280679105424
  0.2971340180027751  0.2828837383745518  0.7008950065355914
  0.2774192267410341  0.3170490590694163  0.7009176049082699
  0.2971402689214276  0.3057172624554906  0.6625036548356688
  0.2577016756731910  0.2828876850648998  0.7008877989095055
  0.2577063457370537  0.3057208863615460  0.6624977291903692
  0.3022149619309001  0.2801365307384691  0.5898189613488307
  0.3467331509816692  0.3571810954800074  0.5898189613488307
  0.3416488851152736  0.2801329068324139  0.5898248869941304
  0.3022102918670369  0.2573033294418229  0.6282090310679671
  0.3467284809178061  0.3343478941833613  0.6282090310679671
  0.3219290292939606  0.2686713793902316  0.6604280679105424
  0.3219408372439210  0.3485995618434083  0.6624734031706999
  0.3664340576964189  0.3170490590694163  0.7009176049082699
  0.3467165066285756  0.2828876850648998  0.7008877989095055
  0.3912370971116523  0.3087635385602842  0.5555302632264286
  0.4109580696316135  0.2974308505972545  0.5171158674876231
  0.4109560175566261  0.3202256198100100  0.4849270355048902
  0.3861575013091199  0.2545485512093370  0.5171461191525918
  0.3912417671755154  0.3315967398569306  0.5171401935072921
  0.3664496197770377  0.2945472328856162  0.5150705322274655
  0.4109546481794960  0.3429249125648012  0.5555600692251931
  0.4109440432673953  0.2687654106915485  0.5576058033464286
  0.3664474013627799  0.3458099754330869  0.5576058033464286
  0.3664494534377670  0.3230152062203315  0.5897946353291614
  0.4109558345385760  0.3201315885086931  0.5877493000690038
  0.4109460953423826  0.2459706414787929  0.5897946353291614
  0.4554512900841112  0.2658803478232625  0.5555600692251931
  0.4751723322645047  0.2545485512093370  0.5171461191525918
  0.4357384090801307  0.2545521751153920  0.5171401935072921
  0.4554644507324227  0.2945472328856162  0.5150705322274655
  0.4306694394412365  0.3087595918699362  0.5555374708525144
  0.4802519280670373  0.3087635385602842  0.5555302632264286
  0.4554642843931518  0.3230152062203315  0.5897946353291614
  0.4306756903598891  0.3315931159508757  0.5171461191525918
  0.4802565981308999  0.3315967398569306  0.5171401935072921
  0.4554622323181646  0.3458099754330869  0.5576058033464286
  0.4109426738902651  0.2914647034463395  0.6282388370667316
  0.3912297928862845  0.2801365307384691  0.5898189613488307
  0.3912251228224216  0.2573033294418229  0.6282090310679671
  0.3861670741660428  0.3571774715739526  0.5898248869941304
  0.4306637160706582  0.2801329068324139  0.5898248869941304
  0.4306574651520056  0.2572993827514750  0.6282162386940529
  0.3861608232473903  0.3343439474930133  0.6282162386940529
  0.3861488489581594  0.2828837383745518  0.7008950065355914
  0.4109556681993058  0.3485995618434083  0.6624734031706999
  0.3861550998768120  0.3057172624554906  0.6625036548356688
  0.3664472183447298  0.3457159441317700  0.6604280679105424
  0.4109438602493453  0.2686713793902316  0.6604280679105424
  0.4357313375839601  0.2828876850648998  0.7008877989095055
  0.4554502580289336  0.2943497663146254  0.6302845711879672
  0.4357479819370537  0.3571810954800074  0.5898189613488307
  0.4357433118731908  0.3343478941833613  0.6282090310679671
  0.4802446238416693  0.2801365307384691  0.5898189613488307
  0.4751819051214276  0.3571774715739526  0.5898248869941304
  0.4802399537778066  0.2573033294418229  0.6282090310679671
  0.4751756542027751  0.3343439474930133  0.6282162386940529
  0.4751636799135441  0.2828837383745518  0.7008950065355914
  0.4751699308321967  0.3057172624554906  0.6625036548356688
  0.4554488886518037  0.3170490590694163  0.7009176049082699
  0.4554620493001145  0.3457159441317700  0.6604280679105424
  0.4554523101039213  0.2715549971018698  0.6624734031706999
  0.4357360076478230  0.3057208863615460  0.6624977291903692
  0.2774465967716134  0.3744754153387930  0.5171158674876231
  0.2774563359678069  0.4486363623686932  0.5150705322274655
  0.2774445446966263  0.3972701845515485  0.4849270355048902
  0.2577302943155153  0.4086413045984689  0.5171401935072921
  0.2971642174998891  0.4086376806924141  0.5171461191525918
  0.2577256242516524  0.3858081033018229  0.5555302632264286
  0.2774443616785761  0.3971761532502317  0.5877493000690038
  0.2774431753194961  0.4199694773063396  0.5555600692251931
  0.2971579665812365  0.3858041566114749  0.5555374708525144
  0.3219529778724223  0.3715917976271548  0.5150705322274655
  0.3467404552070369  0.3858081033018229  0.5555302632264286
  0.3219528115331518  0.4000597709618700  0.5897946353291614
  0.3467451252709000  0.4086413045984689  0.5171401935072921
  0.3664580062748806  0.4199694773063396  0.5555600692251931
  0.3219507594581647  0.4228545401746255  0.5576058033464286
  0.3416704322614276  0.4342220363154910  0.5898248869941304
  0.3022365090770539  0.4342256602215460  0.5898189613488307
  0.3416761556320058  0.4628487213530133  0.5555374708525144
  0.3219647858223827  0.4515199800803315  0.5171158674876231
  0.3022438133024217  0.4628526680433613  0.5555302632264286
  0.3219374157918035  0.3940936238109549  0.7009176049082699
  0.3022245347878231  0.3827654511030844  0.6624977291903692
  0.3022318390131909  0.4113924589248998  0.6282090310679671
  0.3022198647239602  0.3599322498064382  0.7008877989095055
  0.2774312010302651  0.3685092681878780  0.6282388370667316
  0.3219387851689338  0.3713943310561639  0.6302845711879672
  0.3219505764401144  0.4227605088733087  0.6604280679105424
  0.3664460319856496  0.3685092681878780  0.6282388370667316
  0.3416522070535443  0.3599283031160902  0.7008950065355914
  0.3416584579721968  0.3827618271970294  0.6625036548356688
  0.3416641813427750  0.4113885122345519  0.6282162386940529
  0.2774441953393059  0.4256441265849468  0.6624734031706999
  0.2577278928832079  0.4598100158446229  0.6624977291903692
  0.2774407738871885  0.4711381885524935  0.7009176049082699
  0.2774421432643186  0.4484388957977024  0.6302845711879672
  0.2577232228193446  0.4369768145479767  0.7008877989095055
  0.2971618160675813  0.4598063919385679  0.6625036548356688
  0.2971555651489289  0.4369728678576287  0.7008950065355914
  0.3219493900810343  0.4455538329294165  0.6282388370667316
  0.3467380537747293  0.4369768145479767  0.7008877989095055
  0.3664569742197030  0.4484388957977024  0.6302845711879672
  0.3467427238385922  0.4598100158446229  0.6624977291903692
  0.3664556048425728  0.4711381885524935  0.7009176049082699
  0.3664590262946905  0.4256441265849468  0.6624734031706999
  0.3664711669231915  0.4486363623686932  0.5150705322274655
  0.3664593756520108  0.3972701845515485  0.4849270355048902
  0.4109678088278069  0.3715917976271548  0.5150705322274655
  0.3664614277269980  0.3744754153387930  0.5171158674876231
  0.4109796167777672  0.4515199800803315  0.5171158674876231
  0.3861790484552737  0.4086376806924141  0.5171461191525918
  0.3912586442578062  0.4628526680433613  0.5555302632264286
  0.4306909865873903  0.4628487213530133  0.5555374708525144
  0.3861727975366210  0.3858041566114749  0.5555374708525144
  0.4109655904135492  0.4228545401746255  0.5576058033464286
  0.3664591926339607  0.3971761532502317  0.5877493000690038
  0.4554742066073954  0.3972701845515485  0.4849270355048902
  0.4554762586823827  0.3744754153387930  0.5171158674876231
  0.4554859978785761  0.4486363623686932  0.5150705322274655
  0.4357599562262846  0.4086413045984689  0.5171401935072921
  0.4751938794106582  0.4086376806924141  0.5171461191525918
  0.4751876284920059  0.3858041566114749  0.5555374708525144
  0.4554728372302652  0.4199694773063396  0.5555600692251931
  0.4802734752131907  0.4628526680433613  0.5555302632264286
  0.4554740235893454  0.3971761532502317  0.5877493000690038
  0.4357552861624217  0.3858081033018229  0.5555302632264286
  0.4109536161243184  0.3713943310561639  0.6302845711879672
  0.4802615009239600  0.4113924589248998  0.6282090310679671
  0.3912466699685755  0.4113924589248998  0.6282090310679671
  0.4306790122981596  0.4113885122345519  0.6282162386940529
  0.4554608629410343  0.3685092681878780  0.6282388370667316
  0.4109676424885362  0.4000597709618700  0.5897946353291614
  0.4109654073954991  0.4227605088733087  0.6604280679105424
  0.3912393657432078  0.3827654511030844  0.6624977291903692
  0.4802541966985923  0.3827654511030844  0.6624977291903692
  0.4306732889275815  0.3827618271970294  0.6625036548356688
  0.4109522467471882  0.3940936238109549  0.7009176049082699
  0.4306670380089286  0.3599283031160902  0.7008950065355914
  0.4802495266347293  0.3599322498064382  0.7008877989095055
  0.3912346956793448  0.3599322498064382  0.7008877989095055
  0.3912513400324385  0.4342256602215460  0.5898189613488307
  0.4802661709878231  0.4342256602215460  0.5898189613488307
  0.4306852632168121  0.4342220363154910  0.5898248869941304
  0.4554718051750875  0.4484388957977024  0.6302845711879672
  0.4109642210364189  0.4455538329294165  0.6282388370667316
  0.4554738572500750  0.4256441265849468  0.6624734031706999
  0.4751852270596979  0.4369728678576287  0.7008950065355914
  0.4357528847301141  0.4369768145479767  0.7008877989095055
  0.3861703961043134  0.4369728678576287  0.7008950065355914
  0.4554704357979577  0.4711381885524935  0.7009176049082699
  0.4751914779783507  0.4598063919385679  0.6625036548356688
  0.3861766470229662  0.4598063919385679  0.6625036548356688
  0.4357575547939771  0.4598100158446229  0.6624977291903692
  0.4999517027981646  0.1149677790807793  0.3395694998218133
  0.5247460686108999  0.1007545435046227  0.2991038899826768
  0.5247413985470372  0.0779213422079768  0.3374939597018133
  0.4999537548731521  0.0921730098680238  0.3717583318045461
  0.5196713756014277  0.1263352752216449  0.3717885834695149
  0.5444589496148807  0.1120827162124933  0.3375237657005778
  0.5444601359739607  0.0892893921563855  0.3697129965443885
  0.5444721102631914  0.1407496012748470  0.2970342287028500
  0.5641799917952738  0.1007509195985677  0.2991098156279764
  0.5692522833724386  0.1263388991276994  0.3717826578242152
  0.5641737408766210  0.0779173955176286  0.3375011673278990
  0.5889685858285370  0.0921730098680238  0.3717583318045461
  0.5889665337535493  0.1149677790807793  0.3395694998218133
  0.6086862065568120  0.1263352752216449  0.3717885834695149
  0.5889545594643182  0.0635075699623176  0.4122482676633518
  0.5692403090832077  0.0748786900092381  0.4444614256657537
  0.6086742322675813  0.0748750661031832  0.4444673513110535
  0.5196594013121966  0.0748750661031832  0.4444673513110535
  0.5196531503935444  0.0520415420222440  0.4828587030109758
  0.5692356390193448  0.0520454887125918  0.4828514953848903
  0.6086679813489287  0.0520415420222440  0.4828587030109758
  0.5889531900871883  0.0862068627171087  0.4828813013836548
  0.5444599696346902  0.1177573654911005  0.4444370996460845
  0.5247389971147297  0.1290900534541304  0.4828514953848903
  0.5196651246827749  0.1035017511407057  0.4101799351694375
  0.5444579175597029  0.1405521347038561  0.4122482676633518
  0.4999515197801147  0.1148737477794624  0.4423917643859269
  0.5641713394443136  0.1290861067637826  0.4828587030109758
  0.5692476133085759  0.1035056978310537  0.4101727275433518
  0.5889651643764192  0.1376670718355702  0.4102025335421162
  0.5889663507354992  0.1148737477794624  0.4423917643859269
  0.6086799556381595  0.1035017511407057  0.4101799351694375
  0.4999657291623829  0.1436332189864851  0.2990795639630076
  0.4999634940693451  0.1663339568979239  0.3697129965443885
  0.4999623077102652  0.1891272809540319  0.3375237657005778
  0.5444816831201144  0.2433785216394624  0.3697129965443885
  0.4999754683585760  0.2177941660163855  0.2970342287028500
  0.5444698918489338  0.1920123438223176  0.3395694998218133
  0.5196833498906585  0.1777954843401063  0.2991098156279764
  0.5247629456931908  0.2320104716910535  0.3374939597018133
  0.5196770989720054  0.1549619602591672  0.3375011673278990
  0.5444839182131520  0.2206777837280237  0.2990795639630076
  0.5641952880227749  0.2320065250007055  0.3375011673278990
  0.6086981808460430  0.1777954843401063  0.2991098156279764
  0.5642015389414274  0.2548400490816449  0.2991098156279764
  0.5692595875978064  0.1549659069495151  0.3374939597018133
  0.6086919299273904  0.1549619602591672  0.3375011673278990
  0.5889771386656497  0.1891272809540319  0.3375237657005778
  0.5889805601177673  0.1436332189864851  0.2990795639630076
  0.5889783250247299  0.1663339568979239  0.3697129965443885
  0.5889902993139609  0.2177941660163855  0.2970342287028500
  0.5692642576616693  0.1777991082461611  0.2991038899826768
  0.4999753020193060  0.2462621393511010  0.3717583318045461
  0.4999612756550876  0.2175966994453947  0.4122482676633518
  0.5247556414678231  0.2033834638692380  0.3717826578242152
  0.5247509714039605  0.1805502625725920  0.4101727275433518
  0.5444685224718037  0.2147116365771088  0.4102025335421162
  0.4999633277300751  0.1948019302326391  0.4444370996460845
  0.5196809484583502  0.2289641955862601  0.4444673513110535
  0.5247436671785923  0.1519232547507765  0.4444614256657537
  0.5444565481825729  0.1632514274586471  0.4828813013836548
  0.5196746975396979  0.2061306715053209  0.4828587030109758
  0.4999599062779574  0.2402959922001857  0.4828813013836548
  0.5444719439239214  0.1692175746095624  0.3717583318045461
  0.5889901329746906  0.2462621393511010  0.3717583318045461
  0.5641833137335439  0.1805463158822441  0.4101799351694375
  0.5641895646521967  0.2033798399631832  0.3717885834695149
  0.5889761066104724  0.2175966994453947  0.4122482676633518
  0.5444697088308841  0.1919183125210007  0.4423917643859269
  0.5889781586854597  0.1948019302326391  0.4444370996460845
  0.6086957794137352  0.2289641955862601  0.4444673513110535
  0.5692618562293615  0.2289678194923151  0.4444614256657537
  0.5692571861654987  0.2061346181956687  0.4828514953848903
  0.5641775903629662  0.1519196308447217  0.4444673513110535
  0.6334737805702653  0.1120827162124933  0.3375237657005778
  0.6137608995662847  0.1007545435046227  0.2991038899826768
  0.6334749669293455  0.0892893921563855  0.3697129965443885
  0.6582671143278231  0.1263388991276994  0.3717826578242152
  0.6779813647089339  0.1149677790807793  0.3395694998218133
  0.6977010375121970  0.1263352752216449  0.3717885834695149
  0.6137538280701140  0.1290900534541304  0.4828514953848903
  0.6582624442639602  0.1035056978310537  0.4101727275433518
  0.6334748005900750  0.1177573654911005  0.4444370996460845
  0.6779680210425730  0.0862068627171087  0.4828813013836548
  0.6582551400385922  0.0748786900092381  0.4444614256657537
  0.6531861703996983  0.1290861067637826  0.4828587030109758
  0.6976947865935442  0.1035017511407057  0.4101799351694375
  0.6779799953318035  0.1376670718355702  0.4102025335421162
  0.6779811816908839  0.1148737477794624  0.4423917643859269
  0.7224896315454598  0.1177573654911005  0.4444370996460845
  0.7027686590254988  0.1290900534541304  0.4828514953848903
  0.6779931559801147  0.1663339568979239  0.3697129965443885
  0.6779953910731520  0.1436332189864851  0.2990795639630076
  0.6334869412185762  0.1407496012748470  0.2970342287028500
  0.6977067608827747  0.1549619602591672  0.3375011673278990
  0.6582744185531909  0.1549659069495151  0.3374939597018133
  0.6779919696210345  0.1891272809540319  0.3375237657005778
  0.6582790886170539  0.1777991082461611  0.2991038899826768
  0.6334867748793059  0.1692175746095624  0.3717583318045461
  0.7225016058346907  0.1692175746095624  0.3717583318045461
  0.6977130118014275  0.1777954843401063  0.2991098156279764
  0.6334847228043186  0.1920123438223176  0.3395694998218133
  0.6137777766485756  0.2320104716910535  0.3374939597018133
  0.6532101189781596  0.2320065250007055  0.3375011673278990
  0.6334965140754991  0.2433785216394624  0.3697129965443885
  0.6334987491685367  0.2206777837280237  0.2990795639630076
  0.6532163698968119  0.2548400490816449  0.2991098156279764
  0.6780049639300749  0.2462621393511010  0.3717583318045461
  0.6780051302693454  0.2177941660163855  0.2970342287028500
  0.7027926076039601  0.2320104716910535  0.3374939597018133
  0.7225113450308839  0.2433785216394624  0.3697129965443885
  0.7225135801239212  0.2206777837280237  0.2990795639630076
  0.7224995537597033  0.1920123438223176  0.3395694998218133
  0.6531981446889287  0.1805463158822441  0.4101799351694375
  0.6137704724232078  0.2033834638692380  0.3717826578242152
  0.6532043956075813  0.2033798399631832  0.3717885834695149
  0.6137658023593451  0.1805502625725920  0.4101727275433518
  0.7027853033785924  0.2033834638692380  0.3717826578242152
  0.7027806333147295  0.1805502625725920  0.4101727275433518
  0.7224875794704723  0.1405521347038561  0.4122482676633518
  0.6779909375658567  0.2175966994453947  0.4122482676633518
  0.6334833534271884  0.2147116365771088  0.4102025335421162
  0.7224981843825727  0.2147116365771088  0.4102025335421162
  0.6334727485150875  0.1405521347038561  0.4122482676633518
  0.6334713791379575  0.1632514274586471  0.4828813013836548
  0.6137584981339769  0.1519232547507765  0.4444614256657537
  0.6779895681887268  0.2402959922001857  0.4828813013836548
  0.6334845397862684  0.1919183125210007  0.4423917643859269
  0.6582720171208830  0.2061346181956687  0.4828514953848903
  0.6531924213183508  0.1519196308447217  0.4444673513110535
  0.6582766871847461  0.2289678194923151  0.4444614256657537
  0.6779929896408442  0.1948019302326391  0.4444370996460845
  0.6977106103691201  0.2289641955862601  0.4444673513110535
  0.7224862100933424  0.1632514274586471  0.4828813013836548
  0.7027733290893616  0.1519232547507765  0.4444614256657537
  0.7224993707416532  0.1919183125210007  0.4423917643859269
  0.6977043594504673  0.2061306715053209  0.4828587030109758
  0.5247316928893616  0.1004630456323150  0.5171401935072921
  0.6137465238447459  0.1004630456323150  0.5171401935072921
  0.6137418537808833  0.0776298443356689  0.5555302632264286
  0.5247270228254988  0.0776298443356689  0.5555302632264286
  0.5641656160737354  0.1004594217262603  0.5171461191525918
  0.5889543764462687  0.0634135386610009  0.5150705322274655
  0.5641593651550828  0.0776258976453209  0.5555374708525144
  0.5444479953454595  0.0662971563726390  0.5171158674876231
  0.5444459432704727  0.0890919255853945  0.4849270355048902
  0.5247197186001311  0.0490028365138533  0.5898189613488307
  0.5444457602524224  0.0889978942840778  0.5877493000690038
  0.5889542101069980  0.0918815119957161  0.5897946353291614
  0.5444445738933423  0.1117912183401856  0.5555600692251931
  0.5692379076509001  0.1260474012553919  0.5898189613488307
  0.5889521580320110  0.1146762812084716  0.5576058033464286
  0.5196569998798891  0.1260437773493372  0.5898248869941304
  0.6086718308352737  0.1260437773493372  0.5898248869941304
  0.5196450255906584  0.0745835682308752  0.6625036548356688
  0.5444325996041114  0.0603310092217241  0.6282388370667316
  0.5641569637227752  0.1287946088914749  0.7008950065355914
  0.5247246213931910  0.1287985555818229  0.7008877989095055
  0.5444435418381647  0.1402606368315485  0.6302845711879672
  0.5196507489612365  0.1032102532683978  0.6282162386940529
  0.5444455939131519  0.1174658676187930  0.6624734031706999
  0.5692259333616697  0.0745871921369304  0.6624977291903692
  0.5692332375870370  0.1032141999587458  0.6282090310679671
  0.5889507886548808  0.1373755739632627  0.6282388370667316
  0.5889519750139608  0.1145822499071547  0.6604280679105424
  0.6086655799166213  0.1032102532683978  0.6282162386940529
  0.6137394523485755  0.1287985555818229  0.7008877989095055
  0.5196689741691198  0.1775039864677986  0.5171461191525918
  0.5196627232504673  0.1546704623868595  0.5555374708525144
  0.4999513534408444  0.1433417211141774  0.5171158674876231
  0.5444577345416534  0.1404581034025393  0.5150705322274655
  0.5692452118762682  0.1546744090772074  0.5555302632264286
  0.5692498819401308  0.1775076103738536  0.5171401935072921
  0.5889641323212417  0.1661364903269330  0.4849270355048902
  0.5889661843962289  0.1433417211141774  0.5171158674876231
  0.6086775542058518  0.1546704623868595  0.5555374708525144
  0.6086838051245048  0.1775039864677986  0.5171461191525918
  0.5247485699716524  0.2317189738187460  0.5555302632264286
  0.5444555161273952  0.1917208459500099  0.5576058033464286
  0.5247532400355155  0.2545521751153920  0.5171401935072921
  0.4999610926370378  0.2175026681440776  0.5150705322274655
  0.5444674904166261  0.2431810550684716  0.4849270355048902
  0.5444695424916134  0.2203862858557160  0.5171158674876231
  0.5641871632198888  0.2545485512093370  0.5171461191525918
  0.5641809123012367  0.2317150271283978  0.5555374708525144
  0.5889627629441115  0.1888357830817240  0.5555600692251931
  0.6137634009270374  0.2317189738187460  0.5555302632264286
  0.4999609262977671  0.2459706414787929  0.5897946353291614
  0.5444673073985761  0.2430870237671547  0.5877493000690038
  0.5247412657462848  0.2030919659969305  0.5898189613488307
  0.5444575682023827  0.1689260767372545  0.5897946353291614
  0.5444541467502653  0.2144201387048011  0.6282388370667316
  0.5247365956824217  0.1802587647002843  0.6282090310679671
  0.5641632146414276  0.1516281329724138  0.6625036548356688
  0.5247292914570539  0.1516317568784688  0.6624977291903692
  0.5196665727368123  0.2286726977139522  0.6625036548356688
  0.5444553331093455  0.1916268146486932  0.6604280679105424
  0.5444421724610345  0.1629599295863396  0.7009176049082699
  0.5196603218181597  0.2058391736330132  0.7008950065355914
  0.6137560967016692  0.2030919659969305  0.5898189613488307
  0.5889617308889339  0.2173052015730868  0.6302845711879672
  0.5641751889306585  0.2030883420908755  0.5898248869941304
  0.6137514266378062  0.1802587647002843  0.6282090310679671
  0.5889639493031914  0.1660424590256164  0.5877493000690038
  0.5641689380120057  0.1802548180099364  0.6282162386940529
  0.5889757572531519  0.2459706414787929  0.5897946353291614
  0.6137441224124387  0.1516317568784688  0.6624977291903692
  0.5889637829639214  0.1945104323603314  0.6624734031706999
  0.5692474805078231  0.2286763216200074  0.6624977291903692
  0.6086814036921966  0.2286726977139522  0.6625036548356688
  0.6086751527735442  0.2058391736330132  0.7008950065355914
  0.5692428104439604  0.2058431203233612  0.7008877989095055
  0.6334594048487266  0.1117912183401856  0.5555600692251931
  0.6531804470291201  0.1004594217262603  0.5171461191525918
  0.6334628263008443  0.0662971563726390  0.5171158674876231
  0.6334607742258572  0.0890919255853945  0.4849270355048902
  0.6334605912078067  0.0889978942840778  0.5877493000690038
  0.6779669889873957  0.1146762812084716  0.5576058033464286
  0.6582527386062847  0.1260474012553919  0.5898189613488307
  0.6779690410623823  0.0918815119957161  0.5897946353291614
  0.7224742358041116  0.1117912183401856  0.5555600692251931
  0.7027613548001305  0.1004630456323150  0.5171401935072921
  0.6976866617906580  0.1260437773493372  0.5898248869941304
  0.6582480685424218  0.1032141999587458  0.6282090310679671
  0.6976804108720058  0.1032102532683978  0.6282162386940529
  0.6779656196102654  0.1373755739632627  0.6282388370667316
  0.6779668059693453  0.1145822499071547  0.6604280679105424
  0.6334604248685364  0.1174658676187930  0.6624734031706999
  0.6531717946781596  0.1287946088914749  0.7008950065355914
  0.6334703470827802  0.1917208459500099  0.5576058033464286
  0.6334725654970377  0.1404581034025393  0.5150705322274655
  0.6779775938994963  0.1888357830817240  0.5555600692251931
  0.6582600428316525  0.1546744090772074  0.5555302632264286
  0.6582647128955151  0.1775076103738536  0.5171401935072921
  0.6779789632766264  0.1661364903269330  0.4849270355048902
  0.6976923851612366  0.1546704623868595  0.5555374708525144
  0.7224873964524224  0.1404581034025393  0.5150705322274655
  0.6976986360798894  0.1775039864677986  0.5171461191525918
  0.7224851780381647  0.1917208459500099  0.5576058033464286
  0.6779810153516135  0.1433417211141774  0.5171158674876231
  0.6531957432566210  0.2317150271283978  0.5555374708525144
  0.6334843734469982  0.2203862858557160  0.5171158674876231
  0.6532019941752738  0.2545485512093370  0.5171461191525918
  0.6779907545478071  0.2175026681440776  0.5150705322274655
  0.7224992044023827  0.2203862858557160  0.5171158674876231
  0.7224971523273956  0.2431810550684716  0.4849270355048902
  0.7027829019462847  0.2545521751153920  0.5171401935072921
  0.7027782318824217  0.2317189738187460  0.5555302632264286
  0.6531837689673905  0.1802548180099364  0.6282162386940529
  0.6779787802585761  0.1660424590256164  0.5877493000690038
  0.6334583727935492  0.1402606368315485  0.6302845711879672
  0.6334723991577672  0.1689260767372545  0.5897946353291614
  0.7224732037489338  0.1402606368315485  0.6302845711879672
  0.7224872301131517  0.1689260767372545  0.5897946353291614
  0.7027662575931910  0.1802587647002843  0.6282090310679671
  0.6531900198860431  0.2030883420908755  0.5898248869941304
  0.7027709276570537  0.2030919659969305  0.5898189613488307
  0.6779905882085364  0.2459706414787929  0.5897946353291614
  0.7224838086610346  0.2144201387048011  0.6282388370667316
  0.6779765618443182  0.2173052015730868  0.6302845711879672
  0.6334689777056498  0.2144201387048011  0.6282388370667316
  0.6334821383539607  0.2430870237671547  0.5877493000690038
  0.7224969693093453  0.2430870237671547  0.5877493000690038
  0.6582623114632079  0.2286763216200074  0.6624977291903692
  0.6582576413993450  0.2058431203233612  0.7008877989095055
  0.6334701640647300  0.1916268146486932  0.6604280679105424
  0.6531780455968121  0.1516281329724138  0.6625036548356688
  0.6334570034164191  0.1629599295863396  0.7009176049082699
  0.6779751924671883  0.2400044943278780  0.7009176049082699
  0.6779786139193056  0.1945104323603314  0.6624734031706999
  0.6976899837289288  0.2058391736330132  0.7008950065355914
  0.6976962346475816  0.2286726977139522  0.6625036548356688
  0.7027589533678230  0.1516317568784688  0.6624977291903692
  0.7224849950201145  0.1916268146486932  0.6604280679105424
  0.4999872763085365  0.2977223484695622  0.2990795639630076
  0.4999850412154992  0.3204230863810010  0.3697129965443885
  0.4999732499443186  0.2690569085638562  0.3395694998218133
  0.4999838548564192  0.3432164104371088  0.3375237657005778
  0.5196986461181597  0.3090510897422441  0.3375011673278990
  0.5444934910700751  0.3233067040926392  0.3717583318045461
  0.5444914389950877  0.3461014733053947  0.3395694998218133
  0.5197048970368119  0.3318846138231833  0.2991098156279764
  0.5247676157570540  0.2548436729876997  0.2991038899826768
  0.5444804967610346  0.2661718456955703  0.3375237657005778
  0.5444936574093454  0.2948387307579240  0.2970342287028500
  0.5889880808997032  0.2690569085638562  0.3395694998218133
  0.5890021072639211  0.2977223484695622  0.2990795639630076
  0.6087134770735442  0.3090510897422441  0.3375011673278990
  0.5692811347439604  0.3090550364325921  0.3374939597018133
  0.5889998721708838  0.3204230863810010  0.3697129965443885
  0.5692858048078232  0.3318882377292382  0.2991038899826768
  0.5889986858118038  0.3432164104371088  0.3375237657005778
  0.4999718805671883  0.2917562013186472  0.4102025335421162
  0.5247771886139768  0.3574725933523152  0.3717826578242152
  0.5247725185501140  0.3346393920556691  0.4101727275433518
  0.5196866718289288  0.2575908806237824  0.4101799351694375
  0.5196929227475814  0.2804244047047218  0.3717885834695149
  0.5444794647058571  0.2946412641869330  0.4122482676633518
  0.4999730669262685  0.2689628772625393  0.4423917643859269
  0.4999848748762288  0.3488910597157160  0.4444370996460845
  0.5444815167808443  0.2718464949741777  0.4444370996460845
  0.5247605442608834  0.2831791829372071  0.4828514953848903
  0.5247652143247462  0.3060123842338535  0.4444614256657537
  0.5444780953287268  0.3173405569417241  0.4828813013836548
  0.6087077537029659  0.2804244047047218  0.3717885834695149
  0.5692738305185923  0.2804280286107766  0.3717826578242152
  0.5642111117983506  0.3574689694462602  0.3717885834695149
  0.6087015027843133  0.2575908806237824  0.4101799351694375
  0.5692691604547295  0.2575948273141304  0.4101727275433518
  0.5642048608796981  0.3346354453653211  0.4101799351694375
  0.5889867115225730  0.2917562013186472  0.4102025335421162
  0.5889878978816531  0.2689628772625393  0.4423917643859269
  0.5889997058316133  0.3488910597157160  0.4444370996460845
  0.5444912559770376  0.3460074420040779  0.4423917643859269
  0.5641991375091197  0.3060087603277988  0.4444673513110535
  0.5641928865904673  0.2831752362468593  0.4828587030109758
  0.5247891629032079  0.4089328024707767  0.2991038899826768
  0.5000088234546903  0.4518114779526391  0.2990795639630076
  0.5890236544100750  0.4518114779526391  0.2990795639630076
  0.5445152045554992  0.4489278602410010  0.2970342287028500
  0.4999970155047300  0.3718832954994624  0.2970342287028500
  0.5445054653593059  0.3747669132111007  0.2990795639630076
  0.5693026818901141  0.4631441659156690  0.3374939597018133
  0.5642230860875813  0.4089291785647218  0.2991098156279764
  0.5247844928393449  0.3860996011741304  0.3374939597018133
  0.5197201932643135  0.4631402192253210  0.3375011673278990
  0.5197144698937352  0.4345135341877988  0.3717885834695149
  0.4999947970904724  0.4231460380469331  0.3395694998218133
  0.4999968491654597  0.4003512688341777  0.3717583318045461
  0.5445020439071883  0.4202609751786474  0.3375237657005778
  0.5445032302662685  0.3974676511225393  0.3697129965443885
  0.5642168351689290  0.3860956544837825  0.3375011673278990
  0.5890096280458568  0.4231460380469331  0.3395694998218133
  0.5890116801208444  0.4003512688341777  0.3717583318045461
  0.5692953776647464  0.4345171580938537  0.3717826578242152
  0.6087350242196983  0.4631402192253210  0.3375011673278990
  0.6087293008491198  0.4345135341877988  0.3717885834695149
  0.4999814534241110  0.3943851216832627  0.4828813013836548
  0.5196962446858518  0.3602198009883980  0.4828587030109758
  0.5197024956045044  0.3830533250693371  0.4444673513110535
  0.4999828228012418  0.3716858289284716  0.4122482676633518
  0.5444900696179575  0.3688007660601857  0.4102025335421162
  0.5692787333116525  0.3602237476787459  0.4828514953848903
  0.5692834033755154  0.3830569489753921  0.4444614256657537
  0.5889962843794959  0.3943851216832627  0.4828813013836548
  0.5889976537566266  0.3716858289284716  0.4122482676633518
  0.6087110756412364  0.3602198009883980  0.4828587030109758
  0.6087173265598890  0.3830533250693371  0.4444673513110535
  0.5197082189750826  0.4116800101068595  0.4101799351694375
  0.4999946140724223  0.4230520067456163  0.4423917643859269
  0.5247820914070372  0.4372683124202844  0.4828514953848903
  0.4999934277133419  0.4458453308017241  0.4102025335421162
  0.5247867614708999  0.4601015137169306  0.4444614256657537
  0.5444996424748806  0.4714296864248012  0.4828813013836548
  0.5445010118520109  0.4487303936700101  0.4122482676633518
  0.5445030639269980  0.4259356244572544  0.4444370996460845
  0.5890082586687267  0.4458453308017241  0.4102025335421162
  0.6087230499304671  0.4116800101068595  0.4101799351694375
  0.5692907076008833  0.4116839567972075  0.4101727275433518
  0.5642206846552738  0.4600978898108756  0.4444673513110535
  0.5890094450278069  0.4230520067456163  0.4423917643859269
  0.5642144337366211  0.4372643657299364  0.4828587030109758
  0.6335083220254596  0.3233067040926392  0.3717583318045461
  0.6137920195693615  0.3574725933523152  0.3717826578242152
  0.6335084883647299  0.2948387307579240  0.2970342287028500
  0.6137824467124384  0.2548436729876997  0.2991038899826768
  0.6335062699504724  0.3461014733053947  0.3395694998218133
  0.6334953277164189  0.2661718456955703  0.3375237657005778
  0.6583006357632076  0.3318882377292382  0.2991038899826768
  0.6780029118550879  0.2690569085638562  0.3395694998218133
  0.6582886614739769  0.2804280286107766  0.3717826578242152
  0.6582959656993447  0.3090550364325921  0.3374939597018133
  0.6780169382193059  0.2977223484695622  0.2990795639630076
  0.7225233193201146  0.2948387307579240  0.2970342287028500
  0.7225101586718037  0.2661718456955703  0.3375237657005778
  0.7027972776678231  0.2548436729876997  0.2991038899826768
  0.6977283080289287  0.3090510897422441  0.3375011673278990
  0.6780147031262683  0.3204230863810010  0.3697129965443885
  0.7225231529808442  0.3233067040926392  0.3717583318045461
  0.6977345589475813  0.3318846138231833  0.2991098156279764
  0.7028068505247461  0.3574725933523152  0.3717826578242152
  0.6780135167671881  0.3432164104371088  0.3375237657005778
  0.7225211009058571  0.3461014733053947  0.3395694998218133
  0.6532196918350825  0.3346354453653211  0.4101799351694375
  0.6334942956612416  0.2946412641869330  0.4122482676633518
  0.6137873495054988  0.3346393920556691  0.4101727275433518
  0.6532259427537354  0.3574689694462602  0.3717885834695149
  0.6582839914101144  0.2575948273141304  0.4101727275433518
  0.6780015424779575  0.2917562013186472  0.4102025335421162
  0.6977163337396979  0.2575908806237824  0.4101799351694375
  0.6977225846583506  0.2804244047047218  0.3717885834695149
  0.7225091266166264  0.2946412641869330  0.4122482676633518
  0.7028021804608833  0.3346393920556691  0.4101727275433518
  0.6334963477362289  0.2718464949741777  0.4444370996460845
  0.6334929262841116  0.3173405569417241  0.4828813013836548
  0.6137800452801309  0.3060123842338535  0.4444614256657537
  0.6137753752162679  0.2831791829372071  0.4828514953848903
  0.6532077175458522  0.2831752362468593  0.4828587030109758
  0.6335060869324225  0.3460074420040779  0.4423917643859269
  0.6532139684645045  0.3060087603277988  0.4444673513110535
  0.6780027288370376  0.2689628772625393  0.4423917643859269
  0.6780145367869980  0.3488910597157160  0.4444370996460845
  0.7027902061716527  0.2831791829372071  0.4828514953848903
  0.7027948762355153  0.3060123842338535  0.4444614256657537
  0.7225209178878068  0.3460074420040779  0.4423917643859269
  0.7225111786916134  0.2718464949741777  0.4444370996460845
  0.7225077572394961  0.3173405569417241  0.4828813013836548
  0.6137993237947295  0.3860996011741304  0.3374939597018133
  0.6532316661243134  0.3860956544837825  0.3375011673278990
  0.6335180612216528  0.3974676511225393  0.3697129965443885
  0.6532379170429659  0.4089291785647218  0.2991098156279764
  0.6138039938585927  0.4089328024707767  0.2991038899826768
  0.6335168748625730  0.4202609751786474  0.3375237657005778
  0.6583102086201312  0.4345171580938537  0.3717826578242152
  0.6335300355108837  0.4489278602410010  0.2970342287028500
  0.6780265110762289  0.4003512688341777  0.3717583318045461
  0.7028141547501142  0.3860996011741304  0.3374939597018133
  0.7225351272700752  0.3747669132111007  0.2990795639630076
  0.7225328921770375  0.3974676511225393  0.3697129965443885
  0.7028188248139772  0.4089328024707767  0.2991038899826768
  0.7225317058179574  0.4202609751786474  0.3375237657005778
  0.6780244590012416  0.4231460380469331  0.3395694998218133
  0.6780384853654597  0.4518114779526391  0.2990795639630076
  0.7225448664662683  0.4489278602410010  0.2970342287028500
  0.6582935642670373  0.3602237476787459  0.4828514953848903
  0.6335049005733422  0.3688007660601857  0.4102025335421162
  0.6582982343308998  0.3830569489753921  0.4444614256657537
  0.6780124847120110  0.3716858289284716  0.4122482676633518
  0.6780111153348807  0.3943851216832627  0.4828813013836548
  0.6137969223624217  0.4372683124202844  0.4828514953848903
  0.6532292646920058  0.4372643657299364  0.4828587030109758
  0.6335158428073956  0.4487303936700101  0.4122482676633518
  0.6335144734302652  0.4714296864248012  0.4828813013836548
  0.6138015924262847  0.4601015137169306  0.4444614256657537
  0.6977321575152740  0.3830533250693371  0.4444673513110535
  0.7225197315287265  0.3688007660601857  0.4102025335421162
  0.6977259065966210  0.3602198009883980  0.4828587030109758
  0.6977378808858521  0.4116800101068595  0.4101799351694375
  0.7225327258377671  0.4259356244572544  0.4444370996460845
  0.7028164233816694  0.4601015137169306  0.4444614256657537
  0.7225306737627801  0.4487303936700101  0.4122482676633518
  0.7225293043856501  0.4714296864248012  0.4828813013836548
  0.7028117533178065  0.4372683124202844  0.4828514953848903
  0.6780230896241114  0.4458453308017241  0.4102025335421162
  0.4999694791348808  0.3429249125648012  0.5555600692251931
  0.4999588742227801  0.2687654106915485  0.5576058033464286
  0.5196905213152738  0.3315931159508757  0.5171461191525918
  0.4999729005869981  0.2974308505972545  0.5171158674876231
  0.5196842703966211  0.3087595918699362  0.5555374708525144
  0.4999706654939606  0.3201315885086931  0.5877493000690038
  0.4999708485120110  0.3202256198100100  0.4849270355048902
  0.5444661210394960  0.2658803478232625  0.5555600692251931
  0.5444792816878070  0.2945472328856162  0.5150705322274655
  0.5444791153485365  0.3230152062203315  0.5897946353291614
  0.5889856794673956  0.3202256198100100  0.4849270355048902
  0.5889877315423828  0.2974308505972545  0.5171158674876231
  0.5692714290862846  0.3315967398569306  0.5171401935072921
  0.6087053522706584  0.3315931159508757  0.5171461191525918
  0.5692667590224219  0.3087635385602842  0.5555302632264286
  0.6086991013520057  0.3087595918699362  0.5555374708525144
  0.5889843100902654  0.3429249125648012  0.5555600692251931
  0.5889737051781648  0.2687654106915485  0.5576058033464286
  0.5889854964493453  0.3201315885086931  0.5877493000690038
  0.5444890375627802  0.3972701845515485  0.4849270355048902
  0.5889974707385761  0.3715917976271548  0.5150705322274655
  0.4999826397831915  0.3715917976271548  0.5150705322274655
  0.5444910896377673  0.3744754153387930  0.5171158674876231
  0.5642087103660430  0.4086376806924141  0.5171461191525918
  0.5889973043993058  0.4000597709618700  0.5897946353291614
  0.5247701171178064  0.3858081033018229  0.5555302632264286
  0.5642024594473904  0.3858041566114749  0.5555374708525144
  0.5444888545447298  0.3971761532502317  0.5877493000690038
  0.4999824734439210  0.4000597709618700  0.5897946353291614
  0.5444770632735494  0.3458099754330869  0.5576058033464286
  0.5444876681856499  0.4199694773063396  0.5555600692251931
  0.5247747871816690  0.4086413045984689  0.5171401935072921
  0.5197058175427747  0.4628487213530133  0.5555374708525144
  0.4999944477331520  0.4515199800803315  0.5171158674876231
  0.4999804213689338  0.4228545401746255  0.5576058033464286
  0.5445008288339607  0.4486363623686932  0.5150705322274655
  0.5692883061685756  0.4628526680433613  0.5555302632264286
  0.5889952523243186  0.4228545401746255  0.5576058033464286
  0.5890092786885366  0.4515199800803315  0.5171158674876231
  0.6087206484981597  0.4628487213530133  0.5555374708525144
  0.5247581428285756  0.3343478941833613  0.6282090310679671
  0.5247628128924384  0.3571810954800074  0.5898189613488307
  0.5196785470260430  0.2801329068324139  0.5898248869941304
  0.5444650889843186  0.2943497663146254  0.6302845711879672
  0.5196722961073902  0.2572993827514750  0.6282162386940529
  0.4999575048456499  0.2914647034463395  0.6282388370667316
  0.5247508386032078  0.3057208863615460  0.6624977291903692
  0.5247461685393449  0.2828876850648998  0.7008877989095055
  0.5196818689643136  0.3599283031160902  0.7008950065355914
  0.4999586912047301  0.2686713793902316  0.6604280679105424
  0.5444637196071884  0.3170490590694163  0.7009176049082699
  0.5444671410593057  0.2715549971018698  0.6624734031706999
  0.4999704991546906  0.3485995618434083  0.6624734031706999
  0.5641967360768122  0.3571774715739526  0.5898248869941304
  0.6086933779814275  0.2801329068324139  0.5898248869941304
  0.5692594547970541  0.2801365307384691  0.5898189613488307
  0.5641904851581594  0.3343439474930133  0.6282162386940529
  0.5692547847331909  0.2573033294418229  0.6282090310679671
  0.6086871270627749  0.2572993827514750  0.6282162386940529
  0.5889723358010345  0.2914647034463395  0.6282388370667316
  0.5444768802554996  0.3457159441317700  0.6604280679105424
  0.5889853301100749  0.3485995618434083  0.6624734031706999
  0.5641847617875813  0.3057172624554906  0.6625036548356688
  0.5641785108689289  0.2828837383745518  0.7008950065355914
  0.5444756938964191  0.3685092681878780  0.6282388370667316
  0.5196881198829659  0.3827618271970294  0.6625036548356688
  0.4999684470797030  0.3713943310561639  0.6302845711879672
  0.4999670777025728  0.3940936238109549  0.7009176049082699
  0.5196938432535444  0.4113885122345519  0.6282162386940529
  0.5692643575901141  0.3599322498064382  0.7008877989095055
  0.5692690276539769  0.3827654511030844  0.6624977291903692
  0.5692763318793449  0.4113924589248998  0.6282090310679671
  0.5889819086579576  0.3940936238109549  0.7009176049082699
  0.6086966999196981  0.3599283031160902  0.7008950065355914
  0.6087029508383506  0.3827618271970294  0.6625036548356688
  0.5889832780350878  0.3713943310561639  0.6302845711879672
  0.5889950693062682  0.4227605088733087  0.6604280679105424
  0.6087086742089286  0.4113885122345519  0.6282162386940529
  0.5889938829471879  0.4455538329294165  0.6282388370667316
  0.4999790519918037  0.4455538329294165  0.6282388370667316
  0.6087149251275814  0.4342220363154910  0.5898248869941304
  0.5197000941721968  0.4342220363154910  0.5898248869941304
  0.5692810019432076  0.4342256602215460  0.5898189613488307
  0.5444866361304723  0.4484388957977024  0.6302845711879672
  0.4999802383508838  0.4227605088733087  0.6604280679105424
  0.5444886882054596  0.4256441265849468  0.6624734031706999
  0.5444852667533422  0.4711381885524935  0.7009176049082699
  0.5247677156854985  0.4369768145479767  0.7008877989095055
  0.5642000580150824  0.4369728678576287  0.7008950065355914
  0.5642063089337351  0.4598063919385679  0.6625036548356688
  0.5247723857493617  0.4598100158446229  0.6624977291903692
  0.7224957829502651  0.2658803478232625  0.5555600692251931
  0.6334809519948807  0.2658803478232625  0.5555600692251931
  0.6779885361335491  0.2687654106915485  0.5576058033464286
  0.6780025624977674  0.2974308505972545  0.5171158674876231
  0.6334941126431916  0.2945472328856162  0.5150705322274655
  0.7225089435985763  0.2945472328856162  0.5150705322274655
  0.6582815899778064  0.3087635385602842  0.5555302632264286
  0.7225207515485366  0.3744754153387930  0.5171158674876231
  0.6780005104227801  0.3202256198100100  0.4849270355048902
  0.6780123016939604  0.3715917976271548  0.5150705322274655
  0.6335059205931518  0.3744754153387930  0.5171158674876231
  0.6977201832260431  0.3315931159508757  0.5171461191525918
  0.6582862600416691  0.3315967398569306  0.5171401935072921
  0.6334918942289339  0.3458099754330869  0.5576058033464286
  0.6334939463039209  0.3230152062203315  0.5897946353291614
  0.6335036855001147  0.3971761532502317  0.5877493000690038
  0.6335024991410348  0.4199694773063396  0.5555600692251931
  0.6335038685181646  0.3972701845515485  0.4849270355048902
  0.6137849480731908  0.3858081033018229  0.5555302632264286
  0.6137896181370538  0.4086413045984689  0.5171401935072921
  0.6532235413214276  0.4086376806924141  0.5171461191525918
  0.6532172904027749  0.3858041566114749  0.5555374708525144
  0.6335156597893453  0.4486363623686932  0.5150705322274655
  0.7225186994735495  0.3972701845515485  0.4849270355048902
  0.6780241096439215  0.4515199800803315  0.5171158674876231
  0.7225304907447300  0.4486363623686932  0.5150705322274655
  0.7028044490924383  0.4086413045984689  0.5171401935072921
  0.6583031371239600  0.4628526680433613  0.5555302632264286
  0.7027997790285757  0.3858081033018229  0.5555302632264286
  0.6977354794535443  0.4628487213530133  0.5555374708525144
  0.7225173300964192  0.4199694773063396  0.5555600692251931
  0.6780100832797030  0.4228545401746255  0.5576058033464286
  0.7225185164554995  0.3971761532502317  0.5877493000690038
  0.6780121353546904  0.4000597709618700  0.5897946353291614
  0.6532053161135444  0.3343439474930133  0.6282162386940529
  0.6532115670321971  0.3571774715739526  0.5898248869941304
  0.6137729737839599  0.3343478941833613  0.6282090310679671
  0.6137776438478232  0.3571810954800074  0.5898189613488307
  0.6582696156885752  0.2573033294418229  0.6282090310679671
  0.6582742857524384  0.2801365307384691  0.5898189613488307
  0.6779871667564190  0.2914647034463395  0.6282388370667316
  0.6977082089368118  0.2801329068324139  0.5898248869941304
  0.6977019580181597  0.2572993827514750  0.6282162386940529
  0.7224947508950881  0.2943497663146254  0.6302845711879672
  0.7027878047393447  0.3343478941833613  0.6282090310679671
  0.6334785505625727  0.3170490590694163  0.7009176049082699
  0.6137609994947296  0.2828876850648998  0.7008877989095055
  0.6531933418243134  0.2828837383745518  0.7008950065355914
  0.6334917112108839  0.3457159441317700  0.6604280679105424
  0.6531995927429658  0.3057172624554906  0.6625036548356688
  0.6779883531154992  0.2686713793902316  0.6604280679105424
  0.6780001610654597  0.3485995618434083  0.6624734031706999
  0.7224968029700752  0.2715549971018698  0.6624734031706999
  0.7224933815179568  0.3170490590694163  0.7009176049082699
  0.7027758304501142  0.2828876850648998  0.7008877989095055
  0.7027805005139769  0.3057208863615460  0.6624977291903692
  0.7225065421662684  0.3457159441317700  0.6604280679105424
  0.6977235051643136  0.4113885122345519  0.6282162386940529
  0.6582911628347295  0.4113924589248998  0.6282090310679671
  0.6779981089904722  0.3713943310561639  0.6302845711879672
  0.6334905248518038  0.3685092681878780  0.6282388370667316
  0.7225053558071884  0.3685092681878780  0.6282388370667316
  0.6780099002616531  0.4227605088733087  0.6604280679105424
  0.7225183501162291  0.4256441265849468  0.6624734031706999
  0.6779967396133422  0.3940936238109549  0.7009176049082699
  0.6582838586093617  0.3827654511030844  0.6624977291903692
  0.6977115308750826  0.3599283031160902  0.7008950065355914
  0.6582791885454986  0.3599322498064382  0.7008877989095055
  0.6977177817937352  0.3827618271970294  0.6625036548356688
  0.6532148889704671  0.4369728678576287  0.7008950065355914
  0.6335014670858571  0.4484388957977024  0.6302845711879672
  0.6137872167047461  0.4598100158446229  0.6624977291903692
  0.6335000977087268  0.4711381885524935  0.7009176049082699
  0.6137825466408833  0.4369768145479767  0.7008877989095055
  0.6335035191608442  0.4256441265849468  0.6624734031706999
  0.6532211398891198  0.4598063919385679  0.6625036548356688
  0.6780087139025727  0.4455538329294165  0.6282388370667316
  0.6582958328985924  0.4342256602215460  0.5898189613488307
  0.6977297560829663  0.4342220363154910  0.5898248869941304
  0.7028020476601309  0.4598100158446229  0.6624977291903692
  0.7027973775962681  0.4369768145479767  0.7008877989095055
  0.7225162980412417  0.4484388957977024  0.6302845711879672
  0.7225149286641114  0.4711381885524935  0.7009176049082699
  0.7670079869354992  0.1663339568979239  0.3697129965443885
  0.7472892495085754  0.1549659069495151  0.3374939597018133
  0.7472939195724386  0.1777991082461611  0.2991038899826768
  0.7670199612247302  0.2177941660163855  0.2970342287028500
  0.8312397808889286  0.2320065250007055  0.3375011673278990
  0.7918074385593450  0.2320104716910535  0.3374939597018133
  0.7422249499335444  0.2320065250007055  0.3375011673278990
  0.7670068005764190  0.1891272809540319  0.3375237657005778
  0.8115261759862681  0.2433785216394624  0.3697129965443885
  0.7422192265629660  0.2033798399631832  0.3717885834695149
  0.7670197948854597  0.2462621393511010  0.3717583318045461
  0.7918001343339769  0.2033834638692380  0.3717826578242152
  0.7422072522737352  0.1519196308447217  0.4444673513110535
  0.7422010013550826  0.1290861067637826  0.4828587030109758
  0.7917881600447459  0.1519232547507765  0.4444614256657537
  0.7669948262871883  0.1376670718355702  0.4102025335421162
  0.7422129756443132  0.1805463158822441  0.4101799351694375
  0.7917954642701145  0.1805502625725920  0.4101727275433518
  0.8115010410487266  0.1632514274586471  0.4828813013836548
  0.8115130153379575  0.2147116365771088  0.4102025335421162
  0.7670057685212415  0.2175966994453947  0.4122482676633518
  0.8115142016970380  0.1919183125210007  0.4423917643859269
  0.7670078205962290  0.1948019302326391  0.4444370996460845
  0.7472915181401308  0.2289678194923151  0.4444614256657537
  0.8363063490955155  0.2289678194923151  0.4444614256657537
  0.7867254413245044  0.2289641955862601  0.4444673513110535
  0.8363016790316526  0.2061346181956687  0.4828514953848903
  0.7670043991441116  0.2402959922001857  0.4828813013836548
  0.7472868480762680  0.2061346181956687  0.4828514953848903
  0.7867191904058518  0.2061306715053209  0.4828587030109758
  0.8560346258408446  0.2462621393511010  0.3717583318045461
  0.8560192300994958  0.2402959922001857  0.4828813013836548
  0.7472675695616691  0.1260474012553919  0.5898189613488307
  0.7472795438509000  0.1775076103738536  0.5171401935072921
  0.7472748737870371  0.1546744090772074  0.5555302632264286
  0.7669958463069980  0.1433417211141774  0.5171158674876231
  0.7669937942320108  0.1661364903269330  0.4849270355048902
  0.7867072161166211  0.1546704623868595  0.5555374708525144
  0.7867134670352741  0.1775039864677986  0.5171461191525918
  0.7669924248548806  0.1888357830817240  0.5555600692251931
  0.7422105742120058  0.2317150271283978  0.5555374708525144
  0.7670055855031916  0.2175026681440776  0.5150705322274655
  0.8115000089935493  0.1917208459500099  0.5576058033464286
  0.7917930628378063  0.2317189738187460  0.5555302632264286
  0.8115119832827798  0.2431810550684716  0.4849270355048902
  0.8115140353577671  0.2203862858557160  0.5171158674876231
  0.8312254051673900  0.2317150271283978  0.5555374708525144
  0.8312316560860430  0.2545485512093370  0.5171461191525918
  0.7421985999227748  0.1802548180099364  0.6282162386940529
  0.7917857586124387  0.2030919659969305  0.5898189613488307
  0.7670054191639211  0.2459706414787929  0.5897946353291614
  0.7917810885485755  0.1802587647002843  0.6282090310679671
  0.7669936112139608  0.1660424590256164  0.5877493000690038
  0.7422048508414274  0.2030883420908755  0.5898248869941304
  0.7669913927997030  0.2173052015730868  0.6302845711879672
  0.7669934448746903  0.1945104323603314  0.6624734031706999
  0.7472724723547293  0.2058431203233612  0.7008877989095055
  0.7472771424185922  0.2286763216200074  0.6624977291903692
  0.7867110656029661  0.2286726977139522  0.6625036548356688
  0.7867048146843133  0.2058391736330132  0.7008950065355914
  0.7669900234225731  0.2400044943278780  0.7009176049082699
  0.8114986396164188  0.2144201387048011  0.6282388370667316
  0.8312196817968125  0.2030883420908755  0.5898248869941304
  0.8115118002647299  0.2430870237671547  0.5877493000690038
  0.8560204164585764  0.2175026681440776  0.5150705322274655
  0.8560202501193055  0.2459706414787929  0.5897946353291614
  0.7473034924293616  0.2804280286107766  0.3717826578242152
  0.7473107966547294  0.3090550364325921  0.3374939597018133
  0.7670177428104726  0.2690569085638562  0.3395694998218133
  0.7422312008521966  0.2548400490816449  0.2991098156279764
  0.7670295340816531  0.3204230863810010  0.3697129965443885
  0.7670283477225731  0.3432164104371088  0.3375237657005778
  0.7867493899029659  0.3318846138231833  0.2991098156279764
  0.7867431389843133  0.3090510897422441  0.3375011673278990
  0.8560325737658571  0.2690569085638562  0.3395694998218133
  0.7918121086232077  0.2548436729876997  0.2991038899826768
  0.8115249896271883  0.2661718456955703  0.3375237657005778
  0.8312460318075814  0.2548400490816449  0.2991098156279764
  0.8363183233847462  0.2804280286107766  0.3717826578242152
  0.8115381502754992  0.2948387307579240  0.2970342287028500
  0.8115379839362290  0.3233067040926392  0.3717583318045461
  0.8115359318612417  0.3461014733053947  0.3395694998218133
  0.7422345227904672  0.3346354453653211  0.4101799351694375
  0.7422407737091198  0.3574689694462602  0.3717885834695149
  0.7918170114162678  0.3346393920556691  0.4101727275433518
  0.7867374156137352  0.2804244047047218  0.3717885834695149
  0.7867311646950825  0.2575908806237824  0.4101799351694375
  0.7472988223654989  0.2575948273141304  0.4101727275433518
  0.7670163734333421  0.2917562013186472  0.4102025335421162
  0.7670175597924224  0.2689628772625393  0.4423917643859269
  0.7918050371270372  0.2831791829372071  0.4828514953848903
  0.7670153413781648  0.3202256198100100  0.4849270355048902
  0.7670293677423826  0.3488910597157160  0.4444370996460845
  0.7422287994198892  0.3060087603277988  0.4444673513110535
  0.7918097071909002  0.3060123842338535  0.4444614256657537
  0.7422225485012367  0.2831752362468593  0.4828587030109758
  0.8312556046645044  0.3574689694462602  0.3717885834695149
  0.8115239575720108  0.2946412641869330  0.4122482676633518
  0.8312493537458518  0.3346354453653211  0.4101799351694375
  0.8560312043887267  0.2917562013186472  0.4102025335421162
  0.8363136533208836  0.2575948273141304  0.4101727275433518
  0.8560323907478068  0.2689628772625393  0.4423917643859269
  0.8115357488431915  0.3460074420040779  0.4423917643859269
  0.8115260096469981  0.2718464949741777  0.4444370996460845
  0.8312436303752737  0.3060087603277988  0.4444673513110535
  0.8560441986977670  0.3488910597157160  0.4444370996460845
  0.8312373794566214  0.2831752362468593  0.4828587030109758
  0.8560301723335497  0.3202256198100100  0.4849270355048902
  0.8115225881948807  0.3173405569417241  0.4828813013836548
  0.8312675789537355  0.4089291785647218  0.2991098156279764
  0.7918336557693616  0.4089328024707767  0.2991038899826768
  0.7670415083708838  0.3718832954994624  0.2970342287028500
  0.7670533163208444  0.4518114779526391  0.2990795639630076
  0.7422527479983505  0.4089291785647218  0.2991098156279764
  0.8115499582254597  0.3747669132111007  0.2990795639630076
  0.8115596974216531  0.4489278602410010  0.2970342287028500
  0.7918289857054986  0.3860996011741304  0.3374939597018133
  0.7473323438008835  0.4631441659156690  0.3374939597018133
  0.8363471747562680  0.4631441659156690  0.3374939597018133
  0.8312613280350826  0.3860956544837825  0.3375011673278990
  0.7918216814801308  0.3574725933523152  0.3717826578242152
  0.7422464970796979  0.3860956544837825  0.3375011673278990
  0.8115477231324222  0.3974676511225393  0.3697129965443885
  0.7670413420316136  0.4003512688341777  0.3717583318045461
  0.8115465367733420  0.4202609751786474  0.3375237657005778
  0.7670392899566261  0.4231460380469331  0.3395694998218133
  0.8363398705309001  0.4345171580938537  0.3717826578242152
  0.7473250395755154  0.4345171580938537  0.3717826578242152
  0.7867589627598891  0.4345135341877988  0.3717885834695149
  0.7867646861304672  0.4631402192253210  0.3375011673278990
  0.7867407375520056  0.3602198009883980  0.4828587030109758
  0.7473083952224217  0.3602237476787459  0.4828514953848903
  0.7473130652862845  0.3830569489753921  0.4444614256657537
  0.7670259462902651  0.3943851216832627  0.4828813013836548
  0.7867527118412366  0.4116800101068595  0.4101799351694375
  0.7670379205794960  0.4458453308017241  0.4102025335421162
  0.7422503465660429  0.4600978898108756  0.4444673513110535
  0.7422440956473905  0.4372643657299364  0.4828587030109758
  0.8560407772456499  0.3943851216832627  0.4828813013836548
  0.8560421466227800  0.3716858289284716  0.4122482676633518
  0.8363232261778063  0.3602237476787459  0.4828514953848903
  0.8363278962416695  0.3830569489753921  0.4444614256657537
  0.8115345624841116  0.3688007660601857  0.4102025335421162
  0.8115335304289342  0.3972701845515485  0.4849270355048902
  0.8363352004670370  0.4116839567972075  0.4101727275433518
  0.8115475567931519  0.4259356244572544  0.4444370996460845
  0.7918312543370539  0.4601015137169306  0.4444614256657537
  0.8312651775214276  0.4600978898108756  0.4444673513110535
  0.8312589266027750  0.4372643657299364  0.4828587030109758
  0.7918265842731909  0.4372683124202844  0.4828514953848903
  0.8115455047181647  0.4487303936700101  0.4122482676633518
  0.8115441353410343  0.4714296864248012  0.4828813013836548
  0.8560443650370377  0.3204230863810010  0.3697129965443885
  0.9005528148916138  0.3233067040926392  0.3717583318045461
  0.9005507628166263  0.3461014733053947  0.3395694998218133
  0.8808365124355154  0.3574725933523152  0.3717826578242152
  0.8757522465691200  0.2804244047047218  0.3717885834695149
  0.8757459956504674  0.2575908806237824  0.4101799351694375
  0.8808318423716526  0.3346393920556691  0.4101727275433518
  0.9202641847012366  0.3346354453653211  0.4101799351694375
  0.9005387885273953  0.2946412641869330  0.4122482676633518
  0.8808198680824219  0.2831791829372071  0.4828514953848903
  0.8808245381462848  0.3060123842338535  0.4444614256657537
  0.9005374191502652  0.3173405569417241  0.4828813013836548
  0.9005505797985760  0.3460074420040779  0.4423917643859269
  0.8808438166608833  0.3860996011741304  0.3374939597018133
  0.8560563393262685  0.3718832954994624  0.2970342287028500
  0.8560561729869984  0.4003512688341777  0.3717583318045461
  0.8808484867247461  0.4089328024707767  0.2991038899826768
  0.8560541209120109  0.4231460380469331  0.3395694998218133
  0.8560681472762289  0.4518114779526391  0.2990795639630076
  0.8757795170858518  0.4631402192253210  0.3375011673278990
  0.8757737937152736  0.4345135341877988  0.3717885834695149
  0.9253620057116525  0.4631441659156690  0.3374939597018133
  0.9005745283770377  0.4489278602410010  0.2970342287028500
  0.8757555685073903  0.3602198009883980  0.4828587030109758
  0.8757618194260429  0.3830533250693371  0.4444673513110535
  0.8757675427966215  0.4116800101068595  0.4101799351694375
  0.8560539378939607  0.4230520067456163  0.4423917643859269
  0.9005483613843187  0.3972701845515485  0.4849270355048902
  0.9005493934394959  0.3688007660601857  0.4102025335421162
  0.9005623877485365  0.4259356244572544  0.4444370996460845
  0.9202737575581598  0.4372643657299364  0.4828587030109758
  0.8808414152285755  0.4372683124202844  0.4828514953848903
  0.9005589662964191  0.4714296864248012  0.4828813013836548
  0.8560527515348808  0.4458453308017241  0.4102025335421162
  0.9005603356735492  0.4487303936700101  0.4122482676633518
  0.8808460852924385  0.4601015137169306  0.4444614256657537
  0.9450556082010346  0.3943851216832627  0.4828813013836548
  0.9253380571331911  0.3602237476787459  0.4828514953848903
  0.9253427271970540  0.3830569489753921  0.4444614256657537
  0.9253500314224218  0.4116839567972075  0.4101727275433518
  0.9450687688493455  0.4230520067456163  0.4423917643859269
  0.9202800084768126  0.4600978898108756  0.4444673513110535
  0.9450675824902651  0.4458453308017241  0.4102025335421162
  0.7422168251306586  0.2545485512093370  0.5171461191525918
  0.7867287632627750  0.3087595918699362  0.5555374708525144
  0.7670033670889339  0.2687654106915485  0.5576058033464286
  0.7670173934531519  0.2974308505972545  0.5171158674876231
  0.7472964209331912  0.3087635385602842  0.5555302632264286
  0.7670151583601145  0.3201315885086931  0.5877493000690038
  0.7473010909970538  0.3315967398569306  0.5171401935072921
  0.7867350141814275  0.3315931159508757  0.5171461191525918
  0.7670139720010347  0.3429249125648012  0.5555600692251931
  0.8560181980443186  0.2687654106915485  0.5576058033464286
  0.7917977329016692  0.2545521751153920  0.5171401935072921
  0.8115106139056497  0.2658803478232625  0.5555600692251931
  0.8115237745539609  0.2945472328856162  0.5150705322274655
  0.8363112518885758  0.3087635385602842  0.5555302632264286
  0.8560299893154991  0.3201315885086931  0.5877493000690038
  0.8560288029564194  0.3429249125648012  0.5555600692251931
  0.8115236082146904  0.3230152062203315  0.5897946353291614
  0.8115215561397032  0.3458099754330869  0.5576058033464286
  0.8363159219524388  0.3315967398569306  0.5171401935072921
  0.7472844466439602  0.2573033294418229  0.6282090310679671
  0.7918026356947294  0.3343478941833613  0.6282090310679671
  0.7472891167078232  0.2801365307384691  0.5898189613488307
  0.7867230398921966  0.2801329068324139  0.5898248869941304
  0.7422263979875816  0.3571774715739526  0.5898248869941304
  0.7422201470689291  0.3343439474930133  0.6282162386940529
  0.7867167889735440  0.2572993827514750  0.6282162386940529
  0.7670019977118033  0.2914647034463395  0.6282388370667316
  0.7670031840708840  0.2686713793902316  0.6604280679105424
  0.7422144236983508  0.3057172624554906  0.6625036548356688
  0.7917953314693617  0.3057208863615460  0.6624977291903692
  0.7422081727796978  0.2828837383745518  0.7008950065355914
  0.7917906614054988  0.2828876850648998  0.7008877989095055
  0.8363039476632078  0.2801365307384691  0.5898189613488307
  0.8312412289429661  0.3571774715739526  0.5898248869941304
  0.8560168286671880  0.2914647034463395  0.6282388370667316
  0.8312349780243131  0.3343439474930133  0.6282162386940529
  0.8362992775993449  0.2573033294418229  0.6282090310679671
  0.8115095818504721  0.2943497663146254  0.6302845711879672
  0.8115213731216531  0.3457159441317700  0.6604280679105424
  0.8560180150262682  0.2686713793902316  0.6604280679105424
  0.8560298229762286  0.3485995618434083  0.6624734031706999
  0.8115082124733419  0.3170490590694163  0.7009176049082699
  0.8312292546537352  0.3057172624554906  0.6625036548356688
  0.8312230037350826  0.2828837383745518  0.7008950065355914
  0.8115116339254594  0.2715549971018698  0.6624734031706999
  0.7670271326493453  0.3715917976271548  0.5150705322274655
  0.8312532032321966  0.4086376806924141  0.5171461191525918
  0.8115453217001145  0.4486363623686932  0.5150705322274655
  0.7670389405993059  0.4515199800803315  0.5171158674876231
  0.8115355825039212  0.3744754153387930  0.5171158674876231
  0.7422383722768123  0.4086376806924141  0.5171461191525918
  0.7918192800478230  0.4086413045984689  0.5171401935072921
  0.8115333474108838  0.3971761532502317  0.5877493000690038
  0.7918073057585923  0.3571810954800074  0.5898189613488307
  0.7918146099839600  0.3858081033018229  0.5555302632264286
  0.8312469523135441  0.3858041566114749  0.5555374708525144
  0.7422321213581597  0.3858041566114749  0.5555374708525144
  0.7670269663100749  0.4000597709618700  0.5897946353291614
  0.8115321610518038  0.4199694773063396  0.5555600692251931
  0.7670249142350878  0.4228545401746255  0.5576058033464286
  0.7473106638539773  0.4342256602215460  0.5898189613488307
  0.8363254948093617  0.4342256602215460  0.5898189613488307
  0.7867503104089290  0.4628487213530133  0.5555374708525144
  0.7867445870383508  0.4342220363154910  0.5898248869941304
  0.8363327990347292  0.4628526680433613  0.5555302632264286
  0.7473179680793449  0.4628526680433613  0.5555302632264286
  0.7472940195008833  0.3599322498064382  0.7008877989095055
  0.7670129399458570  0.3713943310561639  0.6302845711879672
  0.7867326127491198  0.3827618271970294  0.6625036548356688
  0.7422359708445047  0.4598063919385679  0.6625036548356688
  0.7670235448579575  0.4455538329294165  0.6282388370667316
  0.7422297199258521  0.4369728678576287  0.7008950065355914
  0.7473059937901141  0.4113924589248998  0.6282090310679671
  0.7867383361196980  0.4113885122345519  0.6282162386940529
  0.7670247312170376  0.4227605088733087  0.6604280679105424
  0.8363208247454986  0.4113924589248998  0.6282090310679671
  0.8115201867625726  0.3685092681878780  0.6282388370667316
  0.8363135205201307  0.3827654511030844  0.6624977291903692
  0.8560277709012418  0.3713943310561639  0.6302845711879672
  0.8115331810716135  0.4256441265849468  0.6624734031706999
  0.8312445508812366  0.4369728678576287  0.7008950065355914
  0.7918122085516527  0.4369768145479767  0.7008877989095055
  0.8312508017998889  0.4598063919385679  0.6625036548356688
  0.7918168786155153  0.4598100158446229  0.6624977291903692
  0.8115311289966263  0.4484388957977024  0.6302845711879672
  0.8115297596194960  0.4711381885524935  0.7009176049082699
  0.8560322244085364  0.2974308505972545  0.5171158674876231
  0.8808125638570539  0.2545521751153920  0.5171401935072921
  0.8757498451368122  0.3315931159508757  0.5171461191525918
  0.8757435942181596  0.3087595918699362  0.5555374708525144
  0.9005363870950878  0.3458099754330869  0.5576058033464286
  0.9005386055093456  0.2945472328856162  0.5150705322274655
  0.9005384391700747  0.3230152062203315  0.5897946353291614
  0.9253307529078231  0.3315967398569306  0.5171401935072921
  0.8808221367139770  0.3571810954800074  0.5898189613488307
  0.8757378708475813  0.2801329068324139  0.5898248869941304
  0.9202560598983505  0.3571774715739526  0.5898248869941304
  0.8808174666501137  0.3343478941833613  0.6282090310679671
  0.8757411927858519  0.3599283031160902  0.7008950065355914
  0.8808101624247461  0.3057208863615460  0.6624977291903692
  0.9005362040770378  0.3457159441317700  0.6604280679105424
  0.9005504134593059  0.3744754153387930  0.5171158674876231
  0.9005481783662685  0.3971761532502317  0.5877493000690038
  0.8808294409393446  0.3858081033018229  0.5555302632264286
  0.8560419636047301  0.3715917976271548  0.5150705322274655
  0.8560417972654596  0.4000597709618700  0.5897946353291614
  0.8808341110032080  0.4086413045984689  0.5171401935072921
  0.9005469920071884  0.4199694773063396  0.5555600692251931
  0.8560397451904724  0.4228545401746255  0.5576058033464286
  0.8560537715546905  0.4515199800803315  0.5171158674876231
  0.8757651413643133  0.4628487213530133  0.5555374708525144
  0.9202680341875814  0.4086376806924141  0.5171461191525918
  0.9202617832689286  0.3858041566114749  0.5555374708525144
  0.9253476299901140  0.4628526680433613  0.5555302632264286
  0.9450686025100751  0.4515199800803315  0.5171158674876231
  0.9005601526554993  0.4486363623686932  0.5150705322274655
  0.9450545761458570  0.4228545401746255  0.5576058033464286
  0.8757594179937354  0.4342220363154910  0.5898248869941304
  0.8757531670750828  0.4113885122345519  0.6282162386940529
  0.9005350177179574  0.3685092681878780  0.6282388370667316
  0.8560383758133419  0.4455538329294165  0.6282388370667316
  0.8560395621724223  0.4227605088733087  0.6604280679105424
  0.9005480120269981  0.4256441265849468  0.6624734031706999
  0.8757474437045044  0.3827618271970294  0.6625036548356688
  0.8808270395070373  0.4369768145479767  0.7008877989095055
  0.9005445905748807  0.4711381885524935  0.7009176049082699
  0.9253403257647462  0.4342256602215460  0.5898189613488307
  0.9253356557008836  0.4113924589248998  0.6282090310679671
  0.2329022240493455  0.2172111702717701  0.7331068357520808
  0.3021910133524388  0.1772161125015457  0.7351764970319075
  0.3219038943564190  0.1885442852094167  0.7735963727498085
  0.3219052637335493  0.1658449924546253  0.7029633390295057
  0.3219170550047303  0.2172111702717701  0.7331068357520808
  0.3664114784950878  0.1914293480777022  0.7756421068710440
  0.3416249365368125  0.1772124885954912  0.7351824226772071
  0.3466972281139771  0.2028004681246228  0.8078552648734459
  0.1883937908735494  0.2428895571961637  0.7029633390295057
  0.1884055821447297  0.2942557350133085  0.7331068357520808
  0.2081134636768121  0.2542570533370297  0.7351824226772071
  0.2526254018089288  0.3084680939976287  0.7735737743771297
  0.2131930594793447  0.3084720406879767  0.7735665667510441
  0.2329140319993057  0.2971393527249467  0.7351521710122383
  0.2576897013839601  0.2314274759464381  0.7735665667510441
  0.2576943714478230  0.2542606772430843  0.7351764970319075
  0.2774106739039213  0.2200947879834083  0.7351521710122383
  0.2774086218289342  0.2428895571961637  0.7029633390295057
  0.2971220437135441  0.2314235292560901  0.7735737743771297
  0.3467045323393446  0.2314274759464381  0.7735665667510441
  0.2971282946321969  0.2542570533370297  0.7351824226772071
  0.3467092024032080  0.2542606772430843  0.7351764970319075
  0.2774072524518036  0.2655888499509551  0.7735963727498085
  0.3416402327643133  0.3084680939976287  0.7735737743771297
  0.3022078904347295  0.3084720406879767  0.7735665667510441
  0.3219288629546905  0.2971393527249467  0.7351521710122383
  0.2774204131001147  0.2942557350133085  0.7331068357520808
  0.2329000056350875  0.2684739128192408  0.7756421068710440
  0.2526196784383502  0.2798414089601064  0.8078611905187455
  0.2774084388108836  0.2427955258948468  0.8057856035936191
  0.3022005862093615  0.2798450328661612  0.8078552648734459
  0.3219168886654596  0.2456791436064854  0.8078309388537767
  0.3416345093937352  0.2798414089601064  0.8078611905187455
  0.3219148365904723  0.2684739128192408  0.7756421068710440
  0.3416282584750826  0.2570078848791670  0.8462525422186682
  0.3219134672133421  0.2911732055740320  0.8462751405913468
  0.3467068009708998  0.3054293884892381  0.8805340327149844
  0.4306397674921968  0.1772124885954912  0.7351824226772071
  0.4109221467639212  0.1430502232418699  0.7351521710122383
  0.4109200946889341  0.1658449924546253  0.7029633390295057
  0.3664136969093454  0.1401666055302316  0.7331068357520808
  0.3912058443078231  0.1772161125015457  0.7351764970319075
  0.3912011742439599  0.1543829112048997  0.7735665667510441
  0.4306335165735442  0.1543789645145518  0.7735737743771297
  0.4109187253118037  0.1885442852094167  0.7735963727498085
  0.4109436939100746  0.2971393527249467  0.7351521710122383
  0.3664234527843183  0.2428895571961637  0.7029633390295057
  0.3664352440554995  0.2942557350133085  0.7331068357520808
  0.3664255048593056  0.2200947879834083  0.7351521710122383
  0.4109318859601148  0.2172111702717701  0.7331068357520808
  0.3861431255875817  0.2542570533370297  0.7351824226772071
  0.4357240333585923  0.2542606772430843  0.7351764970319075
  0.3912227213901139  0.3084720406879767  0.7735665667510441
  0.4306430894304672  0.2570078848791670  0.8462525422186682
  0.3861368746689287  0.2314235292560901  0.7735737743771297
  0.3861311512983505  0.2027968442185678  0.8078611905187455
  0.4357120590693614  0.2028004681246228  0.8078552648734459
  0.3664232697662684  0.2427955258948468  0.8057856035936191
  0.3912107471008832  0.2570118315695150  0.8462453345925826
  0.3664220834071882  0.2655888499509551  0.7735963727498085
  0.3912154171647463  0.2798450328661612  0.8078552648734459
  0.4109282981687265  0.2911732055740320  0.8462751405913468
  0.4306550637196979  0.3084680939976287  0.7735737743771297
  0.4109176932566261  0.2170137037007793  0.8483208747125826
  0.4109294845278071  0.2683798815179239  0.8784643714351577
  0.3861407241552737  0.3054257645831833  0.8805399583602841
  0.4357216319262845  0.3054293884892381  0.8805340327149844
  0.3664210513520108  0.2940582684423177  0.8483208747125826
  0.2131977295432076  0.3313052419846229  0.7351764970319075
  0.1438971489689337  0.3199341219377023  0.7029633390295057
  0.1636168217721968  0.3313016180785679  0.7351824226772071
  0.1439089402401146  0.3713002997548469  0.7331068357520808
  0.1884033637304724  0.3455184775607792  0.7756421068710440
  0.1686964175747294  0.3855166054295150  0.7735665667510441
  0.1636321179996981  0.4625572234807057  0.7735737743771297
  0.0994005070643186  0.3969786866792407  0.7029633390295057
  0.1439207481900751  0.4512284822080239  0.7351521710122383
  0.1191201798675815  0.4083461828201064  0.7351824226772071
  0.1439067218258570  0.4225630423023178  0.7756421068710440
  0.1884271292908838  0.4483448644963856  0.7331068357520808
  0.1687010876385924  0.4083498067261613  0.7351764970319075
  0.2329119799243187  0.3199341219377023  0.7029633390295057
  0.2526316527275814  0.3313016180785679  0.7351824226772071
  0.3022125604985924  0.3313052419846229  0.7351764970319075
  0.2774322210500750  0.3741839174664852  0.7351521710122383
  0.2577112485301140  0.3855166054295150  0.7735665667510441
  0.2329106105471883  0.3426334146924936  0.7735963727498085
  0.2971435908596980  0.3855126587391671  0.7735737743771297
  0.2774181946858569  0.3455184775607792  0.7756421068710440
  0.2577159185939771  0.4083498067261613  0.7351764970319075
  0.2526469489550827  0.4625572234807057  0.7735737743771297
  0.2329355791454598  0.4512284822080239  0.7351521710122383
  0.2132146066254987  0.4625611701710537  0.7735665667510441
  0.2774287995979576  0.4196779794340320  0.7735963727498085
  0.2774301689750879  0.3969786866792407  0.7029633390295057
  0.3022294375808834  0.4625611701710537  0.7735665667510441
  0.2971498417783505  0.4083461828201064  0.7351824226772071
  0.2774419602462685  0.4483448644963856  0.7331068357520808
  0.1884151550016529  0.3968846553779240  0.8057856035936191
  0.2081230365337349  0.3568859737016448  0.8078611905187455
  0.2329117969062683  0.3198400906363854  0.8057856035936191
  0.2329095784920107  0.3711028331838561  0.8483208747125826
  0.2526349746658519  0.4110970143622442  0.8462525422186682
  0.2329201834041113  0.4452623350571088  0.8462751405913468
  0.2132026323362679  0.4111009610525922  0.8462453345925826
  0.1636263946291197  0.4339305384431833  0.8078611905187455
  0.2971378674891199  0.3568859737016448  0.8078611905187455
  0.2576992742408831  0.3340563963110536  0.8462453345925826
  0.2971316165704673  0.3340524496207056  0.8462525422186682
  0.2774202467608440  0.3227237083480238  0.8078309388537767
  0.2577039443047460  0.3568895976076998  0.8078552648734459
  0.2774168253087264  0.3682177703155703  0.8462751405913468
  0.3219244094473955  0.3711028331838561  0.8483208747125826
  0.2526412255845044  0.4339305384431833  0.8078611905187455
  0.2774299859570375  0.3968846553779240  0.8057856035936191
  0.3022174632916521  0.4111009610525922  0.8462453345925826
  0.3022221333555153  0.4339341623492383  0.8078552648734459
  0.2774277675427801  0.4481473979253948  0.8483208747125826
  0.3022101590662847  0.3824739532307767  0.8805340327149844
  0.2577135171616692  0.4595185179723151  0.8805340327149844
  0.2774298196177672  0.4253526287126390  0.8805097066953153
  0.2971474403460429  0.4595148940662602  0.8805399583602841
  0.4109534331062687  0.3713002997548469  0.7331068357520808
  0.4306613146383509  0.3313016180785679  0.7351824226772071
  0.4109416418350877  0.3199341219377023  0.7029633390295057
  0.3912273914539772  0.3313052419846229  0.7351764970319075
  0.3416464836829661  0.3313016180785679  0.7351824226772071
  0.3219268108797034  0.3199341219377023  0.7029633390295057
  0.3664470520054597  0.3741839174664852  0.7351521710122383
  0.3219386021508839  0.3713002997548469  0.7331068357520808
  0.3861584218150825  0.3855126587391671  0.7735737743771297
  0.3467260794854988  0.3855166054295150  0.7735665667510441
  0.3416617799104673  0.4625572234807057  0.7735737743771297
  0.3219504101008443  0.4512284822080239  0.7351521710122383
  0.3467307495493616  0.4083498067261613  0.7351764970319075
  0.3664449999304724  0.3969786866792407  0.7029633390295057
  0.3664567912016529  0.4483448644963856  0.7331068357520808
  0.3861646727337352  0.4083461828201064  0.7351824226772071
  0.3912442685362680  0.4625611701710537  0.7735665667510441
  0.4109652410562288  0.4512284822080239  0.7351521710122383
  0.4306766108658519  0.4625572234807057  0.7735737743771297
  0.4357455805047463  0.4083498067261613  0.7351764970319075
  0.4357409104408831  0.3855166054295150  0.7735665667510441
  0.3467187752601307  0.3568895976076998  0.8078552648734459
  0.3219254415025726  0.3426334146924936  0.7735963727498085
  0.3467141051962678  0.3340563963110536  0.8462453345925826
  0.3219266278616528  0.3198400906363854  0.8057856035936191
  0.3664330256412415  0.3455184775607792  0.7756421068710440
  0.3664350777162288  0.3227237083480238  0.8078309388537767
  0.3664448169124220  0.3968846553779240  0.8057856035936191
  0.3861526984445044  0.3568859737016448  0.8078611905187455
  0.4109402724579574  0.3426334146924936  0.7735963727498085
  0.4109414588170376  0.3198400906363854  0.8057856035936191
  0.4357336062155155  0.3568895976076998  0.8078552648734459
  0.4357289361516524  0.3340563963110536  0.8462453345925826
  0.3219384358116135  0.3997682730895621  0.8078309388537767
  0.3219363837366264  0.4225630423023178  0.7756421068710440
  0.3664436305533423  0.4196779794340320  0.7735963727498085
  0.3416560565398889  0.4339305384431833  0.8078611905187455
  0.3912322942470370  0.4111009610525922  0.8462453345925826
  0.3912369643109000  0.4339341623492383  0.8078552648734459
  0.4109512146920110  0.4225630423023178  0.7756421068710440
  0.4306708874952737  0.4339305384431833  0.8078611905187455
  0.4109532667669978  0.3997682730895621  0.8078309388537767
  0.3861464475258516  0.3340524496207056  0.8462525422186682
  0.4109392404027800  0.3711028331838561  0.8483208747125826
  0.3664316562641114  0.3682177703155703  0.8462751405913468
  0.3416440822506582  0.3824703293247216  0.8805399583602841
  0.3912249900216692  0.3824739532307767  0.8805340327149844
  0.4109412924777673  0.3483080639711004  0.8805097066953153
  0.4306589132060429  0.3824703293247216  0.8805399583602841
  0.3664328426231915  0.3454244462594625  0.8784643714351577
  0.3219264615223828  0.3483080639711004  0.8805097066953153
  0.3912203199578062  0.3596407519341303  0.9189241024341209
  0.3664306242089338  0.3966871888069329  0.9209996425541210
  0.4109378710256497  0.3938021259386472  0.9189539084328855
  0.4306526622873904  0.3596368052437825  0.9189313100602066
  0.3219362007185762  0.4224690110010009  0.8784643714351577
  0.3416498056212365  0.4110970143622442  0.8462525422186682
  0.3219350143594960  0.4452623350571088  0.8462751405913468
  0.4306646365766209  0.4110970143622442  0.8462525422186682
  0.4109498453148806  0.4452623350571088  0.8462751405913468
  0.4109510316739607  0.4224690110010009  0.8784643714351577
  0.3664425984981647  0.4481473979253948  0.8483208747125826
  0.4357431790724385  0.4595185179723151  0.8805340327149844
  0.3664446505731522  0.4253526287126390  0.8805097066953153
  0.3467283481170539  0.4595185179723151  0.8805340327149844
  0.3861622713014274  0.4595148940662602  0.8805399583602841
  0.3467236780531910  0.4366853166756688  0.9189241024341209
  0.3664412291210344  0.4708466906801857  0.9189539084328855
  0.3861560203827748  0.4366813699853211  0.9189313100602066
  0.4357385090085751  0.4366853166756688  0.9189241024341209
  0.4554167365935496  0.0888004277130870  0.7029633390295057
  0.4999349256443189  0.1658449924546253  0.7029633390295057
  0.4554382837397033  0.2428895571961637  0.7029633390295057
  0.4802160051993448  0.1543829112048997  0.7735665667510441
  0.5196545984475816  0.1772124885954912  0.7351824226772071
  0.4999467169154994  0.2172111702717701  0.7331068357520808
  0.4802206752632079  0.1772161125015457  0.7351764970319075
  0.4554403358146904  0.2200947879834083  0.7351521710122383
  0.4999369777193057  0.1430502232418699  0.7351521710122383
  0.4554285278647297  0.1401666055302316  0.7331068357520808
  0.4999347426262682  0.1657509611533082  0.8057856035936191
  0.5196483475289287  0.1543789645145518  0.7735737743771297
  0.4554283615254593  0.1686345788649468  0.8078309388537767
  0.4999335562671881  0.1885442852094167  0.7735963727498085
  0.4554263094504722  0.1914293480777022  0.7756421068710440
  0.4751459822537351  0.2027968442185678  0.8078611905187455
  0.5247268900247462  0.2028004681246228  0.8078552648734459
  0.4999465505762287  0.2456791436064854  0.8078309388537767
  0.4554249400733421  0.2141286408324934  0.8462751405913468
  0.4751517056243134  0.2314235292560901  0.7735737743771297
  0.5444433588201150  0.1401666055302316  0.7331068357520808
  0.5889518086746905  0.1430502232418699  0.7351521710122383
  0.6086694294029663  0.1772124885954912  0.7351824226772071
  0.5889497565997032  0.1658449924546253  0.7029633390295057
  0.5692308361547295  0.1543829112048997  0.7735665667510441
  0.5692355062185926  0.1772161125015457  0.7351764970319075
  0.5247341942501141  0.2314274759464381  0.7735665667510441
  0.6086631784843135  0.1543789645145518  0.7735737743771297
  0.5444431924808443  0.1686345788649468  0.8078309388537767
  0.5889483872225730  0.1885442852094167  0.7735963727498085
  0.5444411404058571  0.1914293480777022  0.7756421068710440
  0.5641608132091198  0.2027968442185678  0.8078611905187455
  0.5444529316770375  0.2427955258948468  0.8057856035936191
  0.5889613815316137  0.2456791436064854  0.8078309388537767
  0.5641665365796982  0.2314235292560901  0.7735737743771297
  0.5889473551673955  0.2170137037007793  0.8483208747125826
  0.4554369143625729  0.2655888499509551  0.7735963727498085
  0.4751579565429660  0.2542570533370297  0.7351824226772071
  0.5247388643139769  0.2542606772430843  0.7351764970319075
  0.4999585248654596  0.2971393527249467  0.7351521710122383
  0.4554500750108838  0.2942557350133085  0.7331068357520808
  0.5196698946750824  0.3084680939976287  0.7735737743771297
  0.4999551034133422  0.3426334146924936  0.7735963727498085
  0.5196761455937352  0.3313016180785679  0.7351824226772071
  0.4802422224093615  0.3313052419846229  0.7351764970319075
  0.4802375523454986  0.3084720406879767  0.7735665667510441
  0.4999564727904726  0.3199341219377023  0.7029633390295057
  0.4802302481201306  0.2798450328661612  0.8078552648734459
  0.5196641713045045  0.2798414089601064  0.8078611905187455
  0.5196579203858516  0.2570078848791670  0.8462525422186682
  0.4802255780562677  0.2570118315695150  0.8462453345925826
  0.4999444985012418  0.2684739128192408  0.7756421068710440
  0.4999431291241113  0.2911732055740320  0.8462751405913468
  0.4554499086716132  0.3227237083480238  0.8078309388537767
  0.4999562897724219  0.3198400906363854  0.8057856035936191
  0.4751612784812364  0.3340524496207056  0.8462525422186682
  0.4554478565966263  0.3455184775607792  0.7756421068710440
  0.5889593294566264  0.2684739128192408  0.7756421068710440
  0.6137536952693619  0.2542606772430843  0.7351764970319075
  0.5444517453179575  0.2655888499509551  0.7735963727498085
  0.5889733558208442  0.2971393527249467  0.7351521710122383
  0.5444649059662686  0.2942557350133085  0.7331068357520808
  0.6086847256304674  0.3084680939976287  0.7735737743771297
  0.5692523833008835  0.3084720406879767  0.7735665667510441
  0.5889699343687267  0.3426334146924936  0.7735963727498085
  0.5889713037458573  0.3199341219377023  0.7029633390295057
  0.6086909765491200  0.3313016180785679  0.7351824226772071
  0.5444626875520109  0.3455184775607792  0.7756421068710440
  0.5692570533647463  0.3313052419846229  0.7351764970319075
  0.5889579600794960  0.2911732055740320  0.8462751405913468
  0.6086727513412368  0.2570078848791670  0.8462525422186682
  0.6086790022598891  0.2798414089601064  0.8078611905187455
  0.5692404090116527  0.2570118315695150  0.8462453345925826
  0.5692450790755151  0.2798450328661612  0.8078552648734459
  0.5889711207278069  0.3198400906363854  0.8057856035936191
  0.5444647396269982  0.3227237083480238  0.8078309388537767
  0.5247437671070370  0.3340563963110536  0.8462453345925826
  0.5641761094366212  0.3340524496207056  0.8462525422186682
  0.6137585980624219  0.3340563963110536  0.8462453345925826
  0.4751732527704673  0.3855126587391671  0.7735737743771297
  0.4554618829608438  0.3741839174664852  0.7351521710122383
  0.5247557413962679  0.3855166054295150  0.7735665667510441
  0.4999682640616531  0.3713002997548469  0.7331068357520808
  0.4554598308858570  0.3969786866792407  0.7029633390295057
  0.4751795036891198  0.4083461828201064  0.7351824226772071
  0.5247604114601309  0.4083498067261613  0.7351764970319075
  0.4554716221570376  0.4483448644963856  0.7331068357520808
  0.4999800720116135  0.4512284822080239  0.7351521710122383
  0.5196914418212364  0.4625572234807057  0.7735737743771297
  0.4802590994916524  0.4625611701710537  0.7735665667510441
  0.4554596478678068  0.3968846553779240  0.8057856035936191
  0.4751675293998890  0.3568859737016448  0.8078611905187455
  0.4554464872194957  0.3682177703155703  0.8462751405913468
  0.5247484371708998  0.3568895976076998  0.8078552648734459
  0.4999680977223824  0.3997682730895621  0.8078309388537767
  0.5196794675320059  0.4110970143622442  0.8462525422186682
  0.4802471252024218  0.4111009610525922  0.8462453345925826
  0.4554584615087268  0.4196779794340320  0.7735963727498085
  0.5196857184506583  0.4339305384431833  0.8078611905187455
  0.4802517952662847  0.4339341623492383  0.8078552648734459
  0.4999646762702653  0.4452623350571088  0.8462751405913468
  0.4999660456473954  0.4225630423023178  0.7756421068710440
  0.5889949029669982  0.4512284822080239  0.7351521710122383
  0.5889830950170380  0.3713002997548469  0.7331068357520808
  0.5444864531124223  0.4483448644963856  0.7331068357520808
  0.5444746618412415  0.3969786866792407  0.7029633390295057
  0.5444767139162289  0.3741839174664852  0.7351521710122383
  0.5641943346445043  0.4083461828201064  0.7351824226772071
  0.6137752424155153  0.4083498067261613  0.7351764970319075
  0.6137705723516527  0.3855166054295150  0.7735665667510441
  0.5692739304470371  0.4625611701710537  0.7735665667510441
  0.6137632681262846  0.3568895976076998  0.8078552648734459
  0.5641823603552737  0.3568859737016448  0.8078611905187455
  0.5444613181748805  0.3682177703155703  0.8462751405913468
  0.5889829286777674  0.3997682730895621  0.8078309388537767
  0.5641880837258518  0.3855126587391671  0.7735737743771297
  0.5444744788231911  0.3968846553779240  0.8057856035936191
  0.6086942984873902  0.4110970143622442  0.8462525422186682
  0.5692619561578062  0.4111009610525922  0.8462453345925826
  0.5444732924641114  0.4196779794340320  0.7735963727498085
  0.6087005494060428  0.4339305384431833  0.8078611905187455
  0.5889808766027800  0.4225630423023178  0.7756421068710440
  0.5692666262216693  0.4339341623492383  0.8078552648734459
  0.5889795072256498  0.4452623350571088  0.8462751405913468
  0.6087062727766213  0.4625572234807057  0.7735737743771297
  0.4554379343823829  0.2712634992295623  0.8805097066953153
  0.4999443154831914  0.2683798815179239  0.8784643714351577
  0.4554358823073953  0.2940582684423177  0.8483208747125826
  0.4751555551106583  0.3054257645831833  0.8805399583602841
  0.5247364628816691  0.3054293884892381  0.8805340327149844
  0.4999561234331521  0.3483080639711004  0.8805097066953153
  0.4554476735785763  0.3454244462594625  0.8784643714351577
  0.5196674932427747  0.3596368052437825  0.9189313100602066
  0.4802351509131909  0.3596407519341303  0.9189241024341209
  0.4554345129302652  0.3167575611971089  0.9189539084328855
  0.4999420970689339  0.3196426240653946  0.9209996425541210
  0.5444507132627804  0.2940582684423177  0.8483208747125826
  0.5444527653377672  0.2712634992295623  0.8805097066953153
  0.5889591464385762  0.2683798815179239  0.8784643714351577
  0.5641703860660429  0.3054257645831833  0.8805399583602841
  0.6137512938370541  0.3054293884892381  0.8805340327149844
  0.5444625045339606  0.3454244462594625  0.8784643714351577
  0.5889709543885369  0.3483080639711004  0.8805097066953153
  0.5692499818685757  0.3596407519341303  0.9189241024341209
  0.6086823241981595  0.3596368052437825  0.9189313100602066
  0.5444493438856498  0.3167575611971089  0.9189539084328855
  0.4554454551643186  0.3966871888069329  0.9209996425541210
  0.4999540713581646  0.3711028331838561  0.8483208747125826
  0.5196737441614275  0.3824703293247216  0.8805399583602841
  0.4999527019810344  0.3938021259386472  0.9189539084328855
  0.4802398209770538  0.3824739532307767  0.8805340327149844
  0.4999658626293455  0.4224690110010009  0.8784643714351577
  0.4554594815285365  0.4253526287126390  0.8805097066953153
  0.4751708513381596  0.4366813699853211  0.9189313100602066
  0.5247533399639601  0.4366853166756688  0.9189241024341209
  0.4554574294535493  0.4481473979253948  0.8483208747125826
  0.4751771022568121  0.4595148940662602  0.8805399583602841
  0.4554560600764189  0.4708466906801857  0.9189539084328855
  0.4999656962900751  0.4509369843357159  0.9531884745368536
  0.4554572464354991  0.4480533666240777  0.9511431392766961
  0.5247580100278231  0.4595185179723151  0.8805340327149844
  0.6086885751168121  0.3824703293247216  0.8805399583602841
  0.5692546519324383  0.3824739532307767  0.8805340327149844
  0.5889689023135494  0.3711028331838561  0.8483208747125826
  0.5641919332121967  0.4595148940662602  0.8805399583602841
  0.6137728409832077  0.4595185179723151  0.8805340327149844
  0.5444743124839213  0.4253526287126390  0.8805097066953153
  0.5444722604089339  0.4481473979253948  0.8483208747125826
  0.5889806935847298  0.4224690110010009  0.8784643714351577
  0.6137681709193449  0.4366853166756688  0.9189241024341209
  0.5641856822935444  0.4366813699853211  0.9189313100602066
  0.5444602861197031  0.3966871888069329  0.9209996425541210
  0.5889675329364190  0.3938021259386472  0.9189539084328855
  0.5444720773908839  0.4480533666240777  0.9511431392766961
  0.5444708910318037  0.4708466906801857  0.9189539084328855
  0.6334581897754993  0.1401666055302316  0.7331068357520808
  0.6976842603583506  0.1772124885954912  0.7351824226772071
  0.6582503371739774  0.1772161125015457  0.7351764970319075
  0.6779645875550881  0.1658449924546253  0.7029633390295057
  0.6779763788262689  0.2172111702717701  0.7331068357520808
  0.6334679456504724  0.2428895571961637  0.7029633390295057
  0.6334699977254600  0.2200947879834083  0.7351521710122383
  0.6779632181779576  0.1885442852094167  0.7735963727498085
  0.6779762124869982  0.2456791436064854  0.8078309388537767
  0.6334677626324222  0.2427955258948468  0.8057856035936191
  0.6531813675350825  0.2314235292560901  0.7735737743771297
  0.7669912097816532  0.2172111702717701  0.7331068357520808
  0.7224848286808443  0.2200947879834083  0.7351521710122383
  0.7224827766058571  0.2428895571961637  0.7029633390295057
  0.7027638561608835  0.2314274759464381  0.7735665667510441
  0.7224825935878070  0.2427955258948468  0.8057856035936191
  0.7421961984904674  0.2314235292560901  0.7735737743771297
  0.8114976075612421  0.2428895571961637  0.7029633390295057
  0.6977058075045047  0.3313016180785679  0.7351824226772071
  0.6779861347012417  0.3199341219377023  0.7029633390295057
  0.6779881867762290  0.2971393527249467  0.7351521710122383
  0.6334797369216532  0.2942557350133085  0.7331068357520808
  0.7027685262247466  0.2542606772430843  0.7351764970319075
  0.6582718843201311  0.3313052419846229  0.7351764970319075
  0.6334665762733422  0.2655888499509551  0.7735963727498085
  0.6976995565858520  0.3084680939976287  0.7735737743771297
  0.6531876184537355  0.2542570533370297  0.7351824226772071
  0.6582672142562682  0.3084720406879767  0.7735665667510441
  0.6779847653241114  0.3426334146924936  0.7735963727498085
  0.6582552399670375  0.2570118315695150  0.8462453345925826
  0.6976938332152739  0.2798414089601064  0.8078611905187455
  0.6779741604120110  0.2684739128192408  0.7756421068710440
  0.6779727910348811  0.2911732055740320  0.8462751405913468
  0.6582599100309001  0.2798450328661612  0.8078552648734459
  0.6779859516831914  0.3198400906363854  0.8057856035936191
  0.6334795705823829  0.3227237083480238  0.8078309388537767
  0.6531909403920060  0.3340524496207056  0.8462525422186682
  0.7027734290178067  0.3340563963110536  0.8462453345925826
  0.6334775185073956  0.3455184775607792  0.7756421068710440
  0.7224814072287268  0.2655888499509551  0.7735963727498085
  0.7670009656566267  0.3199341219377023  0.7029633390295057
  0.7669995962794961  0.3426334146924936  0.7735963727498085
  0.7917833571801307  0.2542606772430843  0.7351764970319075
  0.7867143875412366  0.3084680939976287  0.7735737743771297
  0.7422024494091203  0.2542570533370297  0.7351824226772071
  0.7224945678770377  0.2942557350133085  0.7331068357520808
  0.7472820452116528  0.3084720406879767  0.7735665667510441
  0.7472867152755160  0.3313052419846229  0.7351764970319075
  0.7867206384598894  0.3313016180785679  0.7351824226772071
  0.7670030177316137  0.2971393527249467  0.7351521710122383
  0.7472747409862849  0.2798450328661612  0.8078552648734459
  0.7669889913673955  0.2684739128192408  0.7756421068710440
  0.7670007826385760  0.3198400906363854  0.8057856035936191
  0.7224944015377677  0.3227237083480238  0.8078309388537767
  0.7422057713473901  0.3340524496207056  0.8462525422186682
  0.7224923494627804  0.3455184775607792  0.7756421068710440
  0.7027854033070374  0.3855166054295150  0.7735665667510441
  0.6532029146812366  0.3855126587391671  0.7735737743771297
  0.6334915448716134  0.3741839174664852  0.7351521710122383
  0.6779979259724226  0.3713002997548469  0.7331068357520808
  0.6334894927966263  0.3969786866792407  0.7029633390295057
  0.6532091655998891  0.4083461828201064  0.7351824226772071
  0.7027900733709002  0.4083498067261613  0.7351764970319075
  0.6335012840678068  0.4483448644963856  0.7331068357520808
  0.6780097339223827  0.4512284822080239  0.7351521710122383
  0.6582887614024220  0.4625611701710537  0.7735665667510441
  0.6977211037320059  0.4625572234807057  0.7735737743771297
  0.6779977596331519  0.3997682730895621  0.8078309388537767
  0.7027780990816693  0.3568895976076998  0.8078552648734459
  0.6334761491302653  0.3682177703155703  0.8462751405913468
  0.6531971913106586  0.3568859737016448  0.8078611905187455
  0.6334893097785763  0.3968846553779240  0.8057856035936191
  0.6977091294427750  0.4110970143622442  0.8462525422186682
  0.6582767871131907  0.4111009610525922  0.8462453345925826
  0.6334881234194961  0.4196779794340320  0.7735963727498085
  0.6977153803614274  0.4339305384431833  0.8078611905187455
  0.6779957075581647  0.4225630423023178  0.7756421068710440
  0.6582814571770539  0.4339341623492383  0.8078552648734459
  0.6779943381810346  0.4452623350571088  0.8462751405913468
  0.7422177456366212  0.3855126587391671  0.7735737743771297
  0.7225063758269982  0.3741839174664852  0.7351521710122383
  0.7670127569278069  0.3713002997548469  0.7331068357520808
  0.7225043237520110  0.3969786866792407  0.7029633390295057
  0.7918002342624217  0.3855166054295150  0.7735665667510441
  0.7422239965552737  0.4083461828201064  0.7351824226772071
  0.7918049043262847  0.4083498067261613  0.7351764970319075
  0.7225161150231915  0.4483448644963856  0.7331068357520808
  0.7867359346873906  0.4625572234807057  0.7735737743771297
  0.7670245648777674  0.4512284822080239  0.7351521710122383
  0.7473035923578066  0.4625611701710537  0.7735665667510441
  0.7224909800856500  0.3682177703155703  0.8462751405913468
  0.7225041407339606  0.3968846553779240  0.8057856035936191
  0.7917929300370539  0.3568895976076998  0.8078552648734459
  0.7422120222660431  0.3568859737016448  0.8078611905187455
  0.7670125905885367  0.3997682730895621  0.8078309388537767
  0.7867239603981595  0.4110970143622442  0.8462525422186682
  0.7472916180685757  0.4111009610525922  0.8462453345925826
  0.7225029543748808  0.4196779794340320  0.7735963727498085
  0.7670091691364191  0.4452623350571088  0.8462751405913468
  0.7472962881324384  0.4339341623492383  0.8078552648734459
  0.7670105385135494  0.4225630423023178  0.7756421068710440
  0.7867302113168123  0.4339305384431833  0.8078611905187455
  0.6334655442181649  0.2940582684423177  0.8483208747125826
  0.6531852170214276  0.3054257645831833  0.8805399583602841
  0.6779857853439212  0.3483080639711004  0.8805097066953153
  0.6334773354893454  0.3454244462594625  0.8784643714351577
  0.6779955245401148  0.4224690110010009  0.8784643714351577
  0.6977034060721968  0.3824703293247216  0.8805399583602841
  0.6582694828878232  0.3824739532307767  0.8805340327149844
  0.6779837332689341  0.3711028331838561  0.8483208747125826
  0.6334891434393061  0.4253526287126390  0.8805097066953153
  0.6532067641675814  0.4595148940662602  0.8805399583602841
  0.6334870913643188  0.4481473979253948  0.8483208747125826
  0.6532005132489287  0.4366813699853211  0.9189313100602066
  0.6334857219871882  0.4708466906801857  0.9189539084328855
  0.7027876719385923  0.4595185179723151  0.8805340327149844
  0.6334751170750876  0.3966871888069329  0.9209996425541210
  0.7225039743946904  0.4253526287126390  0.8805097066953153
  0.7669985642243189  0.3711028331838561  0.8483208747125826
  0.7422215951229660  0.4595148940662602  0.8805399583602841
  0.7225019223197032  0.4481473979253948  0.8483208747125826
  0.8115093988324226  0.2942557350133085  0.7331068357520808
  0.8560157966120113  0.3199341219377023  0.7029633390295057
  0.8363015462309000  0.3313052419846229  0.7351764970319075
  0.8115071804181648  0.3455184775607792  0.7756421068710440
  0.8312325765920063  0.3855126587391671  0.7735737743771297
  0.8115191547073956  0.3969786866792407  0.7029633390295057
  0.8115177853302654  0.4196779794340320  0.7735963727498085
  0.8363184233131913  0.4625611701710537  0.7735665667510441
  0.8560393958331518  0.4512284822080239  0.7351521710122383
  0.8115309459785764  0.4483448644963856  0.7331068357520808
  0.8115189716893453  0.3968846553779240  0.8057856035936191
  0.8363111190878235  0.4339341623492383  0.8078552648734459
  0.8560253694689340  0.4225630423023178  0.7756421068710440
  0.9005339856627803  0.3969786866792407  0.7029633390295057
  0.8808197352816692  0.4083498067261613  0.7351764970319075
  0.1242331971770540  0.4859773672123152  0.2991038899826768
  0.0994388313643185  0.5001906027884716  0.3395694998218133
  0.0994528577285367  0.5288560426941777  0.2990795639630076
  0.1191642275381594  0.5401847839668594  0.3375011673278990
  0.0797318852085756  0.5401887306572075  0.3374939597018133
  0.1191704784568122  0.5630183080477987  0.2991098156279764
  0.0994494362764191  0.5743501046617242  0.3375237657005778
  0.1191585041675815  0.5115580989293372  0.3717885834695149
  0.0797245809832077  0.5115617228353920  0.3717826578242152
  0.0746618622629660  0.5886026636708755  0.3717885834695149
  0.0994506226354991  0.5515567806056164  0.3697129965443885
  0.0994408834393059  0.4773958335757161  0.3717583318045461
  0.0797199109193447  0.4887285215387460  0.4101727275433518
  0.1242380999701141  0.5657730862802846  0.4101727275433518
  0.1191522532489287  0.4887245748483979  0.4101799351694375
  0.0994386483462684  0.5000965714871546  0.4423917643859269
  0.0549322672454596  0.5029801891987928  0.4444370996460845
  0.0746436370550826  0.5143089304714749  0.4828587030109758
  0.1242261256808832  0.5143128771618228  0.4828514953848903
  0.0549302151704724  0.5257749584115485  0.4122482676633518
  0.0994374619871884  0.5228898955432626  0.4102025335421162
  0.0994504562962289  0.5800247539403315  0.4444370996460845
  0.0746498879737352  0.5371424545524142  0.4444673513110535
  0.1242307957447461  0.5371460784584690  0.4444614256657537
  0.0746556113443134  0.5657691395899365  0.4101799351694375
  0.2329609091364190  0.4973055399201857  0.3375237657005778
  0.2329620954954991  0.4745122158640779  0.3697129965443885
  0.1439472645401144  0.4745122158640779  0.3697129965443885
  0.1884557143946904  0.4773958335757161  0.3717583318045461
  0.1636671203614274  0.4859737433062601  0.2991098156279764
  0.1439460781810344  0.4973055399201857  0.3375237657005778
  0.2132480281324384  0.4859773672123152  0.2991038899826768
  0.1884536623197030  0.5001906027884716  0.3395694998218133
  0.2329740697847299  0.5259724249825394  0.2970342287028500
  0.1884676886839212  0.5288560426941777  0.2990795639630076
  0.1439592388293454  0.5259724249825394  0.2970342287028500
  0.2081853094121969  0.5630183080477987  0.2991098156279764
  0.1687513862278230  0.5630219319538535  0.2991038899826768
  0.1687467161639601  0.5401887306572075  0.3374939597018133
  0.2081790584935442  0.5401847839668594  0.3375011673278990
  0.1884654535908838  0.5515567806056164  0.3697129965443885
  0.1884642672318037  0.5743501046617242  0.3375237657005778
  0.2329718513704722  0.5772351675300100  0.3395694998218133
  0.2329739034454597  0.5544403983172546  0.3717583318045461
  0.1439590724900750  0.5544403983172546  0.3717583318045461
  0.1687347418747293  0.4887285215387460  0.4101727275433518
  0.1687394119385922  0.5115617228353920  0.3717826578242152
  0.2081733351229659  0.5115580989293372  0.3717885834695149
  0.2081670842043135  0.4887245748483979  0.4101799351694375
  0.1884522929425729  0.5228898955432626  0.4102025335421162
  0.1884534793016530  0.5000965714871546  0.4423917643859269
  0.1439470982008441  0.5029801891987928  0.4444370996460845
  0.2329619291562287  0.5029801891987928  0.4444370996460845
  0.2132409566362677  0.5143128771618228  0.4828514953848903
  0.1636584680104672  0.5143089304714749  0.4828587030109758
  0.1439450461258569  0.5257749584115485  0.4122482676633518
  0.1636647189291197  0.5371424545524142  0.4444673513110535
  0.1439568373970377  0.5771411362286931  0.4423917643859269
  0.2132529309254988  0.5657730862802846  0.4101727275433518
  0.2329598770812416  0.5257749584115485  0.4122482676633518
  0.2132456267001309  0.5371460784584690  0.4444614256657537
  0.2132576009893615  0.5886062875769306  0.3717826578242152
  0.2329716683524223  0.5771411362286931  0.4423917643859269
  0.0994625969247299  0.6030169897240779  0.2970342287028500
  0.0994603785104723  0.6542797322715486  0.3395694998218133
  0.1242500742593447  0.6172332953987459  0.3374939597018133
  0.1439676253271882  0.6513946694032626  0.3375237657005778
  0.1242547443232078  0.6400664966953921  0.2991038899826768
  0.1439710467793058  0.6059006074357158  0.2990795639630076
  0.1884774278801145  0.6030169897240779  0.2970342287028500
  0.2132695752785923  0.6400664966953921  0.2991038899826768
  0.2132649052147293  0.6172332953987459  0.3374939597018133
  0.1636886675075813  0.6400628727893370  0.2991098156279764
  0.1884752094658570  0.6542797322715486  0.3395694998218133
  0.2329824562825728  0.6513946694032626  0.3375237657005778
  0.2329858777346905  0.6059006074357158  0.2990795639630076
  0.1439688116862684  0.6286013453471551  0.3697129965443885
  0.1191800513137352  0.6656472284124142  0.3717885834695149
  0.0994624305854597  0.6314849630587932  0.3717583318045461
  0.0994484042212416  0.6028195231530870  0.4122482676633518
  0.1439556510379575  0.5999344602848011  0.4102025335421162
  0.1191738003950827  0.6428137043314749  0.4101799351694375
  0.1439686453469980  0.6570693186818697  0.4444370996460845
  0.1191618261058518  0.5913534952130133  0.4828587030109758
  0.1687443147316524  0.5913574419033613  0.4828514953848903
  0.1191680770245045  0.6141870192939527  0.4444673513110535
  0.1636800151566211  0.6683980599545518  0.4828587030109758
  0.1884772615408443  0.6314849630587932  0.3717583318045461
  0.2329836426416529  0.6286013453471551  0.3697129965443885
  0.2329704819933421  0.5999344602848011  0.4102025335421162
  0.1687562890208833  0.6428176510218228  0.4101727275433518
  0.1687609590847463  0.6656508523184692  0.3717826578242152
  0.2081886313504669  0.6428137043314749  0.4101799351694375
  0.2081948822691199  0.6656472284124142  0.3717885834695149
  0.2081766570612364  0.5913534952130133  0.4828587030109758
  0.1884750264478069  0.6541857009702317  0.4423917643859269
  0.2329834763023827  0.6570693186818697  0.4444370996460845
  0.2081829079798890  0.6141870192939527  0.4444673513110535
  0.2132625037824217  0.6684020066448997  0.4828514953848903
  0.1884892358300750  0.6829451721772545  0.2990795639630076
  0.1439807859754992  0.6800615544656162  0.2970342287028500
  0.1687682633101140  0.6942778601402845  0.3374939597018133
  0.2082006056396980  0.6942739134499365  0.3375011673278990
  0.1191857746843134  0.6942739134499365  0.3375011673278990
  0.1439785675612416  0.7313242970130869  0.3395694998218133
  0.1884858143779576  0.7284392341448012  0.3375237657005778
  0.2329933985166262  0.7313242970130869  0.3395694998218133
  0.2132864523608832  0.7713224248818228  0.3374939597018133
  0.2132911224247462  0.7941556261784688  0.2991038899826768
  0.1439806196362287  0.7085295278003314  0.3717583318045461
  0.1439665932720109  0.6798640878946255  0.4122482676633518
  0.1884738400887266  0.6769790250263396  0.4102025335421162
  0.1636862660752738  0.6912315840354910  0.4444673513110535
  0.1636919894458518  0.7198582690730134  0.4101799351694375
  0.1884870007370377  0.7056459100886932  0.3697129965443885
  0.2132671738462847  0.6912352079415458  0.4444614256657537
  0.2132744780716525  0.7198622157633614  0.4101727275433518
  0.2329814242273954  0.6798640878946255  0.4122482676633518
  0.2329954505916134  0.7085295278003314  0.3717583318045461
  0.2329932154985761  0.7312302657117703  0.4423917643859269
  0.1636982403645044  0.7426917931539525  0.3717885834695149
  0.1884988086869981  0.7855740925418699  0.3717583318045461
  0.2132791481355154  0.7426954170600074  0.3717826578242152
  0.2082164294152736  0.8197363578954909  0.3717885834695149
  0.2082101784966211  0.7969028338145517  0.4101799351694375
  0.2329920291394960  0.7540235897678780  0.4102025335421162
  0.1884847823227800  0.7569086526361637  0.4122482676633518
  0.2081982042073903  0.7454426246960902  0.4828587030109758
  0.1884868343977672  0.7341138834234083  0.4444370996460845
  0.2082044551260431  0.7682761487770295  0.4444673513110535
  0.2774705453500749  0.4773958335757161  0.3717583318045461
  0.2774684932750879  0.5001906027884716  0.3395694998218133
  0.2577615471193448  0.5401887306572075  0.3374939597018133
  0.2526819513168121  0.4859737433062601  0.2991098156279764
  0.2774802845462684  0.5515567806056164  0.3697129965443885
  0.3022628590878232  0.4859773672123152  0.2991038899826768
  0.2972001403675815  0.5630183080477987  0.2991098156279764
  0.2971938894489287  0.5401847839668594  0.3375011673278990
  0.2774825196393059  0.5288560426941777  0.2990795639630076
  0.3219757400918035  0.4973055399201857  0.3375237657005778
  0.3219769264508838  0.4745122158640779  0.3697129965443885
  0.3219887344008442  0.5544403983172546  0.3717583318045461
  0.3416967822721966  0.4859737433062601  0.2991098156279764
  0.3219889007401146  0.5259724249825394  0.2970342287028500
  0.3467763780747295  0.5401887306572075  0.3374939597018133
  0.3664833242304724  0.5001906027884716  0.3395694998218133
  0.3664853763054596  0.4773958335757161  0.3717583318045461
  0.3664951155016531  0.5515567806056164  0.3697129965443885
  0.3664973505946904  0.5288560426941777  0.2990795639630076
  0.3862087204043134  0.5401847839668594  0.3375011673278990
  0.3862149713229659  0.5630183080477987  0.2991098156279764
  0.3022797361701139  0.6172332953987459  0.3374939597018133
  0.2774922588354991  0.6030169897240779  0.2970342287028500
  0.2774920924962287  0.6314849630587932  0.3717583318045461
  0.2774790981871883  0.5743501046617242  0.3375237657005778
  0.2526972475443134  0.6172293487083979  0.3375011673278990
  0.2774900404212416  0.6542797322715486  0.3395694998218133
  0.2577662171832077  0.5630219319538535  0.2991038899826768
  0.2527034984629661  0.6400628727893370  0.2991098156279764
  0.3219866823258570  0.5772351675300100  0.3395694998218133
  0.3022844062339770  0.6400664966953921  0.2991038899826768
  0.3219972872379573  0.6513946694032626  0.3375237657005778
  0.3219984735970376  0.6286013453471551  0.3697129965443885
  0.3220007086900751  0.6059006074357158  0.2990795639630076
  0.3417183294183506  0.6400628727893370  0.2991098156279764
  0.3417120784996980  0.6172293487083979  0.3375011673278990
  0.3665048713766264  0.6542797322715486  0.3395694998218133
  0.3665070897908839  0.6030169897240779  0.2970342287028500
  0.3665069234516135  0.6314849630587932  0.3717583318045461
  0.3664939291425731  0.5743501046617242  0.3375237657005778
  0.3467810481385924  0.5630219319538535  0.2991038899826768
  0.2577495728301140  0.4887285215387460  0.4101727275433518
  0.2971881660783507  0.5115580989293372  0.3717885834695149
  0.2577542428939769  0.5115617228353920  0.3717826578242152
  0.2526852732550827  0.5657691395899365  0.4101799351694375
  0.3022677618808833  0.5657730862802846  0.4101727275433518
  0.2971819151596978  0.4887245748483979  0.4101799351694375
  0.2774671238979574  0.5228898955432626  0.4102025335421162
  0.3022557875916524  0.5143128771618228  0.4828514953848903
  0.2774801182069979  0.5800247539403315  0.4444370996460845
  0.2526795498845044  0.5371424545524142  0.4444673513110535
  0.2774683102570378  0.5000965714871546  0.4423917643859269
  0.2526732989658519  0.5143089304714749  0.4828587030109758
  0.3022604576555153  0.5371460784584690  0.4444614256657537
  0.3219747080366261  0.5257749584115485  0.4122482676633518
  0.3467690738493616  0.5115617228353920  0.3717826578242152
  0.3861967461150827  0.4887245748483979  0.4101799351694375
  0.3664819548533421  0.5228898955432626  0.4102025335421162
  0.3862029970337352  0.5115580989293372  0.3717885834695149
  0.3467644037854984  0.4887285215387460  0.4101727275433518
  0.3417001042104673  0.5657691395899365  0.4101799351694375
  0.3219864993078069  0.5771411362286931  0.4423917643859269
  0.3664831412124221  0.5000965714871546  0.4423917643859269
  0.3219767601116133  0.5029801891987928  0.4444370996460845
  0.3416943808398892  0.5371424545524142  0.4444673513110535
  0.3416881299212364  0.5143089304714749  0.4828587030109758
  0.2526915241737352  0.5886026636708755  0.3717885834695149
  0.3022724319447462  0.5886062875769306  0.3717826578242152
  0.2972097132245044  0.6656472284124142  0.3717885834695149
  0.2577711199762678  0.6428176510218228  0.4101727275433518
  0.2972034623058519  0.6428137043314749  0.4101799351694375
  0.2774780661320109  0.6028195231530870  0.4122482676633518
  0.2577638157509000  0.6141906432000074  0.4444614256657537
  0.2774898574031914  0.6541857009702317  0.4423917643859269
  0.2971977389352737  0.6141870192939527  0.4444673513110535
  0.2577591456870370  0.5913574419033613  0.4828514953848903
  0.2971914880166211  0.5913534952130133  0.4828587030109758
  0.3862245441798892  0.6656472284124142  0.3717885834695149
  0.3417063551291200  0.5886026636708755  0.3717885834695149
  0.3467906209955154  0.6656508523184692  0.3717826578242152
  0.3219853129487268  0.5999344602848011  0.4102025335421162
  0.3467859509316525  0.6428176510218228  0.4101727275433518
  0.3862182932612364  0.6428137043314749  0.4101799351694375
  0.3664928970873956  0.6028195231530870  0.4122482676633518
  0.3665046883585760  0.6541857009702317  0.4423917643859269
  0.3862063189720056  0.5913534952130133  0.4828587030109758
  0.3467786467062846  0.6141906432000074  0.4444614256657537
  0.3862125698906585  0.6141870192939527  0.4444673513110535
  0.3467739766424217  0.5913574419033613  0.4828514953848903
  0.3664949491623828  0.5800247539403315  0.4444370996460845
  0.3219983072577672  0.6570693186818697  0.4444370996460845
  0.2775018316924220  0.7056459100886932  0.3697129965443885
  0.2329956169308837  0.6800615544656162  0.2970342287028500
  0.2577830942654986  0.6942778601402845  0.3374939597018133
  0.2775138059816531  0.7571061192071548  0.2970342287028500
  0.2972154365950827  0.6942739134499365  0.3375011673278990
  0.3220082294720109  0.7313242970130869  0.3395694998218133
  0.3220102815469981  0.7085295278003314  0.3717583318045461
  0.3220104478862684  0.6800615544656162  0.2970342287028500
  0.3862302675504674  0.6942739134499365  0.3375011673278990
  0.3665286369370375  0.7571061192071548  0.2970342287028500
  0.3468025952847462  0.7171110614369304  0.2991038899826768
  0.3665188977408443  0.6829451721772545  0.2990795639630076
  0.3467979252208835  0.6942778601402845  0.3374939597018133
  0.3665166626478068  0.7056459100886932  0.3697129965443885
  0.3665154762887269  0.7284392341448012  0.3375237657005778
  0.2330074248808443  0.7599897369187930  0.2990795639630076
  0.2775115875673955  0.8083688617546254  0.3395694998218133
  0.2578046414116525  0.8483669896233613  0.3374939597018133
  0.2527250456091198  0.7941520022724139  0.2991098156279764
  0.2775136396423828  0.7855740925418699  0.3717583318045461
  0.2972369837412364  0.8483630429330133  0.3375011673278990
  0.2775256139316136  0.8370343016603314  0.2990795639630076
  0.3023059533801308  0.7941556261784688  0.2991038899826768
  0.3220319950324224  0.8341506839486931  0.2970342287028500
  0.3220222558362288  0.7599897369187930  0.2990795639630076
  0.3665404448869981  0.8370343016603314  0.2990795639630076
  0.3417398765645044  0.7941520022724139  0.2991098156279764
  0.3468194723670371  0.8483669896233613  0.3374939597018133
  0.3417336256458520  0.7713184781914748  0.3375011673278990
  0.3665264185227803  0.8083688617546254  0.3395694998218133
  0.3665284705977673  0.7855740925418699  0.3717583318045461
  0.3022893090270371  0.7198622157633614  0.4101727275433518
  0.2577757900401307  0.6656508523184692  0.3717826578242152
  0.2527130713198891  0.7426917931539525  0.3717885834695149
  0.2774886710441113  0.6769790250263396  0.4102025335421162
  0.2527068204012365  0.7198582690730134  0.4101799351694375
  0.2527010970306583  0.6912315840354910  0.4444673513110535
  0.3022820048016692  0.6912352079415458  0.4444614256657537
  0.2775016653531519  0.7341138834234083  0.4444370996460845
  0.3022773347378062  0.6684020066448997  0.4828514953848903
  0.2972130351627749  0.7454426246960902  0.4828587030109758
  0.2526948461120057  0.6683980599545518  0.4828587030109758
  0.2577806928331909  0.7454465713864382  0.4828514953848903
  0.3022939790909000  0.7426954170600074  0.3717826578242152
  0.3417279022752736  0.7426917931539525  0.3717885834695149
  0.3220068600948804  0.7540235897678780  0.4102025335421162
  0.3417216513566211  0.7198582690730134  0.4101799351694375
  0.3665035019994958  0.6769790250263396  0.4102025335421162
  0.3219962551827800  0.6798640878946255  0.4122482676633518
  0.3220080464539605  0.7312302657117703  0.4423917643859269
  0.3665164963085366  0.7341138834234083  0.4444370996460845
  0.3417159279860429  0.6912315840354910  0.4444673513110535
  0.3467955237885755  0.7454465713864382  0.4828514953848903
  0.3862278661181596  0.7454426246960902  0.4828587030109758
  0.3417096770673904  0.6683980599545518  0.4828587030109758
  0.2577926671224217  0.7969067805048997  0.4101727275433518
  0.2972250094520058  0.7969028338145517  0.4101799351694375
  0.2775102181902653  0.8310681545094164  0.4102025335421162
  0.2774996132781646  0.7569086526361637  0.4122482676633518
  0.2330029713735495  0.8339532173777023  0.4122482676633518
  0.2775114045493454  0.8082748304533086  0.4423917643859269
  0.2527163932581596  0.8224871894376288  0.4828587030109758
  0.2527226441768123  0.8453207135185677  0.4444673513110535
  0.2330050234485367  0.8111584481649468  0.4444370996460845
  0.2972192860814277  0.7682761487770295  0.4444673513110535
  0.2577853628970539  0.7682797726830843  0.4444614256657537
  0.3665144442335492  0.7569086526361637  0.4122482676633518
  0.3468121681416692  0.8197399818015461  0.3717826578242152
  0.3665250491456498  0.8310681545094164  0.4102025335421162
  0.3220178023289341  0.8339532173777023  0.4122482676633518
  0.3468074980778063  0.7969067805048997  0.4101727275433518
  0.3665262355047300  0.8082748304533086  0.4423917643859269
  0.3220198544039212  0.8111584481649468  0.4444370996460845
  0.3023035519478231  0.8453243374246229  0.4444614256657537
  0.3468001938524385  0.7682797726830843  0.4444614256657537
  0.3417312242135442  0.8224871894376288  0.4828587030109758
  0.3022988818839601  0.8224911361279766  0.4828514953848903
  0.3417374751321968  0.8453207135185677  0.4444673513110535
  0.0994244556427802  0.4998991049161639  0.5576058033464286
  0.0994265077177673  0.4771043357034084  0.5897946353291614
  0.1439330718366262  0.4743147492930870  0.4849270355048902
  0.1439317024594959  0.4970140420478781  0.5555600692251931
  0.0746379136845044  0.4856822454339526  0.5171461191525918
  0.0549182408812417  0.4743147492930870  0.4849270355048902
  0.1439328888185762  0.4742207179917702  0.5877493000690038
  0.1242188214555154  0.4856858693400075  0.5171401935072921
  0.1636527446398890  0.4856822454339526  0.5171461191525918
  0.1687250362170539  0.5112702249630843  0.5898189613488307
  0.1439436767487269  0.5484742511663396  0.4828813013836548
  0.0994364299320109  0.5513593140346255  0.4849270355048902
  0.1439448631078069  0.5256809271102318  0.5150705322274655
  0.0994384820069981  0.5285645448218699  0.5171158674876231
  0.1439566710577675  0.6056091095634085  0.5171158674876231
  0.1191561027352737  0.5627268101754911  0.5171461191525918
  0.1191498518166212  0.5398932860945519  0.5555374708525144
  0.1439446967685366  0.5541489004449468  0.5897946353291614
  0.1439426446935493  0.5769436696577023  0.5576058033464286
  0.2526675755952736  0.4856822454339526  0.5171461191525918
  0.1884533129623828  0.5285645448218699  0.5171158674876231
  0.2132336524109000  0.4856858693400075  0.5171401935072921
  0.2329479027920109  0.4743147492930870  0.4849270355048902
  0.2329596940631916  0.5256809271102318  0.5150705322274655
  0.2081646827720057  0.5398932860945519  0.5555374708525144
  0.2329465334148806  0.4970140420478781  0.5555600692251931
  0.1884413386731520  0.4771043357034084  0.5897946353291614
  0.1884392865981646  0.4998991049161639  0.5576058033464286
  0.1884630521585762  0.6027254918517700  0.5150705322274655
  0.2329585077041114  0.5484742511663396  0.4828813013836548
  0.1884512608873954  0.5513593140346255  0.4849270355048902
  0.2081709336906582  0.5627268101754911  0.5171461191525918
  0.1687370105062845  0.5627304340815459  0.5171401935072921
  0.2329715020131521  0.6056091095634085  0.5171158674876231
  0.1687323404424217  0.5398972327849000  0.5555302632264286
  0.1884498915102653  0.5740586067894166  0.5555600692251931
  0.1884510778693453  0.5512652827333087  0.5877493000690038
  0.2329574756489338  0.5769436696577023  0.5576058033464286
  0.2329595277239209  0.5541489004449468  0.5897946353291614
  0.2132432252678232  0.5883147897046229  0.5898189613488307
  0.1884391035801146  0.4998050736148471  0.6604280679105424
  0.1687203661531908  0.4884370236664384  0.6282090310679671
  0.1191378775273903  0.4884330769760902  0.6282162386940529
  0.1191441284460429  0.5112666010570295  0.5898248869941304
  0.1439327224793057  0.5026886913264852  0.6624734031706999
  0.1884379172210342  0.5225983976709548  0.6282388370667316
  0.1439306704043186  0.5254834605392408  0.6302845711879672
  0.1884488594550876  0.6025280252807792  0.6302845711879672
  0.1636560665781596  0.5654776417176287  0.6282162386940529
  0.1636623174968122  0.5883111657985681  0.5898248869941304
  0.1636503432075813  0.5368509566801064  0.6625036548356688
  0.2081527084827750  0.4884330769760902  0.6282162386940529
  0.2081589594014276  0.5112666010570295  0.5898248869941304
  0.2132312509785925  0.5368545805861614  0.6624977291903692
  0.2329455013597031  0.5254834605392408  0.6302845711879672
  0.2526651741629660  0.5368509566801064  0.6625036548356688
  0.2329475534346904  0.5026886913264852  0.6624734031706999
  0.2526708975335443  0.5654776417176287  0.6282162386940529
  0.2132385552039600  0.5654815884079767  0.6282090310679671
  0.2329572926308839  0.5768496383563854  0.6604280679105424
  0.2526771484521969  0.5883111657985681  0.5898248869941304
  0.1884509115300752  0.5797332560680237  0.6624734031706999
  0.2329561062718036  0.5996429624124935  0.6282388370667316
  0.1884249108766262  0.4996076070438562  0.7756421068710440
  0.1636440922889289  0.5140174325991672  0.7008950065355914
  0.1439186961150880  0.4740232514207793  0.7029633390295057
  0.1636383689183506  0.4853907475616450  0.7351824226772071
  0.2132192766893616  0.4853943714676998  0.7351764970319075
  0.2132265809147293  0.5140213792895151  0.7008877989095055
  0.2329321576933421  0.4967225441755704  0.7735963727498085
  0.2329333440524222  0.4739292201194624  0.8057856035936191
  0.2526589232443134  0.5140174325991672  0.7008950065355914
  0.2526531998737351  0.4853907475616450  0.7351824226772071
  0.2329335270704725  0.4740232514207793  0.7029633390295057
  0.1884368851658571  0.5510678161623178  0.7029633390295057
  0.2329441319825729  0.5481827532940318  0.7009176049082699
  0.2081622813396980  0.5910619973407057  0.7008950065355914
  0.2329453183416531  0.5253894292379241  0.7331068357520808
  0.2329571262916132  0.6053176116911007  0.7351521710122383
  0.1884389372408443  0.5282730469495623  0.7351521710122383
  0.2329430999273956  0.5766521717853947  0.7756421068710440
  0.2577327956762679  0.5396057349125921  0.7735665667510441
  0.2081565579691197  0.5624353123031833  0.7351824226772071
  0.2081503070504673  0.5396017882222442  0.7735737743771297
  0.3416824065506583  0.4856822454339526  0.5171461191525918
  0.3219613643702651  0.4970140420478781  0.5555600692251931
  0.3022484833662846  0.4856858693400075  0.5171401935072921
  0.3219745250185762  0.5256809271102318  0.5150705322274655
  0.2774681439177673  0.5285645448218699  0.5171158674876231
  0.3664829748731518  0.5285645448218699  0.5171158674876231
  0.3219627337473954  0.4743147492930870  0.4849270355048902
  0.2577471713978065  0.5398972327849000  0.5555302632264286
  0.2971795137273904  0.5398932860945519  0.5555374708525144
  0.3467620023531909  0.5398972327849000  0.5555302632264286
  0.3219733386594959  0.5484742511663396  0.4828813013836548
  0.2774660918427801  0.5513593140346255  0.4849270355048902
  0.2774647224656498  0.5740586067894166  0.5555600692251931
  0.2577518414616691  0.5627304340815459  0.5171401935072921
  0.2774778831139608  0.6027254918517700  0.5150705322274655
  0.2971857646460428  0.5627268101754911  0.5171461191525918
  0.3467666724170537  0.5627304340815459  0.5171401935072921
  0.3664795534210343  0.5740586067894166  0.5555600692251931
  0.3664927140693452  0.6027254918517700  0.5150705322274655
  0.3664809227981647  0.5513593140346255  0.4849270355048902
  0.3862005956014277  0.5627268101754911  0.5171461191525918
  0.2774541175535492  0.4998991049161639  0.5576058033464286
  0.2577351971085755  0.4884370236664384  0.6282090310679671
  0.2774561696285364  0.4771043357034084  0.5897946353291614
  0.3219625507293455  0.4742207179917702  0.5877493000690038
  0.2971675394381595  0.4884330769760902  0.6282162386940529
  0.2971737903568123  0.5112666010570295  0.5898248869941304
  0.2577398671724386  0.5112702249630843  0.5898189613488307
  0.2774527481764190  0.5225983976709548  0.6282388370667316
  0.2774659088247300  0.5512652827333087  0.5877493000690038
  0.3022533861593447  0.5654815884079767  0.6282090310679671
  0.3022580562232079  0.5883147897046229  0.5898189613488307
  0.3219709372271881  0.5996429624124935  0.6282388370667316
  0.3861886213121968  0.5112666010570295  0.5898248869941304
  0.3861823703935442  0.4884330769760902  0.6282162386940529
  0.3664710005839211  0.4771043357034084  0.5897946353291614
  0.3664689485089340  0.4998991049161639  0.5576058033464286
  0.3467500280639604  0.4884370236664384  0.6282090310679671
  0.3467546981278229  0.5112702249630843  0.5898189613488307
  0.3664675791318036  0.5225983976709548  0.6282388370667316
  0.3664807397801146  0.5512652827333087  0.5877493000690038
  0.3219743586793057  0.5541489004449468  0.5897946353291614
  0.3416857284889289  0.5654776417176287  0.6282162386940529
  0.3219723066043185  0.5769436696577023  0.5576058033464286
  0.3416919794075814  0.5883111657985681  0.5898248869941304
  0.3022414118701140  0.5140213792895151  0.7008877989095055
  0.2774539345354993  0.4998050736148471  0.6604280679105424
  0.3219589629379574  0.5481827532940318  0.7009176049082699
  0.3022460819339772  0.5368545805861614  0.6624977291903692
  0.3219483580258571  0.4740232514207793  0.7029633390295057
  0.3219603323150878  0.5254834605392408  0.6302845711879672
  0.3219623843900749  0.5026886913264852  0.6624734031706999
  0.3664687654908838  0.4998050736148471  0.6604280679105424
  0.3416800051183505  0.5368509566801064  0.6625036548356688
  0.3416737541996981  0.5140174325991672  0.7008950065355914
  0.2774636904104724  0.6025280252807792  0.6302845711879672
  0.2774517161212418  0.5510678161623178  0.7029633390295057
  0.2577447699654986  0.5910659440310536  0.7008877989095055
  0.2971771122950829  0.5910619973407057  0.7008950065355914
  0.2774657424854597  0.5797332560680237  0.6624734031706999
  0.2971833632137352  0.6138955214216448  0.6625036548356688
  0.3219721235862684  0.5768496383563854  0.6604280679105424
  0.3467596009208831  0.5910659440310536  0.7008877989095055
  0.3664665470766263  0.5510678161623178  0.7029633390295057
  0.3664785213658567  0.6025280252807792  0.6302845711879672
  0.3664805734408442  0.5797332560680237  0.6624734031706999
  0.3861919432504675  0.5910619973407057  0.7008950065355914
  0.3022341076447461  0.4853943714676998  0.7351764970319075
  0.2774537681962289  0.5282730469495623  0.7351521710122383
  0.2971651380058520  0.5396017882222442  0.7735737743771297
  0.2774397418320109  0.4996076070438562  0.7756421068710440
  0.3219469886487267  0.4967225441755704  0.7735963727498085
  0.3219481750078067  0.4739292201194624  0.8057856035936191
  0.3219601492970378  0.5253894292379241  0.7331068357520808
  0.3467476266316524  0.5396057349125921  0.7735665667510441
  0.3664685991516135  0.5282730469495623  0.7351521710122383
  0.3861799689612367  0.5396017882222442  0.7735737743771297
  0.3416680308291199  0.4853907475616450  0.7351824226772071
  0.3664545727873956  0.4996076070438562  0.7756421068710440
  0.2774515331031915  0.5509737848610010  0.8057856035936191
  0.2774503467441113  0.5737671089171088  0.7735963727498085
  0.2577374657401308  0.5624389362092383  0.7351764970319075
  0.2971713889245045  0.5624353123031833  0.7351824226772071
  0.2774635073924223  0.6024339939794625  0.7331068357520808
  0.3219579308827802  0.5766521717853947  0.7756421068710440
  0.3219719572469980  0.6053176116911007  0.7351521710122383
  0.3664663640585758  0.5509737848610010  0.8057856035936191
  0.3467522966955155  0.5624389362092383  0.7351764970319075
  0.3664651776994960  0.5737671089171088  0.7735963727498085
  0.3664783383478070  0.6024339939794625  0.7331068357520808
  0.3861862198798891  0.5624353123031833  0.7351824226772071
  0.1884618657994960  0.6255188159078782  0.4828813013836548
  0.1439546189827801  0.6284038787761640  0.4849270355048902
  0.1884748601085366  0.6826536743049468  0.5171158674876231
  0.2132551995570537  0.6397749988230844  0.5171401935072921
  0.1636742917860429  0.6397713749170296  0.5171461191525918
  0.1884628858193058  0.6311934651864853  0.5897946353291614
  0.1884608337443186  0.6539882343992409  0.5576058033464286
  0.1636680408673903  0.6169378508360902  0.5555374708525144
  0.2132505294931909  0.6169417975264383  0.5555302632264286
  0.2329812412093452  0.6797700565933086  0.5150705322274655
  0.2774766967548806  0.6255188159078782  0.4828813013836548
  0.2329694499381647  0.6284038787761640  0.4849270355048902
  0.2774896910639212  0.6826536743049468  0.5171158674876231
  0.2526891227414274  0.6397713749170296  0.5171461191525918
  0.2526828718227749  0.6169378508360902  0.5555374708525144
  0.2329692669201146  0.6283098474748471  0.5877493000690038
  0.2577614143185923  0.6653593544461612  0.5898189613488307
  0.2774777167746904  0.6311934651864853  0.5897946353291614
  0.2774756646997031  0.6539882343992409  0.5576058033464286
  0.2329680805610345  0.6511031715309549  0.5555600692251931
  0.1884728080335494  0.7054484435177023  0.4849270355048902
  0.2774876389889339  0.7054484435177023  0.4849270355048902
  0.2329800548502652  0.7025633806494165  0.4828813013836548
  0.2081924808368122  0.7168159396585678  0.5171461191525918
  0.2577733886078232  0.7168195635646230  0.5171401935072921
  0.2577687185439602  0.6939863622679768  0.5555302632264286
  0.2081862299181596  0.6939824155776287  0.5555374708525144
  0.2329790227950878  0.7310327991407792  0.5576058033464286
  0.2329810748700749  0.7082380299280239  0.5897946353291614
  0.2774994302601146  0.7568146213348470  0.5150705322274655
  0.2775091861350878  0.8595375730007792  0.4849270355048902
  0.2329909970843186  0.7824930082592408  0.4849270355048902
  0.2774982439010345  0.7796079453909550  0.4828813013836548
  0.2775112382100750  0.8367428037880238  0.5171158674876231
  0.2329930491593058  0.7596982390464853  0.5171158674876231
  0.2527044189689288  0.7710269803191672  0.5555374708525144
  0.2527106698875815  0.7938605044001065  0.5171461191525918
  0.2774972118458570  0.8080773638823177  0.5576058033464286
  0.2774992639208441  0.7852825946695622  0.5897946353291614
  0.3219842808935492  0.6284038787761640  0.4849270355048902
  0.3664915277102652  0.6255188159078782  0.4828813013836548
  0.3022653604485756  0.6169417975264383  0.5555302632264286
  0.3416977027781595  0.6169378508360902  0.5555374708525144
  0.3219840978754993  0.6283098474748471  0.5877493000690038
  0.3664925477300751  0.6311934651864853  0.5897946353291614
  0.3664904956550877  0.6539882343992409  0.5576058033464286
  0.3467762452739768  0.6653593544461612  0.5898189613488307
  0.3665045220193058  0.6826536743049468  0.5171158674876231
  0.3665024699443185  0.7054484435177023  0.4849270355048902
  0.3219960721647299  0.6797700565933086  0.5150705322274655
  0.3219948858056497  0.7025633806494165  0.4828813013836548
  0.3467882195632077  0.7168195635646230  0.5171401935072921
  0.3862221427475813  0.7168159396585678  0.5171461191525918
  0.2972073117921966  0.7168159396585678  0.5171461191525918
  0.3467835494993449  0.6939863622679768  0.5555302632264286
  0.3665022869262685  0.7053544122163857  0.5877493000690038
  0.3862158918289288  0.6939824155776287  0.5555374708525144
  0.3665011005671883  0.7281477362724935  0.5555600692251931
  0.3665142612154991  0.7568146213348470  0.5150705322274655
  0.3665130748564191  0.7796079453909550  0.4828813013836548
  0.3220058280397033  0.7824930082592408  0.4849270355048902
  0.3220078801146905  0.7596982390464853  0.5171158674876231
  0.3417255008429661  0.7938605044001065  0.5171461191525918
  0.3417192499243133  0.7710269803191672  0.5555374708525144
  0.3022869075947294  0.7710309270095153  0.5555302632264286
  0.3219938537504724  0.7310327991407792  0.5576058033464286
  0.3220056450216530  0.7823989769579239  0.5877493000690038
  0.3665140948762286  0.7852825946695622  0.5897946353291614
  0.3220164329518038  0.8566525101324934  0.4828813013836548
  0.3022915776585924  0.7938641283061613  0.5171401935072921
  0.3220176193108839  0.8338591860763855  0.5150705322274655
  0.3468050966454987  0.8480754917510535  0.5555302632264286
  0.2972226080196981  0.8480715450607056  0.5555374708525144
  0.3220044586625730  0.8051923010140318  0.5555600692251931
  0.3665120428012415  0.8080773638823177  0.5576058033464286
  0.3467977924201309  0.8194484839292382  0.5898189613488307
  0.3665238340724223  0.8594435416994624  0.5877493000690038
  0.2526867213091197  0.6909400861631831  0.6625036548356688
  0.2081742556289288  0.6425222064591671  0.6282162386940529
  0.2081685322583507  0.6138955214216448  0.6625036548356688
  0.2329691005808442  0.6567778208095622  0.6624734031706999
  0.2081805065475814  0.6653557305401064  0.5898248869941304
  0.2329670485058569  0.6795725900223177  0.6302845711879672
  0.2577494400293615  0.6138991453276997  0.6624977291903692
  0.2577567442547294  0.6425261531495153  0.6282090310679671
  0.2774754816816530  0.6538942030979240  0.6604280679105424
  0.2774742953225729  0.6766875271540320  0.6282388370667316
  0.2971890865843133  0.6425222064591671  0.6282162386940529
  0.3219818794612416  0.6795725900223177  0.6302845711879672
  0.2971953375029659  0.6653557305401064  0.5898248869941304
  0.3862039175396981  0.6425222064591671  0.6282162386940529
  0.3664891262779574  0.6766875271540320  0.6282388370667316
  0.3467715752101141  0.6425261531495153  0.6282090310679671
  0.3862101684583507  0.6653557305401064  0.5898248869941304
  0.3467642709847463  0.6138991453276997  0.6624977291903692
  0.3861981941691198  0.6138955214216448  0.6625036548356688
  0.3664903126370377  0.6538942030979240  0.6604280679105424
  0.3417015522645044  0.6909400861631831  0.6625036548356688
  0.3022629590162677  0.6681105087725919  0.7008877989095055
  0.2526804703904674  0.6681065620822442  0.7008950065355914
  0.2526684961012365  0.6166463529637825  0.7735737743771297
  0.2526747470198890  0.6394798770447219  0.7351824226772071
  0.2329550742166263  0.6281123809038562  0.7029633390295057
  0.2774612889781646  0.6536967365269331  0.7756421068710440
  0.2774623210333422  0.6252273180355703  0.7009176049082699
  0.2971866851520057  0.6936909177053211  0.7735737743771297
  0.2774753153423827  0.6823621764326393  0.7351521710122383
  0.3022509847270372  0.6166502996541308  0.7735665667510441
  0.3664901462977674  0.6823621764326393  0.7351521710122383
  0.3219699051720110  0.6281123809038562  0.7029633390295057
  0.3664771519887267  0.6252273180355703  0.7009176049082699
  0.3219816964431915  0.6794785587210008  0.7331068357520808
  0.3022556547909001  0.6394835009507767  0.7351764970319075
  0.3416895779752736  0.6394798770447219  0.7351824226772071
  0.3467691737778063  0.6936948643956691  0.7735665667510441
  0.3664761199335493  0.6536967365269331  0.7756421068710440
  0.3862015161073905  0.6936909177053211  0.7735737743771297
  0.3219697221539607  0.6280183496025394  0.8057856035936191
  0.3416833270566212  0.6166463529637825  0.7735737743771297
  0.3219685357948806  0.6508116736586474  0.7735963727498085
  0.2526986955983507  0.7424002952816448  0.5898248869941304
  0.2774872896316134  0.7338223855511005  0.6624734031706999
  0.2526924446796979  0.7195667712007057  0.6282162386940529
  0.3022749333054986  0.7195707178910535  0.6282090310679671
  0.3219924843733420  0.7537320918955703  0.6282388370667316
  0.3219936707324221  0.7309387678394624  0.6604280679105424
  0.3417135265537352  0.7424002952816448  0.5898248869941304
  0.3417072756350826  0.7195667712007057  0.6282162386940529
  0.3665021205869980  0.7338223855511005  0.6624734031706999
  0.3665000685120108  0.7566171547638563  0.6302845711879672
  0.2774852375566261  0.7566171547638563  0.6302845711879672
  0.2972049103598890  0.7679846509047216  0.6625036548356688
  0.2972168846491201  0.8194448600231833  0.5898248869941304
  0.3417230994106584  0.8450292156462602  0.6625036548356688
  0.3467931223562679  0.7966152826325922  0.6282090310679671
  0.3665106734241113  0.8307766566371088  0.6282388370667316
  0.3467858181309000  0.7679882748107768  0.6624977291903692
  0.3665118597831915  0.8079833325810009  0.6604280679105424
  0.3862254646858518  0.7966113359422442  0.6282162386940529
  0.3862197413152735  0.7679846509047216  0.6625036548356688
  0.2971929360706582  0.7165244417862603  0.7351824226772071
  0.2971986594412366  0.7451511268237827  0.7008950065355914
  0.2774732632673955  0.7051569456453947  0.7029633390295057
  0.3219794780289338  0.7307413012684718  0.7756421068710440
  0.3467738438416692  0.7165280656923152  0.7351764970319075
  0.3467811480670370  0.7451550735141305  0.7008877989095055
  0.3664867248456498  0.7278562384001857  0.7735963727498085
  0.3862077670260429  0.7165244417862603  0.7351824226772071
  0.3862134903966211  0.7451511268237827  0.7008950065355914
  0.3664879112047298  0.7050629143440780  0.8057856035936191
  0.3664880942227802  0.7051569456453947  0.7029633390295057
  0.3665096413689340  0.8592460751284715  0.7029633390295057
  0.3664986991348804  0.7793164475186471  0.7009176049082699
  0.3417168484920058  0.8221956915653210  0.7008950065355914
  0.3219914523181648  0.7822015103869331  0.7029633390295057
  0.3664998854939607  0.7565231234625394  0.7331068357520808
  0.3219935043931518  0.7594067411741774  0.7351521710122383
  0.3665116934439212  0.8364513059157160  0.7351521710122383
  0.3417111251214275  0.7935690065277986  0.7351824226772071
  0.3862230632535442  0.8477800471883979  0.7735737743771297
  0.3417048742027750  0.7707354824468595  0.7735737743771297
  0.3664976670797032  0.8077858660100100  0.7756421068710440
  0.3912776900432077  0.4859773672123152  0.2991038899826768
  0.4110037316954991  0.5259724249825394  0.2970342287028500
  0.4802925209985922  0.4859773672123152  0.2991038899826768
  0.4555121815500751  0.5288560426941777  0.2990795639630076
  0.4357958790939769  0.5630219319538535  0.2991038899826768
  0.4752298022783505  0.5630183080477987  0.2991098156279764
  0.4307116132275812  0.4859737433062601  0.2991098156279764
  0.4357912090301139  0.5401887306572075  0.3374939597018133
  0.4752235513596980  0.5401847839668594  0.3375011673278990
  0.4110035653562286  0.5544403983172546  0.3717583318045461
  0.4109905710471883  0.4973055399201857  0.3375237657005778
  0.4109917574062684  0.4745122158640779  0.3697129965443885
  0.4357792347408833  0.4887285215387460  0.4101727275433518
  0.4357839048047463  0.5115617228353920  0.3717826578242152
  0.4554981551858570  0.5001906027884716  0.3395694998218133
  0.4555002072608438  0.4773958335757161  0.3717583318045461
  0.4555099464570377  0.5515567806056164  0.3697129965443885
  0.5000065883616528  0.4745122158640779  0.3697129965443885
  0.4752178279891198  0.5115580989293372  0.3717885834695149
  0.5000054020025728  0.4973055399201857  0.3375237657005778
  0.4110121181933422  0.6513946694032626  0.3375237657005778
  0.4307331603737351  0.6400628727893370  0.2991098156279764
  0.4803093980808831  0.6172332953987459  0.3374939597018133
  0.4803140681447462  0.6400664966953921  0.2991038899826768
  0.4307269094550825  0.6172293487083979  0.3375011673278990
  0.4555087600979576  0.5743501046617242  0.3375237657005778
  0.4555219207462685  0.6030169897240779  0.2970342287028500
  0.3912945671254985  0.6172332953987459  0.3374939597018133
  0.4110155396454597  0.6059006074357158  0.2990795639630076
  0.3912992371893616  0.6400664966953921  0.2991038899826768
  0.4110015132812416  0.5772351675300100  0.3395694998218133
  0.3912825928362678  0.5657730862802846  0.4101727275433518
  0.3912872629001308  0.5886062875769306  0.3717826578242152
  0.4110133045524224  0.6286013453471551  0.3697129965443885
  0.4307211860845044  0.5886026636708755  0.3717885834695149
  0.4555217544069980  0.6314849630587932  0.3717583318045461
  0.4803020938555154  0.5886062875769306  0.3717826578242152
  0.4358007818870370  0.6428176510218228  0.4101727275433518
  0.4802974237916525  0.5657730862802846  0.4101727275433518
  0.4555197023320108  0.6542797322715486  0.3395694998218133
  0.6087412751383505  0.4859737433062601  0.2991098156279764
  0.5248107100493616  0.5630219319538535  0.2991038899826768
  0.5445270125054598  0.5288560426941777  0.2990795639630076
  0.5000185626508837  0.5259724249825394  0.2970342287028500
  0.5642446332337352  0.5630183080477987  0.2991098156279764
  0.5890333936062685  0.5259724249825394  0.2970342287028500
  0.5693073519539771  0.4859773672123152  0.2991038899826768
  0.5197264441829659  0.4859737433062601  0.2991098156279764
  0.5248060399854988  0.5401887306572075  0.3374939597018133
  0.5890202329579577  0.4973055399201857  0.3375237657005778
  0.5642383823150824  0.5401847839668594  0.3375011673278990
  0.5445235910533422  0.5743501046617242  0.3375237657005778
  0.5445129861412417  0.5001906027884716  0.3395694998218133
  0.5247940656962679  0.4887285215387460  0.4101727275433518
  0.5247987357601307  0.5115617228353920  0.3717826578242152
  0.5693122547470369  0.5657730862802846  0.4101727275433518
  0.5000183963116133  0.5544403983172546  0.3717583318045461
  0.5890214193170377  0.4745122158640779  0.3697129965443885
  0.5445150382162289  0.4773958335757161  0.3717583318045461
  0.5445247774124221  0.5515567806056164  0.3697129965443885
  0.5642326589445046  0.5115580989293372  0.3717885834695149
  0.5890332272669982  0.5544403983172546  0.3717583318045461
  0.5693288991001307  0.6400664966953921  0.2991038899826768
  0.5000303706008444  0.6059006074357158  0.2990795639630076
  0.5445367517016534  0.6030169897240779  0.2970342287028500
  0.5890417801041115  0.6513946694032626  0.3375237657005778
  0.5693242290362679  0.6172332953987459  0.3374939597018133
  0.5197479913291198  0.6400628727893370  0.2991098156279764
  0.5197417404104672  0.6172293487083979  0.3375011673278990
  0.5000269491487267  0.6513946694032626  0.3375237657005778
  0.5000163442366261  0.5772351675300100  0.3395694998218133
  0.5197360170398890  0.5886026636708755  0.3717885834695149
  0.5248156128424216  0.6428176510218228  0.4101727275433518
  0.5000281355078066  0.6286013453471551  0.3697129965443885
  0.5445345332873954  0.6542797322715486  0.3395694998218133
  0.5445365853623829  0.6314849630587932  0.3717583318045461
  0.5642542060906582  0.6656472284124142  0.3717885834695149
  0.5693169248109000  0.5886062875769306  0.3717826578242152
  0.5890311751920109  0.5772351675300100  0.3395694998218133
  0.6087508479952737  0.5886026636708755  0.3717885834695149
  0.5890429664631917  0.6286013453471551  0.3697129965443885
  0.4307092117952736  0.5371424545524142  0.4444673513110535
  0.4109895389920108  0.5257749584115485  0.4122482676633518
  0.4307029608766209  0.5143089304714749  0.4828587030109758
  0.3912706185470370  0.5143128771618228  0.4828514953848903
  0.3912752886109001  0.5371460784584690  0.4444614256657537
  0.4109915910669979  0.5029801891987928  0.4444370996460845
  0.4554967858087267  0.5228898955432626  0.4102025335421162
  0.4752115770704671  0.4887245748483979  0.4101799351694375
  0.4554979721678070  0.5000965714871546  0.4423917643859269
  0.4802854495024216  0.5143128771618228  0.4828514953848903
  0.4802901195662846  0.5371460784584690  0.4444614256657537
  0.4306972375060430  0.4856822454339526  0.5171461191525918
  0.4109881696148808  0.5484742511663396  0.4828813013836548
  0.3912633143216692  0.4856858693400075  0.5171401935072921
  0.4109775647027801  0.4743147492930870  0.4849270355048902
  0.4109893559739608  0.5256809271102318  0.5150705322274655
  0.4554978058285365  0.5285645448218699  0.5171158674876231
  0.4802781452770539  0.4856858693400075  0.5171401935072921
  0.4999923956581647  0.4743147492930870  0.4849270355048902
  0.5000041869293455  0.5256809271102318  0.5150705322274655
  0.5000030005702651  0.5484742511663396  0.4828813013836548
  0.4110013302631917  0.5771411362286931  0.4423917643859269
  0.4307149351658517  0.5657691395899365  0.4101799351694375
  0.4555097801177671  0.5800247539403315  0.4444370996460845
  0.4357888075978064  0.5913574419033613  0.4828514953848903
  0.4110001439041114  0.5999344602848011  0.4102025335421162
  0.4752274008460429  0.6141870192939527  0.4444673513110535
  0.4555077280427800  0.6028195231530870  0.4122482676633518
  0.4357934776616692  0.6141906432000074  0.4444614256657537
  0.4110131382131519  0.6570693186818697  0.4444370996460845
  0.4555195193139608  0.6541857009702317  0.4423917643859269
  0.4752331242166210  0.6428137043314749  0.4101799351694375
  0.4752211499273902  0.5913534952130133  0.4828587030109758
  0.4752154265568123  0.5627268101754911  0.5171461191525918
  0.4554957537535493  0.5513593140346255  0.4849270355048902
  0.4357815033724384  0.5627304340815459  0.5171401935072921
  0.4555075450247300  0.6027254918517700  0.5150705322274655
  0.4110011639239212  0.6056091095634085  0.5171158674876231
  0.4555063586656500  0.6255188159078782  0.4828813013836548
  0.4109991118489341  0.6284038787761640  0.4849270355048902
  0.3912848614678230  0.6397749988230844  0.5171401935072921
  0.4307187846521969  0.6397713749170296  0.5171461191525918
  0.4802996924232076  0.6397749988230844  0.5171401935072921
  0.5197297661212361  0.5657691395899365  0.4101799351694375
  0.5000043699473954  0.5257749584115485  0.4122482676633518
  0.5197240427506583  0.5371424545524142  0.4444673513110535
  0.5000064220223824  0.5029801891987928  0.4444370996460845
  0.5445116167641112  0.5228898955432626  0.4102025335421162
  0.5445128031231915  0.5000965714871546  0.4423917643859269
  0.5890212529777672  0.5029801891987928  0.4444370996460845
  0.5890192009027801  0.5257749584115485  0.4122482676633518
  0.5693049505216691  0.5371460784584690  0.4444614256657537
  0.5642264080258519  0.4887245748483979  0.4101799351694375
  0.6087388737060430  0.5371424545524142  0.4444673513110535
  0.5197177918320055  0.5143089304714749  0.4828587030109758
  0.5197120684614275  0.4856822454339526  0.5171461191525918
  0.5247963343278230  0.5627304340815459  0.5171401935072921
  0.5642302575121968  0.5627268101754911  0.5171461191525918
  0.5445126367839213  0.5285645448218699  0.5171158674876231
  0.5445105847089339  0.5513593140346255  0.4849270355048902
  0.5692929762324384  0.4856858693400075  0.5171401935072921
  0.5693002804578065  0.5143128771618228  0.4828514953848903
  0.5890072266135494  0.4743147492930870  0.4849270355048902
  0.5890190178847298  0.5256809271102318  0.5150705322274655
  0.5890178315256498  0.5484742511663396  0.4828813013836548
  0.6087268994168122  0.4856822454339526  0.5171461191525918
  0.6087326227873904  0.5143089304714749  0.4828587030109758
  0.5000279691685364  0.6570693186818697  0.4444370996460845
  0.5000161612185762  0.5771411362286931  0.4423917643859269
  0.5000149748594960  0.5999344602848011  0.4102025335421162
  0.5445246110731519  0.5800247539403315  0.4444370996460845
  0.5445225589981650  0.6028195231530870  0.4122482676633518
  0.5248083086170539  0.6141906432000074  0.4444614256657537
  0.5445343502693454  0.6541857009702317  0.4423917643859269
  0.5642422318014276  0.6141870192939527  0.4444673513110535
  0.5890298058148807  0.5999344602848011  0.4102025335421162
  0.5642479551720058  0.6428137043314749  0.4101799351694375
  0.5890428001239213  0.6570693186818697  0.4444370996460845
  0.5890309921739607  0.5771411362286931  0.4423917643859269
  0.6087445970766211  0.5657691395899365  0.4101799351694375
  0.5248036385531908  0.5913574419033613  0.4828514953848903
  0.5000139428043185  0.6284038787761640  0.4849270355048902
  0.5000159948793058  0.6056091095634085  0.5171158674876231
  0.5197336156075814  0.6397713749170296  0.5171461191525918
  0.5445211896210346  0.6255188159078782  0.4828813013836548
  0.5445223759801145  0.6027254918517700  0.5150705322274655
  0.5642359808827748  0.5913534952130133  0.4828587030109758
  0.5693145233785923  0.6397749988230844  0.5171401935072921
  0.5890287737597035  0.6284038787761640  0.4849270355048902
  0.5890308258346905  0.6056091095634085  0.5171158674876231
  0.6087484465629660  0.6397713749170296  0.5171461191525918
  0.4110252788416530  0.6800615544656162  0.2970342287028500
  0.4555434678924222  0.7571061192071548  0.2970342287028500
  0.4752513494245043  0.7171074375308757  0.2991098156279764
  0.3862365184691199  0.7171074375308757  0.2991098156279764
  0.4358174262401311  0.7171110614369304  0.2991038899826768
  0.4555337286962288  0.6829451721772545  0.2990795639630076
  0.4110230604273954  0.7313242970130869  0.3395694998218133
  0.4752450985058519  0.6942739134499365  0.3375011673278990
  0.4358127561762681  0.6942778601402845  0.3374939597018133
  0.4555303072441115  0.7284392341448012  0.3375237657005778
  0.3913088100462847  0.7426954170600074  0.3717826578242152
  0.4110216910502653  0.7540235897678780  0.4102025335421162
  0.3913041399824218  0.7198622157633614  0.4101727275433518
  0.4110251125023825  0.7085295278003314  0.3717583318045461
  0.4307364823120057  0.7198582690730134  0.4101799351694375
  0.4307427332306584  0.7426917931539525  0.3717885834695149
  0.4555183329548806  0.6769790250263396  0.4102025335421162
  0.4803189709378063  0.7198622157633614  0.4101727275433518
  0.4555314936031915  0.7056459100886932  0.3697129965443885
  0.4803236410016695  0.7426954170600074  0.3717826578242152
  0.4358054519509001  0.6656508523184692  0.3717826578242152
  0.4752393751352736  0.6656472284124142  0.3717885834695149
  0.4803309452270370  0.7713224248818228  0.3374939597018133
  0.4307547075198890  0.7941520022724139  0.2991098156279764
  0.4358343033224217  0.8483669896233613  0.3374939597018133
  0.4555552758423828  0.8370343016603314  0.2990795639630076
  0.4110468259878068  0.8341506839486931  0.2970342287028500
  0.4110370867916135  0.7599897369187930  0.2990795639630076
  0.3913161142716524  0.7713224248818228  0.3374939597018133
  0.3913207843355153  0.7941556261784688  0.2991038899826768
  0.4358223290331909  0.7969067805048997  0.4101727275433518
  0.3862460913260430  0.8197363578954909  0.3717885834695149
  0.4307484566012365  0.7713184781914748  0.3375011673278990
  0.4110336653394959  0.8054837988863396  0.3375237657005778
  0.3862398404073903  0.7969028338145517  0.4101799351694375
  0.4110348516985760  0.7826904748302317  0.3697129965443885
  0.3862518146966212  0.8483630429330133  0.3375011673278990
  0.4358269990970539  0.8197399818015461  0.3717826578242152
  0.4555398801010344  0.8310681545094164  0.4102025335421162
  0.4555433015531520  0.7855740925418699  0.3717583318045461
  0.4555412494781648  0.8083688617546254  0.3395694998218133
  0.4752546713627748  0.7969028338145517  0.4101799351694375
  0.4752609222814276  0.8197363578954909  0.3717885834695149
  0.4752666456520058  0.8483630429330133  0.3375011673278990
  0.5248275871316525  0.6942778601402845  0.3374939597018133
  0.5642661803798890  0.7171074375308757  0.2991098156279764
  0.5445582988478069  0.7571061192071548  0.2970342287028500
  0.5890549407524223  0.6800615544656162  0.2970342287028500
  0.5000401097970376  0.6800615544656162  0.2970342287028500
  0.5445485596516135  0.6829451721772545  0.2990795639630076
  0.5248322571955155  0.7171110614369304  0.2991038899826768
  0.5890527223381646  0.7313242970130869  0.3395694998218133
  0.5000378913827799  0.7313242970130869  0.3395694998218133
  0.5445451381994960  0.7284392341448012  0.3375237657005778
  0.5642599294612367  0.6942739134499365  0.3375011673278990
  0.5445463245585760  0.7056459100886932  0.3697129965443885
  0.5197513132673902  0.7198582690730134  0.4101799351694375
  0.5197575641860428  0.7426917931539525  0.3717885834695149
  0.5890547744131520  0.7085295278003314  0.3717583318045461
  0.5693384719570540  0.7426954170600074  0.3717826578242152
  0.5000399434577671  0.7085295278003314  0.3717583318045461
  0.5248202829062846  0.6656508523184692  0.3717826578242152
  0.5445331639102651  0.6769790250263396  0.4102025335421162
  0.5890513529610345  0.7540235897678780  0.4102025335421162
  0.5693338018931909  0.7198622157633614  0.4101727275433518
  0.5000365220056500  0.7540235897678780  0.4102025335421162
  0.5000519177469983  0.7599897369187930  0.2990795639630076
  0.5000616569431914  0.8341506839486931  0.2970342287028500
  0.5890764878985761  0.8341506839486931  0.2970342287028500
  0.5445701067977675  0.8370343016603314  0.2990795639630076
  0.5890667487023827  0.7599897369187930  0.2990795639630076
  0.5197695384752735  0.7941520022724139  0.2991098156279764
  0.4803356152909002  0.7941556261784688  0.2991038899826768
  0.5693504462462847  0.7941556261784688  0.2991038899826768
  0.5693457761824217  0.7713224248818228  0.3374939597018133
  0.5248491342778063  0.8483669896233613  0.3374939597018133
  0.5000496826539608  0.7826904748302317  0.3697129965443885
  0.5000484962948805  0.8054837988863396  0.3375237657005778
  0.5248371599885755  0.7969067805048997  0.4101727275433518
  0.5197632875566210  0.7713184781914748  0.3375011673278990
  0.5248418300524386  0.8197399818015461  0.3717826578242152
  0.5445547110564191  0.8310681545094164  0.4102025335421162
  0.5445560804335493  0.8083688617546254  0.3395694998218133
  0.5890645136093454  0.7826904748302317  0.3697129965443885
  0.5890633272502652  0.8054837988863396  0.3375237657005778
  0.5445581325085366  0.7855740925418699  0.3717583318045461
  0.5642814766073903  0.8483630429330133  0.3375011673278990
  0.5642757532368121  0.8197363578954909  0.3717885834695149
  0.5642695023181596  0.7969028338145517  0.4101799351694375
  0.4110228774093454  0.7312302657117703  0.4423917643859269
  0.4555313272639211  0.7341138834234083  0.4444370996460845
  0.4110110861381648  0.6798640878946255  0.4122482676633518
  0.4307307589414276  0.6912315840354910  0.4444673513110535
  0.3912968357570539  0.6912352079415458  0.4444614256657537
  0.4803116667124385  0.6912352079415458  0.4444614256657537
  0.4358030505185923  0.7168195635646230  0.5171401935072921
  0.3912921656931909  0.6684020066448997  0.4828514953848903
  0.4307245080227748  0.6683980599545518  0.4828587030109758
  0.4110097167610343  0.7025633806494165  0.4828813013836548
  0.4110109031201145  0.6797700565933086  0.5150705322274655
  0.4358103547439602  0.7454465713864382  0.4828514953848903
  0.4555173008997033  0.7054484435177023  0.4849270355048902
  0.4555193529746903  0.6826536743049468  0.5171158674876231
  0.4555290921708837  0.7568146213348470  0.5150705322274655
  0.5000245477164191  0.7025633806494165  0.4828813013836548
  0.4752369737029660  0.7168159396585678  0.5171461191525918
  0.4752426970735441  0.7454426246960902  0.4828587030109758
  0.4803069966485757  0.6684020066448997  0.4828514953848903
  0.3913183829032078  0.8453243374246229  0.4444614256657537
  0.3862341170368122  0.7682761487770295  0.4444673513110535
  0.3913137128393449  0.8224911361279766  0.4828514953848903
  0.4110346853593058  0.8111584481649468  0.4444370996460845
  0.4110326332843184  0.8339532173777023  0.4122482676633518
  0.4307523060875814  0.8453207135185677  0.4444673513110535
  0.4358150248078231  0.7682797726830843  0.4444614256657537
  0.4555292751889339  0.7569086526361637  0.4122482676633518
  0.4555410664601146  0.8082748304533086  0.4423917643859269
  0.4803285437947292  0.8224911361279766  0.4828514953848903
  0.4803332138585925  0.8453243374246229  0.4444614256657537
  0.4752489479921967  0.7682761487770295  0.4444673513110535
  0.4555279058118036  0.7796079453909550  0.4828813013836548
  0.4110227110700750  0.7596982390464853  0.5171158674876231
  0.4110206589950879  0.7824930082592408  0.4849270355048902
  0.4307403317983508  0.7938605044001065  0.5171461191525918
  0.3913064086139769  0.7938641283061613  0.5171401935072921
  0.4307460551689288  0.8224871894376288  0.4828587030109758
  0.4555409001208444  0.8367428037880238  0.5171158674876231
  0.4110312639071883  0.8566525101324934  0.4828813013836548
  0.5197455898968122  0.6912315840354910  0.4444673513110535
  0.5000259170935493  0.6798640878946255  0.4122482676633518
  0.5890407480489342  0.6798640878946255  0.4122482676633518
  0.5000377083647300  0.7312302657117703  0.4423917643859269
  0.5445441061443185  0.7569086526361637  0.4122482676633518
  0.5693264976678230  0.6912352079415458  0.4444614256657537
  0.5445461582193055  0.7341138834234083  0.4444370996460845
  0.5890525393201146  0.7312302657117703  0.4423917643859269
  0.5248251856993450  0.7454465713864382  0.4828514953848903
  0.5000257340754991  0.6797700565933086  0.5150705322274655
  0.5248178814739770  0.7168195635646230  0.5171401935072921
  0.5197393389781594  0.6683980599545518  0.4828587030109758
  0.5445341839300749  0.6826536743049468  0.5171158674876231
  0.5445321318550878  0.7054484435177023  0.4849270355048902
  0.5642518046583506  0.7168159396585678  0.5171461191525918
  0.5445439231262683  0.7568146213348470  0.5150705322274655
  0.5642575280289288  0.7454426246960902  0.4828587030109758
  0.5693218276039601  0.6684020066448997  0.4828514953848903
  0.5890405650308839  0.6797700565933086  0.5150705322274655
  0.5890393786718037  0.7025633806494165  0.4828813013836548
  0.6087541699335440  0.6683980599545518  0.4828587030109758
  0.5890523729808442  0.7596982390464853  0.5171158674876231
  0.5248298557632077  0.7682797726830843  0.4444614256657537
  0.5890643472700750  0.8111584481649468  0.4444370996460845
  0.5000474642397033  0.8339532173777023  0.4122482676633518
  0.5445558974154993  0.8082748304533086  0.4423917643859269
  0.5890622951950877  0.8339532173777023  0.4122482676633518
  0.5000495163146903  0.8111584481649468  0.4444370996460845
  0.5693433747501139  0.8224911361279766  0.4828514953848903
  0.5693480448139769  0.8453243374246229  0.4444614256657537
  0.5642637789475813  0.7682761487770295  0.4444673513110535
  0.5197671370429658  0.8453207135185677  0.4444673513110535
  0.5197608861243134  0.8224871894376288  0.4828587030109758
  0.5445427367671882  0.7796079453909550  0.4828813013836548
  0.5890503209058573  0.7824930082592408  0.4849270355048902
  0.5000354899504724  0.7824930082592408  0.4849270355048902
  0.5693360705247462  0.7938641283061613  0.5171401935072921
  0.5000472812216531  0.8338591860763855  0.5150705322274655
  0.5890621121770377  0.8338591860763855  0.5150705322274655
  0.5445536790012417  0.8595375730007792  0.4849270355048902
  0.5000460948625729  0.8566525101324934  0.4828813013836548
  0.5890609258179574  0.8566525101324934  0.4828813013836548
  0.4307005594443135  0.5654776417176287  0.6282162386940529
  0.4109761953256498  0.4970140420478781  0.5555600692251931
  0.4109773816847299  0.4742207179917702  0.5877493000690038
  0.4109751632704723  0.5254834605392408  0.6302845711879672
  0.4109772153454597  0.5026886913264852  0.6624734031706999
  0.4357648590193446  0.4884370236664384  0.6282090310679671
  0.4357768333085755  0.5398972327849000  0.5555302632264286
  0.4357695290832077  0.5112702249630843  0.5898189613488307
  0.4752091756381596  0.5398932860945519  0.5555374708525144
  0.4554837794643184  0.4998991049161639  0.5576058033464286
  0.4999910262810345  0.4970140420478781  0.5555600692251931
  0.4554955707354991  0.5512652827333087  0.5877493000690038
  0.4999922126401145  0.4742207179917702  0.5877493000690038
  0.4554858315393055  0.4771043357034084  0.5897946353291614
  0.4752034522675815  0.5112666010570295  0.5898248869941304
  0.4999920463008441  0.5026886913264852  0.6624734031706999
  0.4999899942258570  0.5254834605392408  0.6302845711879672
  0.4751972013489288  0.4884330769760902  0.6282162386940529
  0.4554835964462683  0.4998050736148471  0.6604280679105424
  0.4554824100871880  0.5225983976709548  0.6282388370667316
  0.4554943843764190  0.5740586067894166  0.5555600692251931
  0.3912801914039602  0.6169417975264383  0.5555302632264286
  0.4802950223593448  0.6169417975264383  0.5555302632264286
  0.4307125337335441  0.6169378508360902  0.5555374708525144
  0.4555053266104725  0.6539882343992409  0.5576058033464286
  0.4109977424718038  0.6511031715309549  0.5555600692251931
  0.4357910762293615  0.6653593544461612  0.5898189613488307
  0.4109989288308839  0.6283098474748471  0.5877493000690038
  0.4555073786854594  0.6311934651864853  0.5897946353291614
  0.4802877181339769  0.5883147897046229  0.5898189613488307
  0.4307068103629662  0.5883111657985681  0.5898248869941304
  0.4554954043962288  0.5797332560680237  0.6624734031706999
  0.4802830480701137  0.5654815884079767  0.6282090310679671
  0.3912682171147296  0.5654815884079767  0.6282090310679671
  0.4109869545416530  0.5768496383563854  0.6604280679105424
  0.4109857681825728  0.5996429624124935  0.6282388370667316
  0.4554933523212416  0.6025280252807792  0.6302845711879672
  0.4752187484950827  0.6425222064591671  0.6282162386940529
  0.4357864061654988  0.6425261531495153  0.6282090310679671
  0.4109987624916134  0.6567778208095622  0.6624734031706999
  0.4555051435924221  0.6538942030979240  0.6604280679105424
  0.4752249994137353  0.6653557305401064  0.5898248869941304
  0.5247843600385923  0.5112702249630843  0.5898189613488307
  0.5247916642639601  0.5398972327849000  0.5555302632264286
  0.5000040205900748  0.5541489004449468  0.5897946353291614
  0.5445006624946902  0.4771043357034084  0.5897946353291614
  0.5444986104197029  0.4998991049161639  0.5576058033464286
  0.5247796899747292  0.4884370236664384  0.6282090310679671
  0.5197153903996977  0.5654776417176287  0.6282162386940529
  0.5444972410425729  0.5225983976709548  0.6282388370667316
  0.5000017854970376  0.5768496383563854  0.6604280679105424
  0.5444984274016531  0.4998050736148471  0.6604280679105424
  0.5445104016908838  0.5512652827333087  0.5877493000690038
  0.5445092153318037  0.5740586067894166  0.5555600692251931
  0.5890058572364192  0.4970140420478781  0.5555600692251931
  0.5642240065935441  0.5398932860945519  0.5555374708525144
  0.5890070435954993  0.4742207179917702  0.5877493000690038
  0.5890188515454592  0.5541489004449468  0.5897946353291614
  0.5642182832229661  0.5112666010570295  0.5898248869941304
  0.5692978790254986  0.5654815884079767  0.6282090310679671
  0.5890068772562288  0.5026886913264852  0.6624734031706999
  0.6087302213550826  0.5654776417176287  0.6282162386940529
  0.5642120323043136  0.4884330769760902  0.6282162386940529
  0.5890048251812415  0.5254834605392408  0.6302845711879672
  0.5890166164524223  0.5768496383563854  0.6604280679105424
  0.5197216413183509  0.5883111657985681  0.5898248869941304
  0.5000019685150877  0.5769436696577023  0.5576058033464286
  0.5000137597862685  0.6283098474748471  0.5877493000690038
  0.5000125734271884  0.6511031715309549  0.5555600692251931
  0.5197273646889288  0.6169378508360902  0.5555374708525144
  0.5248012371208831  0.6425261531495153  0.6282090310679671
  0.5445081832766262  0.6025280252807792  0.6302845711879672
  0.5000005991379574  0.5996429624124935  0.6282388370667316
  0.5000135934469980  0.6567778208095622  0.6624734031706999
  0.5445102353516134  0.5797332560680237  0.6624734031706999
  0.5445199745478069  0.6538942030979240  0.6604280679105424
  0.5445201575658569  0.6539882343992409  0.5576058033464286
  0.5890274043825729  0.6511031715309549  0.5555600692251931
  0.6087421956443133  0.6169378508360902  0.5555374708525144
  0.5890167994704723  0.5769436696577023  0.5576058033464286
  0.5693098533147293  0.6169417975264383  0.5555302632264286
  0.5890285907416531  0.6283098474748471  0.5877493000690038
  0.5445222096408440  0.6311934651864853  0.5897946353291614
  0.5642398303691198  0.6653557305401064  0.5898248869941304
  0.5693025490893616  0.5883147897046229  0.5898189613488307
  0.5890284244023825  0.6567778208095622  0.6624734031706999
  0.5642335794504673  0.6425222064591671  0.6282162386940529
  0.6087364722737353  0.5883111657985681  0.5898248869941304
  0.5890154300933421  0.5996429624124935  0.6282388370667316
  0.3912562428254986  0.5140213792895151  0.7008877989095055
  0.3912609128893617  0.5368545805861614  0.6624977291903692
  0.4109737938933421  0.5481827532940318  0.7009176049082699
  0.4109631889812417  0.4740232514207793  0.7029633390295057
  0.4109749802524223  0.5253894292379241  0.7331068357520808
  0.4306885851550827  0.5140174325991672  0.7008950065355914
  0.4306948360737353  0.5368509566801064  0.6625036548356688
  0.4999780199366262  0.4740232514207793  0.7029633390295057
  0.4802710737808832  0.5140213792895151  0.7008877989095055
  0.4802757438447463  0.5368545805861614  0.6624977291903692
  0.4554834301069980  0.5282730469495623  0.7351521710122383
  0.4109618196041113  0.4967225441755704  0.7735963727498085
  0.3912489386001308  0.4853943714676998  0.7351764970319075
  0.4306828617845045  0.4853907475616450  0.7351824226772071
  0.4109630059631912  0.4739292201194624  0.8057856035936191
  0.4357624575870371  0.5396057349125921  0.7735665667510441
  0.4554694037427801  0.4996076070438562  0.7756421068710440
  0.4999778369185761  0.4739292201194624  0.8057856035936191
  0.4751947999166212  0.5396017882222442  0.7735737743771297
  0.4554811950139606  0.5509737848610010  0.8057856035936191
  0.4999766505594961  0.4967225441755704  0.7735963727498085
  0.4802637695555155  0.4853943714676998  0.7351764970319075
  0.4554813780320110  0.5510678161623178  0.7029633390295057
  0.4357671276509001  0.5624389362092383  0.7351764970319075
  0.4357744318762678  0.5910659440310536  0.7008877989095055
  0.4752067742058519  0.5910619973407057  0.7008950065355914
  0.4554931693031914  0.6024339939794625  0.7331068357520808
  0.4109867882023826  0.6053176116911007  0.7351521710122383
  0.4752130251245045  0.6138955214216448  0.6625036548356688
  0.4357791019401308  0.6138991453276997  0.6624977291903692
  0.4109847361273956  0.6281123809038562  0.7029633390295057
  0.3912704857462845  0.6394835009507767  0.7351764970319075
  0.4554919829441112  0.6252273180355703  0.7009176049082699
  0.4802853167016693  0.6394835009507767  0.7351764970319075
  0.3912658156824219  0.6166502996541308  0.7735665667510441
  0.4109727618381648  0.5766521717853947  0.7756421068710440
  0.4109845531093450  0.6280183496025394  0.8057856035936191
  0.4109833667502653  0.6508116736586474  0.7735963727498085
  0.4306981580120059  0.6166463529637825  0.7735737743771297
  0.4307044089306581  0.6394798770447219  0.7351824226772071
  0.4752010508352737  0.5624353123031833  0.7351824226772071
  0.4554800086548805  0.5737671089171088  0.7735963727498085
  0.4802806466378064  0.6166502996541308  0.7735665667510441
  0.4554909508889338  0.6536967365269331  0.7756421068710440
  0.5444982610623827  0.5282730469495623  0.7351521710122383
  0.5197096670291197  0.5368509566801064  0.6625036548356688
  0.5197034161104672  0.5140174325991672  0.7008950065355914
  0.4999898112078068  0.5253894292379241  0.7331068357520808
  0.4999886248487266  0.5481827532940318  0.7009176049082699
  0.5444962089873955  0.5510678161623178  0.7029633390295057
  0.5692859047362676  0.5140213792895151  0.7008877989095055
  0.5692905748001309  0.5368545805861614  0.6624977291903692
  0.5889928508920109  0.4740232514207793  0.7029633390295057
  0.5890034558041114  0.5481827532940318  0.7009176049082699
  0.6087182470658521  0.5140174325991672  0.7008950065355914
  0.6087244979845043  0.5368509566801064  0.6625036548356688
  0.5890046421631916  0.5253894292379241  0.7331068357520808
  0.5196976927398890  0.4853907475616450  0.7351824226772071
  0.6087125236952736  0.4853907475616450  0.7351824226772071
  0.5889926678739607  0.4739292201194624  0.8057856035936191
  0.5692786005109001  0.4853943714676998  0.7351764970319075
  0.5889914815148807  0.4967225441755704  0.7735963727498085
  0.5444842346981646  0.4996076070438562  0.7756421068710440
  0.5642096308720058  0.5396017882222442  0.7735737743771297
  0.5247819586062847  0.5624389362092383  0.7351764970319075
  0.5444960259693452  0.5509737848610010  0.8057856035936191
  0.5247772885424217  0.5396057349125921  0.7735665667510441
  0.5642158817906582  0.5624353123031833  0.7351824226772071
  0.5000016191577672  0.6053176116911007  0.7351521710122383
  0.4999995670827802  0.6281123809038562  0.7029633390295057
  0.5247939328955156  0.6138991453276997  0.6624977291903692
  0.5247892628316525  0.5910659440310536  0.7008877989095055
  0.5445068138994960  0.6252273180355703  0.7009176049082699
  0.5445080002585760  0.6024339939794625  0.7331068357520808
  0.5642216051612362  0.5910619973407057  0.7008950065355914
  0.5642278560798889  0.6138955214216448  0.6625036548356688
  0.5693001476570539  0.6394835009507767  0.7351764970319075
  0.5890143980381648  0.6281123809038562  0.7029633390295057
  0.5890164501131518  0.6053176116911007  0.7351521710122383
  0.5197192398860430  0.6394798770447219  0.7351824226772071
  0.5197129889673904  0.6166463529637825  0.7735737743771297
  0.4999875927935494  0.5766521717853947  0.7756421068710440
  0.4999993840647297  0.6280183496025394  0.8057856035936191
  0.4999981977056498  0.6508116736586474  0.7735963727498085
  0.5444948396102650  0.5737671089171088  0.7735963727498085
  0.5445057818443186  0.6536967365269331  0.7756421068710440
  0.5890130286610343  0.6508116736586474  0.7735963727498085
  0.6087278199227749  0.6166463529637825  0.7735737743771297
  0.5890142150201144  0.6280183496025394  0.8057856035936191
  0.5692954775931910  0.6166502996541308  0.7735665667510441
  0.5890024237489339  0.5766521717853947  0.7756421068710440
  0.6087340708414276  0.6394798770447219  0.7351824226772071
  0.4110073153287266  0.7537320918955703  0.6282388370667316
  0.4110085016878068  0.7309387678394624  0.6604280679105424
  0.4307283575091198  0.7424002952816448  0.5898248869941304
  0.4110086847058569  0.7310327991407792  0.5576058033464286
  0.3912944343247460  0.7424039191877000  0.5898189613488307
  0.3912897642608830  0.7195707178910535  0.6282090310679671
  0.3912824600355154  0.6909437100692382  0.6624977291903692
  0.4110107367808442  0.7082380299280239  0.5897946353291614
  0.4307221065904673  0.7195667712007057  0.6282162386940529
  0.4109967104166259  0.6795725900223177  0.6302845711879672
  0.4555159315225729  0.7281477362724935  0.5555600692251931
  0.4357983804547294  0.6939863622679768  0.5555302632264286
  0.4752307227843133  0.6939824155776287  0.5555374708525144
  0.4555171178816530  0.7053544122163857  0.5877493000690038
  0.4803045952162678  0.7195707178910535  0.6282090310679671
  0.4555039572333421  0.6766875271540320  0.6282388370667316
  0.5000115413720108  0.6795725900223177  0.6302845711879672
  0.4802972909909000  0.6909437100692382  0.6624977291903692
  0.4555169515423828  0.7338223855511005  0.6624734031706999
  0.4555148994673955  0.7566171547638563  0.6302845711879672
  0.4307340808796981  0.7710269803191672  0.5555374708525144
  0.4110204759770376  0.7823989769579239  0.5877493000690038
  0.3913017385501141  0.7710309270095153  0.5555302632264286
  0.4803165695054986  0.7710309270095153  0.5555302632264286
  0.4555289258316135  0.7852825946695622  0.5897946353291614
  0.4110192896179577  0.8051923010140318  0.5555600692251931
  0.4555268737566261  0.8080773638823177  0.5576058033464286
  0.4358126233755155  0.8194484839292382  0.5898189613488307
  0.3862374389750827  0.8480715450607056  0.5555374708525144
  0.4358199276008833  0.8480754917510535  0.5555302632264286
  0.4752522699304673  0.8480715450607056  0.5555374708525144
  0.4555386650278070  0.8594435416994624  0.5877493000690038
  0.4110203096377672  0.8108669502926391  0.6624734031706999
  0.3862317156045045  0.8194448600231833  0.5898248869941304
  0.3913040071816694  0.8450328395523151  0.6624977291903692
  0.4110182575627800  0.8336617195053946  0.6302845711879672
  0.4358006490862846  0.7679882748107768  0.6624977291903692
  0.4358079533116522  0.7966152826325922  0.6282090310679671
  0.4555255043794959  0.8307766566371088  0.6282388370667316
  0.4555266907385759  0.8079833325810009  0.6604280679105424
  0.4752402956412366  0.7966113359422442  0.6282162386940529
  0.4803188381370540  0.8450328395523151  0.6624977291903692
  0.4752465465598891  0.8194448600231833  0.5898248869941304
  0.5000233326431915  0.7309387678394624  0.6604280679105424
  0.5000221462841111  0.7537320918955703  0.6282388370667316
  0.5197369375458519  0.7195667712007057  0.6282162386940529
  0.5000255677362286  0.7082380299280239  0.5897946353291614
  0.5445187881887267  0.6766875271540320  0.6282388370667316
  0.5248059071847462  0.6653593544461612  0.5898189613488307
  0.5248132114101139  0.6939863622679768  0.5555302632264286
  0.5445307624779576  0.7281477362724935  0.5555600692251931
  0.5890383466166261  0.7310327991407792  0.5576058033464286
  0.5642455537396979  0.6939824155776287  0.5555374708525144
  0.5693194261716523  0.7195707178910535  0.6282090310679671
  0.5693240962355155  0.7424039191877000  0.5898189613488307
  0.5445319488370377  0.7053544122163857  0.5877493000690038
  0.5890403986916134  0.7082380299280239  0.5897946353291614
  0.6087517685012366  0.7195667712007057  0.6282162386940529
  0.5890369772394958  0.7537320918955703  0.6282388370667316
  0.5693121219462847  0.6909437100692382  0.6624977291903692
  0.5890381635985761  0.7309387678394624  0.6604280679105424
  0.5890263723273954  0.6795725900223177  0.6302845711879672
  0.5445317824977673  0.7338223855511005  0.6624734031706999
  0.5445437567869978  0.7852825946695622  0.5897946353291614
  0.5197489118350826  0.7710269803191672  0.5555374708525144
  0.5693314004608832  0.7710309270095153  0.5555302632264286
  0.5890501378878068  0.7823989769579239  0.5877493000690038
  0.5642613775152739  0.8194448600231833  0.5898248869941304
  0.5445417047120107  0.8080773638823177  0.5576058033464286
  0.5890489515287270  0.8051923010140318  0.5555600692251931
  0.5248274543309001  0.8194484839292382  0.5898189613488307
  0.5445534959831916  0.8594435416994624  0.5877493000690038
  0.5642551265966212  0.7966113359422442  0.6282162386940529
  0.5445297304227797  0.7566171547638563  0.6302845711879672
  0.5248154800416693  0.7679882748107768  0.6624977291903692
  0.5248227842670369  0.7966152826325922  0.6282090310679671
  0.5445415216939608  0.8079833325810009  0.6604280679105424
  0.5890499715485366  0.8108669502926391  0.6624734031706999
  0.5000351405931521  0.8108669502926391  0.6624734031706999
  0.5445403353348807  0.8307766566371088  0.6282388370667316
  0.5693336690924385  0.8450328395523151  0.6624977291903692
  0.5000330885181646  0.8336617195053946  0.6302845711879672
  0.5890479194735492  0.8336617195053946  0.6302845711879672
  0.4555029251781649  0.7051569456453947  0.7029633390295057
  0.4307163832198890  0.6909400861631831  0.6625036548356688
  0.4109953410394959  0.7022718827771087  0.7009176049082699
  0.4357959790224216  0.7451550735141305  0.7008877989095055
  0.4307101323012366  0.6681065620822442  0.7008950065355914
  0.3912777899716524  0.6681105087725919  0.7008877989095055
  0.4752345722706585  0.7679846509047216  0.6625036548356688
  0.4752283213520059  0.7451511268237827  0.7008950065355914
  0.4802926209270370  0.6681105087725919  0.7008877989095055
  0.5000101719948807  0.7022718827771087  0.7009176049082699
  0.4109965273985762  0.6794785587210008  0.7331068357520808
  0.4357840047331908  0.6936948643956691  0.7735665667510441
  0.4110083353485366  0.7594067411741774  0.7351521710122383
  0.4357886747970539  0.7165280656923152  0.7351764970319075
  0.4109943089843185  0.7307413012684718  0.7756421068710440
  0.4555015558010346  0.7278562384001857  0.7735963727498085
  0.4555027421601144  0.7050629143440780  0.8057856035936191
  0.4555049772531520  0.6823621764326393  0.7351521710122383
  0.4555147164493453  0.7565231234625394  0.7331068357520808
  0.4752163470627751  0.6936909177053211  0.7735737743771297
  0.5000091399397031  0.7307413012684718  0.7756421068710440
  0.4752225979814277  0.7165244417862603  0.7351824226772071
  0.4110168881856500  0.8563610122601858  0.7009176049082699
  0.4110062832735493  0.7822015103869331  0.7029633390295057
  0.3912993371178065  0.8221996382556690  0.7008877989095055
  0.4110180745447299  0.8335676882040777  0.7331068357520808
  0.4307316794473903  0.8221956915653210  0.7008950065355914
  0.4307379303660429  0.8450292156462602  0.6625036548356688
  0.4555265243993059  0.8364513059157160  0.7351521710122383
  0.4555135300902650  0.7793164475186471  0.7009176049082699
  0.4555244723243185  0.8592460751284715  0.7029633390295057
  0.4803141680731909  0.8221996382556690  0.7008877989095055
  0.3912920328924386  0.7935726304338537  0.7351764970319075
  0.3912873628285756  0.7707394291372075  0.7735665667510441
  0.4110049138964191  0.8049008031417243  0.7735963727498085
  0.4110061002554990  0.7821074790856165  0.8057856035936191
  0.4307259560768121  0.7935690065277986  0.7351824226772071
  0.4307197051581595  0.7707354824468595  0.7735737743771297
  0.4358055518793449  0.8477839938787460  0.7735665667510441
  0.4555124980350877  0.8077858660100100  0.7756421068710440
  0.4803021937839602  0.7707394291372075  0.7735665667510441
  0.4752378942089289  0.8477800471883979  0.7735737743771297
  0.4803068638478231  0.7935726304338537  0.7351764970319075
  0.5197249632566211  0.6681065620822442  0.7008950065355914
  0.5197312141752736  0.6909400861631831  0.6625036548356688
  0.6087460451306581  0.6909400861631831  0.6625036548356688
  0.6087397942120057  0.6681065620822442  0.7008950065355914
  0.5693074518824215  0.6681105087725919  0.7008877989095055
  0.5890250029502653  0.7022718827771087  0.7009176049082699
  0.5445177561335495  0.7051569456453947  0.7029633390295057
  0.5248108099778064  0.7451550735141305  0.7008877989095055
  0.5642494032260429  0.7679846509047216  0.6625036548356688
  0.5642431523073904  0.7451511268237827  0.7008950065355914
  0.5000231663039212  0.7594067411741774  0.7351521710122383
  0.5000113583539607  0.6794785587210008  0.7331068357520808
  0.5247988356885757  0.6936948643956691  0.7735665667510441
  0.5248035057524384  0.7165280656923152  0.7351764970319075
  0.5445163867564191  0.7278562384001857  0.7735963727498085
  0.5445175731154990  0.7050629143440780  0.8057856035936191
  0.5445198082085366  0.6823621764326393  0.7351521710122383
  0.5445295474047298  0.7565231234625394  0.7331068357520808
  0.5642311780181597  0.6936909177053211  0.7735737743771297
  0.5890239708950880  0.7307413012684718  0.7756421068710440
  0.5642374289368122  0.7165244417862603  0.7351824226772071
  0.5890379972593058  0.7594067411741774  0.7351521710122383
  0.5890261893093454  0.6794785587210008  0.7331068357520808
  0.5197527613214274  0.8450292156462602  0.6625036548356688
  0.5197465104027751  0.8221956915653210  0.7008950065355914
  0.5000211142289340  0.7822015103869331  0.7029633390295057
  0.5000317191410344  0.8563610122601858  0.7009176049082699
  0.5000329055001145  0.8335676882040777  0.7331068357520808
  0.5445283610456498  0.7793164475186471  0.7009176049082699
  0.5445393032797033  0.8592460751284715  0.7029633390295057
  0.5445413553546904  0.8364513059157160  0.7351521710122383
  0.5693289990285758  0.8221996382556690  0.7008877989095055
  0.5890359451843188  0.7822015103869331  0.7029633390295057
  0.5890465500964192  0.8563610122601858  0.7009176049082699
  0.5890477364554991  0.8335676882040777  0.7331068357520808
  0.5197407870321967  0.7935690065277986  0.7351824226772071
  0.5248203828347295  0.8477839938787460  0.7735665667510441
  0.5445273289904724  0.8077858660100100  0.7756421068710440
  0.5197345361135443  0.7707354824468595  0.7735737743771297
  0.5000209312108835  0.7821074790856165  0.8057856035936191
  0.5000197448518037  0.8049008031417243  0.7735963727498085
  0.5642527251643136  0.8477800471883979  0.7735737743771297
  0.5693170247393449  0.7707394291372075  0.7735665667510441
  0.5693216948032078  0.7935726304338537  0.7351764970319075
  0.5890345758071882  0.8049008031417243  0.7735963727498085
  0.5890357621662683  0.7821074790856165  0.8057856035936191
  0.6087493670689289  0.7707354824468595  0.7735737743771297
  0.6780482245616533  0.5259724249825394  0.2970342287028500
  0.6583221829093618  0.4859773672123152  0.2991038899826768
  0.6335418434608445  0.5288560426941777  0.2990795639630076
  0.6138255410047462  0.5630219319538535  0.2991038899826768
  0.6138208709408832  0.5401887306572075  0.3374939597018133
  0.6977561060937351  0.4859737433062601  0.2991098156279764
  0.6532594641891198  0.5630183080477987  0.2991098156279764
  0.7028357018962682  0.5401887306572075  0.3374939597018133
  0.6532532132704671  0.5401847839668594  0.3375011673278990
  0.6780350639133422  0.4973055399201857  0.3375237657005778
  0.6138135667155155  0.5115617228353920  0.3717826578242152
  0.6780362502724220  0.4745122158640779  0.3697129965443885
  0.7028283976708999  0.5115617228353920  0.3717826578242152
  0.6780480582223828  0.5544403983172546  0.3717583318045461
  0.6335396083678069  0.5515567806056164  0.3697129965443885
  0.6335298691716136  0.4773958335757161  0.3717583318045461
  0.6583437300555155  0.6400664966953921  0.2991038899826768
  0.6780600325116136  0.6059006074357158  0.2990795639630076
  0.6335384220087269  0.5743501046617242  0.3375237657005778
  0.6087565713658519  0.6172293487083979  0.3375011673278990
  0.6977776532398889  0.6400628727893370  0.2991098156279764
  0.6583390599916524  0.6172332953987459  0.3374939597018133
  0.6780566110594961  0.6513946694032626  0.3375237657005778
  0.6977714023212365  0.6172293487083979  0.3375011673278990
  0.6335493642427802  0.6542797322715486  0.3395694998218133
  0.6780460061473954  0.5772351675300100  0.3395694998218133
  0.6780577974185762  0.6286013453471551  0.3697129965443885
  0.6977656789506584  0.5886026636708755  0.3717885834695149
  0.6138351138616692  0.6656508523184692  0.3717826578242152
  0.6532690370460430  0.6656472284124142  0.3717885834695149
  0.6335514163177676  0.6314849630587932  0.3717583318045461
  0.6583317557662848  0.5886062875769306  0.3717826578242152
  0.7473370138647460  0.4859773672123152  0.2991038899826768
  0.7670630555170377  0.5259724249825394  0.2970342287028500
  0.7918552029155155  0.5630219319538535  0.2991038899826768
  0.8115715053716136  0.5288560426941777  0.2990795639630076
  0.7867709370491195  0.4859737433062601  0.2991098156279764
  0.7225426480520110  0.5001906027884716  0.3395694998218133
  0.7918505328516525  0.5401887306572075  0.3374939597018133
  0.7670498948687267  0.4973055399201857  0.3375237657005778
  0.8115574790073956  0.5001906027884716  0.3395694998218133
  0.7670510812278067  0.4745122158640779  0.3697129965443885
  0.7225544393231915  0.5515567806056164  0.3697129965443885
  0.8115692702785761  0.5515567806056164  0.3697129965443885
  0.7670628891777673  0.5544403983172546  0.3717583318045461
  0.7225447001269981  0.4773958335757161  0.3717583318045461
  0.7422623208552738  0.5115580989293372  0.3717885834695149
  0.8312771518106588  0.5115580989293372  0.3717885834695149
  0.7918432286262845  0.5115617228353920  0.3717826578242152
  0.8115595310823829  0.4773958335757161  0.3717583318045461
  0.7473585610109001  0.6400664966953921  0.2991038899826768
  0.7867924841952738  0.6400628727893370  0.2991098156279764
  0.8115812445678068  0.6030169897240779  0.2970342287028500
  0.7670714420148806  0.6513946694032626  0.3375237657005778
  0.7867862332766210  0.6172293487083979  0.3375011673278990
  0.7473538909470372  0.6172332953987459  0.3374939597018133
  0.7670748634669983  0.6059006074357158  0.2990795639630076
  0.7225664136124224  0.6030169897240779  0.2970342287028500
  0.8115680839194961  0.5743501046617242  0.3375237657005778
  0.7225641951981646  0.6542797322715486  0.3395694998218133
  0.8115790261535495  0.6542797322715486  0.3395694998218133
  0.7670608371027802  0.5772351675300100  0.3395694998218133
  0.7670726283739606  0.6286013453471551  0.3697129965443885
  0.7867805099060430  0.5886026636708755  0.3717885834695149
  0.8115810782285368  0.6314849630587932  0.3717583318045461
  0.7225662472731521  0.6314849630587932  0.3717583318045461
  0.7473465867216692  0.5886062875769306  0.3717826578242152
  0.7918647757724384  0.6656508523184692  0.3717826578242152
  0.7422838680014276  0.6656472284124142  0.3717885834695149
  0.6335276340785762  0.5000965714871546  0.4423917643859269
  0.6138088966516523  0.4887285215387460  0.4101727275433518
  0.6532412389812365  0.4887245748483979  0.4101799351694375
  0.6335264477194961  0.5228898955432626  0.4102025335421162
  0.6583197814770538  0.5371460784584690  0.4444614256657537
  0.6780340318581646  0.5257749584115485  0.4122482676633518
  0.6780360839331518  0.5029801891987928  0.4444370996460845
  0.6977537046614274  0.5371424545524142  0.4444673513110535
  0.7028237276070373  0.4887285215387460  0.4101727275433518
  0.7225412786748808  0.5228898955432626  0.4102025335421162
  0.6583151114131912  0.5143128771618228  0.4828514953848903
  0.6335254156643186  0.5513593140346255  0.4849270355048902
  0.6583078071878232  0.4856858693400075  0.5171401935072921
  0.6532450884675816  0.5627268101754911  0.5171461191525918
  0.6335274677393058  0.5285645448218699  0.5171158674876231
  0.6780220575689339  0.4743147492930870  0.4849270355048902
  0.6780338488401145  0.5256809271102318  0.5150705322274655
  0.6780326624810347  0.5484742511663396  0.4828813013836548
  0.6977474537427749  0.5143089304714749  0.4828587030109758
  0.6977417303721966  0.4856822454339526  0.5171461191525918
  0.7225402466197031  0.5513593140346255  0.4849270355048902
  0.6532570627568123  0.6141870192939527  0.4444673513110535
  0.6138231395724385  0.6141906432000074  0.4444614256657537
  0.6138304437978065  0.6428176510218228  0.4101727275433518
  0.6335373899535494  0.6028195231530870  0.4122482676633518
  0.6335491812247299  0.6541857009702317  0.4423917643859269
  0.6335394420285364  0.5800247539403315  0.4444370996460845
  0.6532627861273904  0.6428137043314749  0.4101799351694375
  0.6780446367702654  0.5999344602848011  0.4102025335421162
  0.6583270857024218  0.5657730862802846  0.4101727275433518
  0.6780458231293454  0.5771411362286931  0.4423917643859269
  0.6977594280320056  0.5657691395899365  0.4101799351694375
  0.6780576310793056  0.6570693186818697  0.4444370996460845
  0.7028379705278230  0.6141906432000074  0.4444614256657537
  0.7028452747531909  0.6428176510218228  0.4101727275433518
  0.6138184695085757  0.5913574419033613  0.4828514953848903
  0.6335360205764192  0.6255188159078782  0.4828813013836548
  0.6138111652832076  0.5627304340815459  0.5171401935072921
  0.6532508118381595  0.5913534952130133  0.4828587030109758
  0.6335372069354991  0.6027254918517700  0.5150705322274655
  0.6583293543339769  0.6397749988230844  0.5171401935072921
  0.6780436047150878  0.6284038787761640  0.4849270355048902
  0.6977632775183507  0.6397713749170296  0.5171461191525918
  0.6780456567900751  0.6056091095634085  0.5171158674876231
  0.7028259962385921  0.5627304340815459  0.5171401935072921
  0.7028333004639604  0.5913574419033613  0.4828514953848903
  0.7473419166578064  0.5657730862802846  0.4101727275433518
  0.7225424650339609  0.5000965714871546  0.4423917643859269
  0.7473346124324385  0.5371460784584690  0.4444614256657537
  0.7422560699366212  0.4887245748483979  0.4101799351694375
  0.7670488628135493  0.5257749584115485  0.4122482676633518
  0.7670509148885364  0.5029801891987928  0.4444370996460845
  0.7918385585624217  0.4887285215387460  0.4101727275433518
  0.8312709008920057  0.4887245748483979  0.4101799351694375
  0.7867742589873903  0.5657691395899365  0.4101799351694375
  0.8115572959893453  0.5000965714871546  0.4423917643859269
  0.7867685356168121  0.5371424545524142  0.4444673513110535
  0.8115561096302650  0.5228898955432626  0.4102025335421162
  0.7473299423685754  0.5143128771618228  0.4828514953848903
  0.7225422986946904  0.5285645448218699  0.5171158674876231
  0.7422599194229661  0.5627268101754911  0.5171461191525918
  0.7473226381432077  0.4856858693400075  0.5171401935072921
  0.7670368885243187  0.4743147492930870  0.4849270355048902
  0.7670474934364193  0.5484742511663396  0.4828813013836548
  0.7670486797954993  0.5256809271102318  0.5150705322274655
  0.7867565613275815  0.4856822454339526  0.5171461191525918
  0.8312747503783507  0.5627268101754911  0.5171461191525918
  0.7918408271939767  0.5627304340815459  0.5171401935072921
  0.8115550775750878  0.5513593140346255  0.4849270355048902
  0.8115571296500752  0.5285645448218699  0.5171158674876231
  0.7867622846981596  0.5143089304714749  0.4828587030109758
  0.7225640121801147  0.6541857009702317  0.4423917643859269
  0.7225522209089338  0.6028195231530870  0.4122482676633518
  0.7225542729839208  0.5800247539403315  0.4444370996460845
  0.7422776170827746  0.6428137043314749  0.4101799351694375
  0.7422718937121967  0.6141870192939527  0.4444673513110535
  0.7670594677256500  0.5999344602848011  0.4102025335421162
  0.7670606540847301  0.5771411362286931  0.4423917643859269
  0.7670724620346905  0.6570693186818697  0.4444370996460845
  0.7918528014832076  0.6141906432000074  0.4444614256657537
  0.7918601057085755  0.6428176510218228  0.4101727275433518
  0.8115691039393058  0.5800247539403315  0.4444370996460845
  0.8115670518643185  0.6028195231530870  0.4122482676633518
  0.8115788431354991  0.6541857009702317  0.4423917643859269
  0.7225508515318039  0.6255188159078782  0.4828813013836548
  0.7670584356704723  0.6284038787761640  0.4849270355048902
  0.7473441852893614  0.6397749988230844  0.5171401935072921
  0.7422656427935440  0.5913534952130133  0.4828587030109758
  0.7225520378908838  0.6027254918517700  0.5150705322274655
  0.7670604877454598  0.6056091095634085  0.5171158674876231
  0.7867781084737351  0.6397713749170296  0.5171461191525918
  0.8115656824871884  0.6255188159078782  0.4828813013836548
  0.7918481314193450  0.5913574419033613  0.4828514953848903
  0.8312804737489289  0.5913534952130133  0.4828587030109758
  0.8115668688462688  0.6027254918517700  0.5150705322274655
  0.7028572490424221  0.6942778601402845  0.3374939597018133
  0.6335731298031915  0.7571061192071548  0.2970342287028500
  0.6335633906069982  0.6829451721772545  0.2990795639630076
  0.6780697717078068  0.6800615544656162  0.2970342287028500
  0.7028619191062849  0.7171110614369304  0.2991038899826768
  0.6138470881509002  0.7171110614369304  0.2991038899826768
  0.6532810113352737  0.7171074375308757  0.2991098156279764
  0.6138424180870373  0.6942778601402845  0.3374939597018133
  0.6532747604166211  0.6942739134499365  0.3375011673278990
  0.6780675532935494  0.7313242970130869  0.3395694998218133
  0.6335599691548808  0.7284392341448012  0.3375237657005778
  0.6335611555139607  0.7056459100886932  0.3697129965443885
  0.6335479948656501  0.6769790250263396  0.4102025335421162
  0.6087661442227750  0.7198582690730134  0.4101799351694375
  0.6087723951414276  0.7426917931539525  0.3717885834695149
  0.6583486328485758  0.7198622157633614  0.4101727275433518
  0.6583533029124384  0.7426954170600074  0.3717826578242152
  0.6780661839164193  0.7540235897678780  0.4102025335421162
  0.6780696053685366  0.7085295278003314  0.3717583318045461
  0.6977809751781594  0.7198582690730134  0.4101799351694375
  0.7028499448170540  0.6656508523184692  0.3717826578242152
  0.6977872260968122  0.7426917931539525  0.3717885834695149
  0.7028787961885757  0.8483669896233613  0.3374939597018133
  0.6780815796577674  0.7599897369187930  0.2990795639630076
  0.6780913188539607  0.8341506839486931  0.2970342287028500
  0.6977992003860428  0.7941520022724139  0.2991098156279764
  0.6138639652331910  0.8483669896233613  0.3374939597018133
  0.6335849377531521  0.8370343016603314  0.2990795639630076
  0.6087843694306582  0.7941520022724139  0.2991098156279764
  0.6583652772016693  0.7941556261784688  0.2991038899826768
  0.6583606071378065  0.7713224248818228  0.3374939597018133
  0.6335695420118037  0.8310681545094164  0.4102025335421162
  0.6138519909439601  0.7969067805048997  0.4101727275433518
  0.6087781185120059  0.7713184781914748  0.3375011673278990
  0.6138566610078232  0.8197399818015461  0.3717826578242152
  0.6335729634639212  0.7855740925418699  0.3717583318045461
  0.6335709113889338  0.8083688617546254  0.3395694998218133
  0.6532843332735443  0.7969028338145517  0.4101799351694375
  0.6532905841921968  0.8197363578954909  0.3717885834695149
  0.7028668218993448  0.7969067805048997  0.4101727275433518
  0.7028714919632078  0.8197399818015461  0.3717826578242152
  0.6780781582056499  0.8054837988863396  0.3375237657005778
  0.6780793445647300  0.7826904748302317  0.3697129965443885
  0.6532963075627750  0.8483630429330133  0.3375011673278990
  0.6977929494673905  0.7713184781914748  0.3375011673278990
  0.7422958422906583  0.7171074375308757  0.2991098156279764
  0.7225782215623827  0.6829451721772545  0.2990795639630076
  0.8115930525177675  0.6829451721772545  0.2990795639630076
  0.7225748001102654  0.7284392341448012  0.3375237657005778
  0.7422895913720058  0.6942739134499365  0.3375011673278990
  0.7918720799978063  0.6942778601402845  0.3374939597018133
  0.8115896310656501  0.7284392341448012  0.3375237657005778
  0.7670823842489338  0.7313242970130869  0.3395694998218133
  0.7225759864693453  0.7056459100886932  0.3697129965443885
  0.7473634638039602  0.7198622157633614  0.4101727275433518
  0.7670844363239211  0.7085295278003314  0.3717583318045461
  0.7867958061335442  0.7198582690730134  0.4101799351694375
  0.7670810148718038  0.7540235897678780  0.4102025335421162
  0.8115908174247295  0.7056459100886932  0.3697129965443885
  0.7868020570521969  0.7426917931539525  0.3717885834695149
  0.8115776567764191  0.6769790250263396  0.4102025335421162
  0.7473681338678232  0.7426954170600074  0.3717826578242152
  0.7225628258210346  0.6769790250263396  0.4102025335421162
  0.8116027917139611  0.7571061192071548  0.2970342287028500
  0.7670964106131521  0.7599897369187930  0.2990795639630076
  0.7225879607585761  0.7571061192071548  0.2970342287028500
  0.7473754380931912  0.7713224248818228  0.3374939597018133
  0.7868077804227750  0.7713184781914748  0.3375011673278990
  0.7868140313414275  0.7941520022724139  0.2991098156279764
  0.7473801081570538  0.7941556261784688  0.2991038899826768
  0.7670929891610344  0.8054837988863396  0.3375237657005778
  0.7225997687085366  0.8370343016603314  0.2990795639630076
  0.7423111385181597  0.8483630429330133  0.3375011673278990
  0.7225857423443187  0.8083688617546254  0.3395694998218133
  0.7225843729671879  0.8310681545094164  0.4102025335421162
  0.7225877944193059  0.7855740925418699  0.3717583318045461
  0.7423054151475814  0.8197363578954909  0.3717885834695149
  0.7422991642289287  0.7969028338145517  0.4101799351694375
  0.7670941755201146  0.7826904748302317  0.3697129965443885
  0.7918816528547294  0.7969067805048997  0.4101727275433518
  0.7918863229185924  0.8197399818015461  0.3717826578242152
  0.8116026253746904  0.7855740925418699  0.3717583318045461
  0.6583413286232076  0.6912352079415458  0.4444614256657537
  0.6780555790043186  0.6798640878946255  0.4122482676633518
  0.6335589370997031  0.7569086526361637  0.4122482676633518
  0.6335609891746904  0.7341138834234083  0.4444370996460845
  0.6977752518075815  0.6912315840354910  0.4444673513110535
  0.6087604208521968  0.6912315840354910  0.4444673513110535
  0.6780673702754991  0.7312302657117703  0.4423917643859269
  0.6335490148854597  0.6826536743049468  0.5171158674876231
  0.6138327124293617  0.7168195635646230  0.5171401935072921
  0.6138400166547294  0.7454465713864382  0.4828514953848903
  0.6335469628104727  0.7054484435177023  0.4849270355048902
  0.6335587540816531  0.7568146213348470  0.5150705322274655
  0.6532666356137352  0.7168159396585678  0.5171461191525918
  0.6532723589843135  0.7454426246960902  0.4828587030109758
  0.6780542096271884  0.7025633806494165  0.4828813013836548
  0.6583366585593446  0.6684020066448997  0.4828514953848903
  0.7028548476101143  0.7454465713864382  0.4828514953848903
  0.6977690008889286  0.6683980599545518  0.4828587030109758
  0.7028475433847461  0.7168195635646230  0.5171401935072921
  0.6780553959862685  0.6797700565933086  0.5150705322274655
  0.6532786099029660  0.7682761487770295  0.4444673513110535
  0.6087757170796980  0.8224871894376288  0.4828587030109758
  0.6087819679983506  0.8453207135185677  0.4444673513110535
  0.6138446867185924  0.7682797726830843  0.4444614256657537
  0.6335707283708838  0.8082748304533086  0.4423917643859269
  0.6583582057054985  0.8224911361279766  0.4828514953848903
  0.6583628757693617  0.8453243374246229  0.4444614256657537
  0.6977905480350828  0.8224871894376288  0.4828587030109758
  0.6780791782254596  0.8111584481649468  0.4444370996460845
  0.6780771261504722  0.8339532173777023  0.4122482676633518
  0.7028595176739769  0.7682797726830843  0.4444614256657537
  0.6977967989537353  0.8453207135185677  0.4444673513110535
  0.6335575677225730  0.7796079453909550  0.4828813013836548
  0.6780672039362290  0.7596982390464853  0.5171158674876231
  0.6780651518612417  0.7824930082592408  0.4849270355048902
  0.6977848246645044  0.7938605044001065  0.5171461191525918
  0.6087699937091200  0.7938605044001065  0.5171461191525918
  0.6583509014801309  0.7938641283061613  0.5171401935072921
  0.6780757567733422  0.8566525101324934  0.4828813013836548
  0.6780769431324224  0.8338591860763855  0.5150705322274655
  0.6335705620316135  0.8367428037880238  0.5171158674876231
  0.7473514895147295  0.6684020066448997  0.4828514953848903
  0.7473561595785925  0.6912352079415458  0.4444614256657537
  0.7670704099597032  0.6798640878946255  0.4122482676633518
  0.7867900827629658  0.6912315840354910  0.4444673513110535
  0.7670822012308839  0.7312302657117703  0.4423917643859269
  0.7225758201300748  0.7341138834234083  0.4444370996460845
  0.8115906510854594  0.7341138834234083  0.4444370996460845
  0.7918696785654989  0.7454465713864382  0.4828514953848903
  0.7225735850370374  0.7568146213348470  0.5150705322274655
  0.7225638458408443  0.6826536743049468  0.5171158674876231
  0.7225617937658571  0.7054484435177023  0.4849270355048902
  0.7422871899396980  0.7454426246960902  0.4828587030109758
  0.7422814665691199  0.7168159396585678  0.5171461191525918
  0.7670690405825729  0.7025633806494165  0.4828813013836548
  0.7670702269416532  0.6797700565933086  0.5150705322274655
  0.7867838318443133  0.6683980599545518  0.4828587030109758
  0.8115884159924223  0.7568146213348470  0.5150705322274655
  0.7918623743401308  0.7168195635646230  0.5171401935072921
  0.8115766247212415  0.7054484435177023  0.4849270355048902
  0.8115786767962293  0.6826536743049468  0.5171158674876231
  0.7225855593262684  0.8082748304533086  0.4423917643859269
  0.7225737680550878  0.7569086526361637  0.4122482676633518
  0.7473730366608835  0.8224911361279766  0.4828514953848903
  0.7422934408583508  0.7682761487770295  0.4444673513110535
  0.7473777067247462  0.8453243374246229  0.4444614256657537
  0.7670919571058571  0.8339532173777023  0.4122482676633518
  0.8115885990104722  0.7569086526361637  0.4122482676633518
  0.7868116299091199  0.8453207135185677  0.4444673513110535
  0.7918743486293617  0.7682797726830843  0.4444614256657537
  0.7868053789904672  0.8224871894376288  0.4828587030109758
  0.7670940091808442  0.8111584481649468  0.4444370996460845
  0.8116003902816532  0.8082748304533086  0.4423917643859269
  0.7670799828166264  0.7824930082592408  0.4849270355048902
  0.8115872296333423  0.7796079453909550  0.4828813013836548
  0.7225723986779578  0.7796079453909550  0.4828813013836548
  0.7670820348916135  0.7596982390464853  0.5171158674876231
  0.7867996556198892  0.7938605044001065  0.5171461191525918
  0.7473657324355153  0.7938641283061613  0.5171401935072921
  0.7670917740878069  0.8338591860763855  0.5150705322274655
  0.7225853929869982  0.8367428037880238  0.5171158674876231
  0.8116002239423827  0.8367428037880238  0.5171158674876231
  0.7670905877287264  0.8566525101324934  0.4828813013836548
  0.8363518448201308  0.4859773672123152  0.2991038899826768
  0.8808653638070372  0.5401887306572075  0.3374939597018133
  0.8312828751812364  0.5401847839668594  0.3375011673278990
  0.9202977061366212  0.5401847839668594  0.3375011673278990
  0.9005863363269984  0.5288560426941777  0.2990795639630076
  0.8808700338709005  0.5630219319538535  0.2991038899826768
  0.8312891260998891  0.5630183080477987  0.2991098156279764
  0.8560778864724223  0.5259724249825394  0.2970342287028500
  0.8757857680045045  0.4859737433062601  0.2991098156279764
  0.8560647258241113  0.4973055399201857  0.3375237657005778
  0.8560777201331521  0.5544403983172546  0.3717583318045461
  0.8560659121831914  0.4745122158640779  0.3697129965443885
  0.8808533895178065  0.4887285215387460  0.4101727275433518
  0.8808580595816693  0.5115617228353920  0.3717826578242152
  0.9005743620377676  0.4773958335757161  0.3717583318045461
  0.9005723099627801  0.5001906027884716  0.3395694998218133
  0.9005841012339606  0.5515567806056164  0.3697129965443885
  0.9202919827660428  0.5115580989293372  0.3717885834695149
  0.8758073151506582  0.6400628727893370  0.2991098156279764
  0.8363733919662845  0.6400664966953921  0.2991038899826768
  0.8560896944223828  0.6059006074357158  0.2990795639630076
  0.9005960755231915  0.6030169897240779  0.2970342287028500
  0.8363687219024218  0.6172332953987459  0.3374939597018133
  0.9005829148748807  0.5743501046617242  0.3375237657005778
  0.8560862729702650  0.6513946694032626  0.3375237657005778
  0.8758010642320057  0.6172293487083979  0.3375011673278990
  0.8560756680581648  0.5772351675300100  0.3395694998218133
  0.8363567476131909  0.5657730862802846  0.4101727275433518
  0.9253715785685759  0.5657730862802846  0.4101727275433518
  0.8757953408614277  0.5886026636708755  0.3717885834695149
  0.8363614176770537  0.5886062875769306  0.3717826578242152
  0.9253762486324386  0.5886062875769306  0.3717826578242152
  0.8560874593293453  0.6286013453471551  0.3697129965443885
  0.9005959091839213  0.6314849630587932  0.3717583318045461
  0.8312986989568122  0.6656472284124142  0.3717885834695149
  0.8808749366639606  0.6428176510218228  0.4101727275433518
  0.9005938571089342  0.6542797322715486  0.3395694998218133
  0.8363447733239602  0.5143128771618228  0.4828514953848903
  0.8363494433878231  0.5371460784584690  0.4444614256657537
  0.8560636937689339  0.5257749584115485  0.4122482676633518
  0.8560657458439209  0.5029801891987928  0.4444370996460845
  0.8757771156535442  0.5143089304714749  0.4828587030109758
  0.8757833665721968  0.5371424545524142  0.4444673513110535
  0.9005709405856500  0.5228898955432626  0.4102025335421162
  0.9005721269447300  0.5000965714871546  0.4423917643859269
  0.9202857318473905  0.4887245748483979  0.4101799351694375
  0.9253596042793447  0.5143128771618228  0.4828514953848903
  0.9253642743432077  0.5371460784584690  0.4444614256657537
  0.8560623243918035  0.5484742511663396  0.4828813013836548
  0.8363374690985924  0.4856858693400075  0.5171401935072921
  0.8560517194797034  0.4743147492930870  0.4849270355048902
  0.8560635107508839  0.5256809271102318  0.5150705322274655
  0.8757713922829659  0.4856822454339526  0.5171461191525918
  0.9005719606054597  0.5285645448218699  0.5171158674876231
  0.9005699085304726  0.5513593140346255  0.4849270355048902
  0.9450665504350879  0.4743147492930870  0.4849270355048902
  0.9253523000539770  0.4856858693400075  0.5171401935072921
  0.8312924480381596  0.6428137043314749  0.4101799351694375
  0.8312867246675817  0.6141870192939527  0.4444673513110535
  0.8757890899427752  0.5657691395899365  0.4101799351694375
  0.8560872929900750  0.6570693186818697  0.4444370996460845
  0.8560754850401147  0.5771411362286931  0.4423917643859269
  0.8560742986810342  0.5999344602848011  0.4102025335421162
  0.8808676324385923  0.6141906432000074  0.4444614256657537
  0.9005818828197033  0.6028195231530870  0.4122482676633518
  0.9005839348946906  0.5800247539403315  0.4444370996460845
  0.9203015556229660  0.6141870192939527  0.4444673513110535
  0.9005936740908839  0.6541857009702317  0.4423917643859269
  0.9203072789935441  0.6428137043314749  0.4101799351694375
  0.8560753187008442  0.6056091095634085  0.5171158674876231
  0.8363590162447461  0.6397749988230844  0.5171401935072921
  0.8560732666258570  0.6284038787761640  0.4849270355048902
  0.8757929394291202  0.6397713749170296  0.5171461191525918
  0.8808556581493614  0.5627304340815459  0.5171401935072921
  0.9005816998016529  0.6027254918517700  0.5150705322274655
  0.9005805134425727  0.6255188159078782  0.4828813013836548
  0.8808629623747296  0.5913574419033613  0.4828514953848903
  0.9202895813337355  0.5627268101754911  0.5171461191525918
  0.9253738472001308  0.6397749988230844  0.5171401935072921
  0.9202953047043134  0.5913534952130133  0.4828587030109758
  0.9450805767993058  0.5029801891987928  0.4444370996460845
  0.9450785247243182  0.5257749584115485  0.4122482676633518
  0.9450783417062687  0.5256809271102318  0.5150705322274655
  0.9450771553471883  0.5484742511663396  0.4828813013836548
  0.9450903159954994  0.5771411362286931  0.4423917643859269
  0.9450901496562290  0.6056091095634085  0.5171158674876231
  0.8313044223273908  0.6942739134499365  0.3375011673278990
  0.8560994336185760  0.6800615544656162  0.2970342287028500
  0.8313106732460429  0.7171074375308757  0.2991098156279764
  0.8808869109531910  0.6942778601402845  0.3374939597018133
  0.8560972152043187  0.7313242970130869  0.3395694998218133
  0.8363782947593448  0.7198622157633614  0.4101727275433518
  0.9005924877318037  0.6769790250263396  0.4102025335421162
  0.8560992672793062  0.7085295278003314  0.3717583318045461
  0.8758106370889288  0.7198582690730134  0.4101799351694375
  0.8808796067278233  0.6656508523184692  0.3717826578242152
  0.8363829648232078  0.7426954170600074  0.3717826578242152
  0.8560958458271883  0.7540235897678780  0.4102025335421162
  0.8313139951843135  0.7969028338145517  0.4101799351694375
  0.8560852409150878  0.6798640878946255  0.4122482676633518
  0.8560970321862683  0.7312302657117703  0.4423917643859269
  0.8363709905339770  0.6912352079415458  0.4444614256657537
  0.8758049137183507  0.6912315840354910  0.4444673513110535
  0.8808845095208835  0.7454465713864382  0.4828514953848903
  0.8363663204701141  0.6684020066448997  0.4828514953848903
  0.8560850578970380  0.6797700565933086  0.5150705322274655
  0.8313020208950828  0.7454426246960902  0.4828587030109758
  0.8808772052955153  0.7168195635646230  0.5171401935072921
  0.8312962975245044  0.7168159396585678  0.5171461191525918
  0.8560838715379576  0.7025633806494165  0.4828813013836548
  0.8757986627996981  0.6683980599545518  0.4828587030109758
  0.9005914556766262  0.7054484435177023  0.4849270355048902
  0.9253811514254988  0.6684020066448997  0.4828514953848903
  0.9005935077516136  0.6826536743049468  0.5171158674876231
  0.8313082718137353  0.7682761487770295  0.4444673513110535
  0.8363805633909002  0.7938641283061613  0.5171401935072921
  0.8560948137720111  0.7824930082592408  0.4849270355048902
  0.8560968658469985  0.7596982390464853  0.5171158674876231
  0.6138064952193447  0.5398972327849000  0.5555302632264286
  0.6335120719979571  0.5225983976709548  0.6282388370667316
  0.6137991909939768  0.5112702249630843  0.5898189613488307
  0.6137945209301141  0.4884370236664384  0.6282090310679671
  0.6335154934500751  0.4771043357034084  0.5897946353291614
  0.6335132583570374  0.4998050736148471  0.6604280679105424
  0.6335134413750879  0.4998991049161639  0.5576058033464286
  0.6335252326462681  0.5512652827333087  0.5877493000690038
  0.6532388375489290  0.5398932860945519  0.5555374708525144
  0.6532331141783506  0.5112666010570295  0.5898248869941304
  0.6532268632596981  0.4884330769760902  0.6282162386940529
  0.7028213261747296  0.5398972327849000  0.5555302632264286
  0.6780206881918038  0.4970140420478781  0.5555600692251931
  0.6780336825008443  0.5541489004449468  0.5897946353291614
  0.6780218745508840  0.4742207179917702  0.5877493000690038
  0.7028140219493616  0.5112702249630843  0.5898189613488307
  0.7028093518854985  0.4884370236664384  0.6282090310679671
  0.6780196561366263  0.5254834605392408  0.6302845711879672
  0.7225269029533420  0.5225983976709548  0.6282388370667316
  0.7225280893124223  0.4998050736148471  0.6604280679105424
  0.6977570265996980  0.6169378508360902  0.5555374708525144
  0.6335240462871884  0.5740586067894166  0.5555600692251931
  0.6583173800447460  0.5883147897046229  0.5898189613488307
  0.6780316304258570  0.5769436696577023  0.5576058033464286
  0.6583246842701143  0.6169417975264383  0.5555302632264286
  0.6780434216970375  0.6283098474748471  0.5877493000690038
  0.6335370405962288  0.6311934651864853  0.5897946353291614
  0.6138207381401308  0.6653593544461612  0.5898189613488307
  0.7028355690955155  0.6653593544461612  0.5898189613488307
  0.6780422353379575  0.6511031715309549  0.5555600692251931
  0.6335349885212415  0.6539882343992409  0.5576058033464286
  0.6977513032291200  0.5883111657985681  0.5898248869941304
  0.6780314474078066  0.5768496383563854  0.6604280679105424
  0.6583127099808833  0.5654815884079767  0.6282090310679671
  0.6977450523104674  0.5654776417176287  0.6282162386940529
  0.6780302610487267  0.5996429624124935  0.6282388370667316
  0.6335230142320107  0.6025280252807792  0.6302845711879672
  0.6532484104058518  0.6425222064591671  0.6282162386940529
  0.6532546613245045  0.6653557305401064  0.5898248869941304
  0.6138160680762678  0.6425261531495153  0.6282090310679671
  0.6335348055031915  0.6538942030979240  0.6604280679105424
  0.7028308990316526  0.6425261531495153  0.6282090310679671
  0.7670367055062688  0.4742207179917702  0.5877493000690038
  0.7225282723304721  0.4998991049161639  0.5576058033464286
  0.7670355191471885  0.4970140420478781  0.5555600692251931
  0.7225303244054596  0.4771043357034084  0.5897946353291614
  0.7422479451337355  0.5112666010570295  0.5898248869941304
  0.7422416942150828  0.4884330769760902  0.6282162386940529
  0.7670344870920108  0.5254834605392408  0.6302845711879672
  0.7422536685043136  0.5398932860945519  0.5555374708525144
  0.7670485134562288  0.5541489004449468  0.5897946353291614
  0.7225400636016530  0.5512652827333087  0.5877493000690038
  0.7473275409362677  0.5654815884079767  0.6282090310679671
  0.7867598832658519  0.5654776417176287  0.6282162386940529
  0.8115431032858569  0.4998991049161639  0.5576058033464286
  0.7918361571301141  0.5398972327849000  0.5555302632264286
  0.8115451553608440  0.4771043357034084  0.5897946353291614
  0.7918288529047465  0.5112702249630843  0.5898189613488307
  0.8312627760891200  0.5112666010570295  0.5898248869941304
  0.7918241828408833  0.4884370236664384  0.6282090310679671
  0.8312565251704672  0.4884330769760902  0.6282162386940529
  0.8115417339087267  0.5225983976709548  0.6282388370667316
  0.8115429202678069  0.4998050736148471  0.6604280679105424
  0.7225388772425730  0.5740586067894166  0.5555600692251931
  0.7473395152254988  0.6169417975264383  0.5555302632264286
  0.7670570662933421  0.6511031715309549  0.5555600692251931
  0.7867718575550825  0.6169378508360902  0.5555374708525144
  0.7918504000509000  0.6653593544461612  0.5898189613488307
  0.8115667025069981  0.6311934651864853  0.5897946353291614
  0.8115646504320105  0.6539882343992409  0.5576058033464286
  0.7670464613812414  0.5769436696577023  0.5576058033464286
  0.7225498194766262  0.6539882343992409  0.5576058033464286
  0.7670582526524223  0.6283098474748471  0.5877493000690038
  0.7225518715516135  0.6311934651864853  0.5897946353291614
  0.7473322110001308  0.5883147897046229  0.5898189613488307
  0.7867661341845046  0.5883111657985681  0.5898248869941304
  0.7670462783631916  0.5768496383563854  0.6604280679105424
  0.8115526761427799  0.6025280252807792  0.6302845711879672
  0.7225378451873955  0.6025280252807792  0.6302845711879672
  0.7670450920041115  0.5996429624124935  0.6282388370667316
  0.7422632413612364  0.6425222064591671  0.6282162386940529
  0.7225496364585758  0.6538942030979240  0.6604280679105424
  0.7422694922798893  0.6653557305401064  0.5898248869941304
  0.6977330780212363  0.5140174325991672  0.7008950065355914
  0.6335130920177674  0.5282730469495623  0.7351521710122383
  0.6780076818473958  0.4740232514207793  0.7029633390295057
  0.6583054057555154  0.5368545805861614  0.6624977291903692
  0.6780217082116134  0.5026886913264852  0.6624734031706999
  0.6335110399427801  0.5510678161623178  0.7029633390295057
  0.6780194731185761  0.5253894292379241  0.7331068357520808
  0.6583007356916526  0.5140213792895151  0.7008877989095055
  0.6977393289398890  0.5368509566801064  0.6625036548356688
  0.6780182867594960  0.5481827532940318  0.7009176049082699
  0.6334990656535492  0.4996076070438562  0.7756421068710440
  0.6137967895616693  0.5624389362092383  0.7351764970319075
  0.6137921194978063  0.5396057349125921  0.7735665667510441
  0.6532307127460429  0.5624353123031833  0.7351824226772071
  0.6335108569247300  0.5509737848610010  0.8057856035936191
  0.6532244618273904  0.5396017882222442  0.7735737743771297
  0.6582934314662845  0.4853943714676998  0.7351764970319075
  0.6780063124702651  0.4967225441755704  0.7735963727498085
  0.6780074988293452  0.4739292201194624  0.8057856035936191
  0.6977273546506584  0.4853907475616450  0.7351824226772071
  0.7225138966089341  0.4996076070438562  0.7756421068710440
  0.7028069504531911  0.5396057349125921  0.7735665667510441
  0.7028116205170538  0.5624389362092383  0.7351764970319075
  0.6532364361166211  0.5910619973407057  0.7008950065355914
  0.6335216448548806  0.6252273180355703  0.7009176049082699
  0.6335228312139607  0.6024339939794625  0.7331068357520808
  0.6138087638509001  0.6138991453276997  0.6624977291903692
  0.6335250663069980  0.5797332560680237  0.6624734031706999
  0.6138040937870369  0.5910659440310536  0.7008877989095055
  0.6532426870352736  0.6138955214216448  0.6625036548356688
  0.6780292289935493  0.6281123809038562  0.7029633390295057
  0.6780312810685366  0.6053176116911007  0.7351521710122383
  0.7028235948062845  0.6138991453276997  0.6624977291903692
  0.6780432553577669  0.6567778208095622  0.6624734031706999
  0.7028189247424214  0.5910659440310536  0.7008877989095055
  0.6583149786124385  0.6394835009507767  0.7351764970319075
  0.6583103085485755  0.6166502996541308  0.7735665667510441
  0.6335206127997031  0.6536967365269331  0.7756421068710440
  0.6335096705656499  0.5737671089171088  0.7735963727498085
  0.6780172547043184  0.5766521717853947  0.7756421068710440
  0.6977426508781596  0.6166463529637825  0.7735737743771297
  0.6780290459754991  0.6280183496025394  0.8057856035936191
  0.6977489017968121  0.6394798770447219  0.7351824226772071
  0.6780278596164192  0.6508116736586474  0.7735963727498085
  0.7225245015210344  0.5737671089171088  0.7735963727498085
  0.7473082624216693  0.4853943714676998  0.7351764970319075
  0.7473155666470374  0.5140213792895151  0.7008877989095055
  0.7225279229731519  0.5282730469495623  0.7351521710122383
  0.7473202367109002  0.5368545805861614  0.6624977291903692
  0.7670225128027803  0.4740232514207793  0.7029633390295057
  0.7225258708981649  0.5510678161623178  0.7029633390295057
  0.7670331177148807  0.5481827532940318  0.7009176049082699
  0.7670343040739608  0.5253894292379241  0.7331068357520808
  0.7670365391669983  0.5026886913264852  0.6624734031706999
  0.7867479089766214  0.5140174325991672  0.7008950065355914
  0.7867541598952739  0.5368509566801064  0.6625036548356688
  0.8115407018535494  0.5510678161623178  0.7029633390295057
  0.7918264514724386  0.5624389362092383  0.7351764970319075
  0.8115427539285365  0.5282730469495623  0.7351521710122383
  0.7225256878801145  0.5509737848610010  0.8057856035936191
  0.7422455437014276  0.5624353123031833  0.7351824226772071
  0.7422392927827751  0.5396017882222442  0.7735737743771297
  0.7670211434256500  0.4967225441755704  0.7735963727498085
  0.7670223297847300  0.4739292201194624  0.8057856035936191
  0.7867421856060429  0.4853907475616450  0.7351824226772071
  0.7918217814085757  0.5396057349125921  0.7735665667510441
  0.8115287275643185  0.4996076070438562  0.7756421068710440
  0.8115405188354992  0.5509737848610010  0.8057856035936191
  0.8312541237381595  0.5396017882222442  0.7735737743771297
  0.8312603746568121  0.5624353123031833  0.7351824226772071
  0.7422575179906583  0.6138955214216448  0.6625036548356688
  0.7422512670720057  0.5910619973407057  0.7008950065355914
  0.7225364758102653  0.6252273180355703  0.7009176049082699
  0.7225398972623829  0.5797332560680237  0.6624734031706999
  0.7670580863131520  0.6567778208095622  0.6624734031706999
  0.7918337556978066  0.5910659440310536  0.7008877989095055
  0.8312660980273907  0.5910619973407057  0.7008950065355914
  0.8115547282177674  0.5797332560680237  0.6624734031706999
  0.7225376621693450  0.6024339939794625  0.7331068357520808
  0.7670320856597033  0.5766521717853947  0.7756421068710440
  0.8115393324764193  0.5737671089171088  0.7735963727498085
  0.7867574818335443  0.6166463529637825  0.7735737743771297
  0.7473251395039602  0.6166502996541308  0.7735665667510441
  0.7670438769308835  0.6280183496025394  0.8057856035936191
  0.7473298095678229  0.6394835009507767  0.7351764970319075
  0.7225354437550876  0.6536967365269331  0.7756421068710440
  0.7670426905718036  0.6508116736586474  0.7735963727498085
  0.8115502747104724  0.6536967365269331  0.7756421068710440
  0.6977728503752736  0.7424002952816448  0.5898248869941304
  0.6780531775720107  0.7310327991407792  0.5576058033464286
  0.6335467797924225  0.7053544122163857  0.5877493000690038
  0.6532603846950824  0.6939824155776287  0.5555374708525144
  0.6780552296469980  0.7082380299280239  0.5897946353291614
  0.6138280423654986  0.6939863622679768  0.5555302632264286
  0.7028428733208831  0.6939863622679768  0.5555302632264286
  0.6583389271908999  0.7424039191877000  0.5898189613488307
  0.6335455934333422  0.7281477362724935  0.5555600692251931
  0.6087580194198892  0.7424002952816448  0.5898248869941304
  0.6335336191441114  0.6766875271540320  0.6282388370667316
  0.6583269529016693  0.6909437100692382  0.6624977291903692
  0.6780412032827801  0.6795725900223177  0.6302845711879672
  0.6977665994566210  0.7195667712007057  0.6282162386940529
  0.6583342571270369  0.7195707178910535  0.6282090310679671
  0.6780529945539608  0.7309387678394624  0.6604280679105424
  0.6335466134531519  0.7338223855511005  0.6624734031706999
  0.6335445613781646  0.7566171547638563  0.6302845711879672
  0.6780518081948805  0.7537320918955703  0.6282388370667316
  0.6138303109970540  0.7679882748107768  0.6624977291903692
  0.6335565356673953  0.8080773638823177  0.5576058033464286
  0.6977785737458517  0.7710269803191672  0.5555374708525144
  0.6583462314162677  0.7710309270095153  0.5555302632264286
  0.6087637427904673  0.7710269803191672  0.5555374708525144
  0.7028644204670369  0.8480754917510535  0.5555302632264286
  0.6532819318412364  0.8480715450607056  0.5555374708525144
  0.6138495895116522  0.8480754917510535  0.5555302632264286
  0.6780637824841115  0.8051923010140318  0.5555600692251931
  0.6335585877423825  0.7852825946695622  0.5897946353291614
  0.6780649688431915  0.7823989769579239  0.5877493000690038
  0.6335683269385761  0.8594435416994624  0.5877493000690038
  0.6335551662902650  0.8307766566371088  0.6282388370667316
  0.6138422852862847  0.8194484839292382  0.5898189613488307
  0.6138376152224216  0.7966152826325922  0.6282090310679671
  0.6335563526493453  0.8079833325810009  0.6604280679105424
  0.6532699575520058  0.7966113359422442  0.6282162386940529
  0.6532762084706585  0.8194448600231833  0.5898248869941304
  0.6780627504289338  0.8336617195053946  0.6302845711879672
  0.6583485000478232  0.8450328395523151  0.6624977291903692
  0.6780648025039210  0.8108669502926391  0.6624734031706999
  0.7028451419524384  0.7679882748107768  0.6624977291903692
  0.7028524461778064  0.7966152826325922  0.6282090310679671
  0.7028571162416692  0.8194484839292382  0.5898189613488307
  0.8115764417031918  0.7053544122163857  0.5877493000690038
  0.7225604243887265  0.7281477362724935  0.5555600692251931
  0.8115752553441113  0.7281477362724935  0.5555600692251931
  0.7422752156504673  0.6939824155776287  0.5555374708525144
  0.7918577042762680  0.6939863622679768  0.5555302632264286
  0.7670680085273954  0.7310327991407792  0.5576058033464286
  0.7473537581462846  0.7424039191877000  0.5898189613488307
  0.7225616107478070  0.7053544122163857  0.5877493000690038
  0.7670700606023827  0.7082380299280239  0.5897946353291614
  0.7867876813306585  0.7424002952816448  0.5898248869941304
  0.7670560342381648  0.6795725900223177  0.6302845711879672
  0.7225484500994961  0.6766875271540320  0.6282388370667316
  0.8115632810548806  0.6766875271540320  0.6282388370667316
  0.7473490880824216  0.7195707178910535  0.6282090310679671
  0.7867814304120055  0.7195667712007057  0.6282162386940529
  0.7473417838570540  0.6909437100692382  0.6624977291903692
  0.7670678255093457  0.7309387678394624  0.6604280679105424
  0.7225614444085368  0.7338223855511005  0.6624734031706999
  0.8115762753639211  0.7338223855511005  0.6624734031706999
  0.7670666391502653  0.7537320918955703  0.6282388370667316
  0.8115742232889340  0.7566171547638563  0.6302845711879672
  0.7225593923335492  0.7566171547638563  0.6302845711879672
  0.7918599729078231  0.7679882748107768  0.6624977291903692
  0.7473610623716526  0.7710309270095153  0.5555302632264286
  0.7225734186977670  0.7852825946695622  0.5897946353291614
  0.7225831578939608  0.8594435416994624  0.5877493000690038
  0.7422967627966213  0.8480715450607056  0.5555374708525144
  0.7225713666227800  0.8080773638823177  0.5576058033464286
  0.7670786134394962  0.8051923010140318  0.5555600692251931
  0.7670797997985761  0.7823989769579239  0.5877493000690038
  0.7867934047012365  0.7710269803191672  0.5555374708525144
  0.7918719471970540  0.8194484839292382  0.5898189613488307
  0.8115882496531518  0.7852825946695622  0.5897946353291614
  0.8115861975781647  0.8080773638823177  0.5576058033464286
  0.7918792514224219  0.8480754917510535  0.5555302632264286
  0.7422910394260429  0.8194448600231833  0.5898248869941304
  0.7422847885073905  0.7966113359422442  0.6282162386940529
  0.7225711836047298  0.8079833325810009  0.6604280679105424
  0.7225699972456497  0.8307766566371088  0.6282388370667316
  0.7473633310032077  0.8450328395523151  0.6624977291903692
  0.7670775813843185  0.8336617195053946  0.6302845711879672
  0.7670796334593059  0.8108669502926391  0.6624734031706999
  0.7918672771331912  0.7966152826325922  0.6282090310679671
  0.6583222828378061  0.6681105087725919  0.7008877989095055
  0.6977546251673904  0.6681065620822442  0.7008950065355914
  0.6780410202647299  0.6794785587210008  0.7331068357520808
  0.6977608760860430  0.6909400861631831  0.6625036548356688
  0.6780398339056498  0.7022718827771087  0.7009176049082699
  0.6335325870889340  0.7051569456453947  0.7029633390295057
  0.6335443783601147  0.7565231234625394  0.7331068357520808
  0.7028404718885755  0.7451550735141305  0.7008877989095055
  0.6532579832627751  0.7451511268237827  0.7008950065355914
  0.6138256409331908  0.7451550735141305  0.7008877989095055
  0.6532642341814274  0.7679846509047216  0.6625036548356688
  0.6335346391639212  0.6823621764326393  0.7351521710122383
  0.6138183367078232  0.7165280656923152  0.7351764970319075
  0.6335312177118038  0.7278562384001857  0.7735963727498085
  0.6335324040708837  0.7050629143440780  0.8057856035936191
  0.6138136666439601  0.6936948643956691  0.7735665667510441
  0.6532460089735443  0.6936909177053211  0.7735737743771297
  0.6532522598921967  0.7165244417862603  0.7351824226772071
  0.6780528282146905  0.7594067411741774  0.7351521710122383
  0.6780388018504724  0.7307413012684718  0.7756421068710440
  0.7225460486671883  0.7278562384001857  0.7735963727498085
  0.7028331676632077  0.7165280656923152  0.7351764970319075
  0.7028284975993447  0.6936948643956691  0.7735665667510441
  0.6335431920010346  0.7793164475186471  0.7009176049082699
  0.6087675922768122  0.8450292156462602  0.6625036548356688
  0.6335541342350879  0.8592460751284715  0.7029633390295057
  0.6087613413581596  0.8221956915653210  0.7008950065355914
  0.6583438299839603  0.8221996382556690  0.7008877989095055
  0.6780507761397032  0.7822015103869331  0.7029633390295057
  0.6780613810518039  0.8563610122601858  0.7009176049082699
  0.6780625674108838  0.8335676882040777  0.7331068357520808
  0.6977761723135444  0.8221956915653210  0.7008950065355914
  0.6977824232321969  0.8450292156462602  0.6625036548356688
  0.6138352137901143  0.8477839938787460  0.7735665667510441
  0.6087556179875814  0.7935690065277986  0.7351824226772071
  0.6335421599458571  0.8077858660100100  0.7756421068710440
  0.6335561863100750  0.8364513059157160  0.7351521710122383
  0.6583318556947294  0.7707394291372075  0.7735665667510441
  0.6977641980243136  0.7707354824468595  0.7735737743771297
  0.6780505931216529  0.7821074790856165  0.8057856035936191
  0.6780494067625729  0.8049008031417243  0.7735963727498085
  0.6583365257585925  0.7935726304338537  0.7351764970319075
  0.6977704489429660  0.7935690065277986  0.7351824226772071
  0.7422790651368122  0.7679846509047216  0.6625036548356688
  0.7473371137931910  0.6681105087725919  0.7008877989095055
  0.7867757070414276  0.6909400861631831  0.6625036548356688
  0.8115622489997033  0.7051569456453947  0.7029633390295057
  0.7867694561227750  0.6681065620822442  0.7008950065355914
  0.7225474180443189  0.7051569456453947  0.7029633390295057
  0.7422728142181596  0.7451511268237827  0.7008950065355914
  0.7670546648610346  0.7022718827771087  0.7009176049082699
  0.7225472350262684  0.7050629143440780  0.8057856035936191
  0.7422608399289291  0.6936909177053211  0.7735737743771297
  0.7225592093154992  0.7565231234625394  0.7331068357520808
  0.7225494701193058  0.6823621764326393  0.7351521710122383
  0.7422670908475814  0.7165244417862603  0.7351824226772071
  0.7670558512201144  0.6794785587210008  0.7331068357520808
  0.7670536328058569  0.7307413012684718  0.7756421068710440
  0.7918479986185925  0.7165280656923152  0.7351764970319075
  0.7918433285547296  0.6936948643956691  0.7735665667510441
  0.8115643010746904  0.6823621764326393  0.7351521710122383
  0.7225580229564191  0.7793164475186471  0.7009176049082699
  0.7473586609393448  0.8221996382556690  0.7008877989095055
  0.7473466866501139  0.7707394291372075  0.7735665667510441
  0.7473513567139770  0.7935726304338537  0.7351764970319075
  0.8560515364616532  0.4742207179917702  0.5877493000690038
  0.8808509880854987  0.5398972327849000  0.5555302632264286
  0.8560503501025730  0.4970140420478781  0.5555600692251931
  0.8808436838601307  0.5112702249630843  0.5898189613488307
  0.8560633444116137  0.5541489004449468  0.5897946353291614
  0.8363423718916527  0.5654815884079767  0.6282090310679671
  0.8757747142212362  0.5654776417176287  0.6282162386940529
  0.8560493180473955  0.5254834605392408  0.6302845711879672
  0.8560513701223827  0.5026886913264852  0.6624734031706999
  0.9005579342412416  0.4998991049161639  0.5576058033464286
  0.9005685391533422  0.5740586067894166  0.5555600692251931
  0.9202833304150827  0.5398932860945519  0.5555374708525144
  0.9005599863162288  0.4771043357034084  0.5897946353291614
  0.9005697255124224  0.5512652827333087  0.5877493000690038
  0.9202776070445046  0.5112666010570295  0.5898248869941304
  0.9253572028470375  0.5654815884079767  0.6282090310679671
  0.9005577512231915  0.4998050736148471  0.6604280679105424
  0.9202713561258520  0.4884330769760902  0.6282162386940529
  0.9005565648641111  0.5225983976709548  0.6282388370667316
  0.9005815334623829  0.6311934651864853  0.5897946353291614
  0.8363543461808833  0.6169417975264383  0.5555302632264286
  0.9253691771362680  0.6169417975264383  0.5555302632264286
  0.8757866885104674  0.6169378508360902  0.5555374708525144
  0.8560718972487267  0.6511031715309549  0.5555600692251931
  0.9005794813873956  0.6539882343992409  0.5576058033464286
  0.8560730836078069  0.6283098474748471  0.5877493000690038
  0.8808652310062850  0.6653593544461612  0.5898189613488307
  0.8363470419555158  0.5883147897046229  0.5898189613488307
  0.9253618729108999  0.5883147897046229  0.5898189613488307
  0.8757809651398890  0.5883111657985681  0.5898248869941304
  0.8312843232352737  0.6653557305401064  0.5898248869941304
  0.8560729172685364  0.6567778208095622  0.6624734031706999
  0.8560611093185762  0.5768496383563854  0.6604280679105424
  0.8560599229594960  0.5996429624124935  0.6282388370667316
  0.8808605609424222  0.6425261531495153  0.6282090310679671
  0.9005675070981647  0.6025280252807792  0.6302845711879672
  0.9005792983693456  0.6538942030979240  0.6604280679105424
  0.9202991541906582  0.6653557305401064  0.5898248869941304
  0.9005695591731520  0.5797332560680237  0.6624734031706999
  0.9450663674170378  0.4742207179917702  0.5877493000690038
  0.9450651810579576  0.4970140420478781  0.5555600692251931
  0.9450781753669980  0.5541489004449468  0.5897946353291614
  0.9450761232920110  0.5769436696577023  0.5576058033464286
  0.8363350676662851  0.5368545805861614  0.6624977291903692
  0.8363303976024220  0.5140213792895151  0.7008877989095055
  0.8560373437581648  0.4740232514207793  0.7029633390295057
  0.8560479486702653  0.5481827532940318  0.7009176049082699
  0.8560491350293457  0.5253894292379241  0.7331068357520808
  0.8757627399320058  0.5140174325991672  0.7008950065355914
  0.8757689908506584  0.5368509566801064  0.6625036548356688
  0.9253498986216696  0.5368545805861614  0.6624977291903692
  0.8560359743810344  0.4967225441755704  0.7735963727498085
  0.8363230933770539  0.4853943714676998  0.7351764970319075
  0.8757570165614279  0.4853907475616450  0.7351824226772071
  0.8808412824278236  0.5624389362092383  0.7351764970319075
  0.8560588909043186  0.6281123809038562  0.7029633390295057
  0.8363446405232078  0.6394835009507767  0.7351764970319075
  0.8312723489460431  0.6138955214216448  0.6625036548356688
  0.8560609429793057  0.6053176116911007  0.7351521710122383
  0.8808532567170538  0.6138991453276997  0.6624977291903692
  0.8560469166150877  0.5766521717853947  0.7756421068710440
  0.8363399704593452  0.6166502996541308  0.7735665667510441
  0.8312900466058518  0.6939824155776287  0.5555374708525144
  0.8808725352316525  0.6939863622679768  0.5555302632264286
  0.8758025122860431  0.7424002952816448  0.5898248869941304
  0.8363685891016692  0.7424039191877000  0.5898189613488307
  0.8560828394827799  0.7310327991407792  0.5576058033464286
  0.8560848915577673  0.7082380299280239  0.5897946353291614
  0.9005912726585763  0.7053544122163857  0.5877493000690038
  0.8560708651935491  0.6795725900223177  0.6302845711879672
  0.9005781120102652  0.6766875271540320  0.6282388370667316
  0.8363566148124385  0.6909437100692382  0.6624977291903692
  0.8757962613673904  0.7195667712007057  0.6282162386940529
  0.8363639190378064  0.7195707178910535  0.6282090310679671
  0.8560826564647300  0.7309387678394624  0.6604280679105424
  0.8560814701056498  0.7537320918955703  0.6282388370667316
  0.8363758933270374  0.7710309270095153  0.5555302632264286
  0.8757842870781597  0.6681065620822442  0.7008950065355914
  0.8363519447485759  0.6681105087725919  0.7008877989095055
  0.8757905379968123  0.6909400861631831  0.6625036548356688
  0.8560694958164188  0.7022718827771087  0.7009176049082699
  0.8312876451735441  0.7451511268237827  0.7008950065355914
  0.8312938960921967  0.7679846509047216  0.6625036548356688
  0.8312819218029660  0.7165244417862603  0.7351824226772071
  0.2971594146352736  0.5109751031847218  0.8078611905187455
  0.2081383327612365  0.4881415791037826  0.8462525422186682
  0.1884269629516134  0.4768128378311007  0.8078309388537767
  0.2971531637166210  0.4881415791037826  0.8462525422186682
  0.2081445836798889  0.5109751031847218  0.8078611905187455
  0.2774395588139607  0.4995135757425394  0.8784643714351577
  0.2774417939069980  0.4768128378311007  0.8078309388537767
  0.2577208213870372  0.4881455257941307  0.8462453345925826
  0.2577254914508998  0.5109787270907766  0.8078552648734459
  0.2526627727306581  0.5880196679262601  0.8078611905187455
  0.3022436805016693  0.5880232918323152  0.8078552648734459
  0.2329451520023827  0.5538574025726392  0.8078309388537767
  0.2774383724548805  0.5223068997986472  0.8462751405913468
  0.2526565218120057  0.5651861438453211  0.8462525422186682
  0.3022390104378063  0.5651900905356690  0.8462453345925826
  0.2329311256381646  0.5251919626669331  0.8483208747125826
  0.2774493146889339  0.6022365274084717  0.8483208747125826
  0.2526507984414274  0.5365594588077988  0.8805399583602841
  0.2774513667639212  0.5794417581957161  0.8805097066953153
  0.3022317062124383  0.5365630827138536  0.8805340327149844
  0.3219459565935495  0.5251919626669331  0.8483208747125826
  0.3664566248623826  0.4768128378311007  0.8078309388537767
  0.3861742455906581  0.5109751031847218  0.8078611905187455
  0.3664543897693454  0.4995135757425394  0.8784643714351577
  0.3416593784781596  0.5137259347268596  0.9189313100602066
  0.3219480086685366  0.5023971934541777  0.8805097066953153
  0.3912465371678230  0.5365630827138536  0.8805340327149844
  0.3416656293968121  0.5365594588077988  0.8805399583602841
  0.3912418671039603  0.5137298814172075  0.9189241024341209
  0.3912585114570539  0.5880232918323152  0.8078552648734459
  0.3219599829577674  0.5538574025726392  0.8078309388537767
  0.3219565615056497  0.5993514645401855  0.8462751405913468
  0.3912538413931908  0.5651900905356690  0.8462453345925826
  0.3416713527673901  0.5651861438453211  0.8462525422186682
  0.3416776036860429  0.5880196679262601  0.8078611905187455
  0.3664641456443185  0.6022365274084717  0.8483208747125826
  0.3219577478647300  0.5765581404840779  0.8784643714351577
  0.3467452251993448  0.5907744461587460  0.9189241024341209
  0.3861775675289288  0.5907704994683979  0.9189313100602066
  0.3664661977193057  0.5794417581957161  0.8805097066953153
  0.3219339823043186  0.4737317535484715  0.9209996425541210
  0.3219445872164191  0.5478912554217242  0.9189539084328855
  0.4109488132597031  0.4737317535484715  0.9209996425541210
  0.3664521713550878  0.5507763182900101  0.9209996425541210
  0.4109628396239212  0.5023971934541777  0.8805097066953153
  0.4357504832978064  0.4881455257941307  0.8462453345925826
  0.4751828256273903  0.4881415791037826  0.8462525422186682
  0.4554714558177674  0.4768128378311007  0.8078309388537767
  0.4554692207247300  0.4995135757425394  0.8784643714351577
  0.4751890765460429  0.5109751031847218  0.8078611905187455
  0.4554680343656498  0.5223068997986472  0.8462751405913468
  0.4109607875489339  0.5251919626669331  0.8483208747125826
  0.4306742094335441  0.5137259347268596  0.9189313100602066
  0.4357551533616690  0.5109787270907766  0.8078552648734459
  0.4306804603521966  0.5365594588077988  0.8805399583602841
  0.4109594181718036  0.5478912554217242  0.9189539084328855
  0.4109748139131520  0.5538574025726392  0.8078309388537767
  0.4306924346414275  0.5880196679262601  0.8078611905187455
  0.4109725788201148  0.5765581404840779  0.8784643714351577
  0.4306861837227750  0.5651861438453211  0.8462525422186682
  0.4554810286746904  0.5794417581957161  0.8805097066953153
  0.4554789765997032  0.6022365274084717  0.8483208747125826
  0.4109713924610345  0.5993514645401855  0.8462751405913468
  0.4802686723485757  0.5651900905356690  0.8462453345925826
  0.5197072655968122  0.5880196679262601  0.8078611905187455
  0.4999896448685366  0.5538574025726392  0.8078309388537767
  0.4802733424124385  0.5880232918323152  0.8078552648734459
  0.5247699843170539  0.5109787270907766  0.8078552648734459
  0.5247653142531910  0.4881455257941307  0.8462453345925826
  0.4999862234164191  0.5993514645401855  0.8462751405913468
  0.4999756185043186  0.5251919626669331  0.8483208747125826
  0.5444828653210345  0.5223068997986472  0.8462751405913468
  0.5197010146781593  0.5651861438453211  0.8462525422186682
  0.4999636442150878  0.4737317535484715  0.9209996425541210
  0.4802566980593447  0.5137298814172075  0.9189241024341209
  0.4999776705793058  0.5023971934541777  0.8805097066953153
  0.5196890403889287  0.5137259347268596  0.9189313100602066
  0.5196952913075814  0.5365594588077988  0.8805399583602841
  0.4802613681232077  0.5365630827138536  0.8805340327149844
  0.4999742491271882  0.5478912554217242  0.9189539084328855
  0.5247748871101142  0.5907744461587460  0.9189241024341209
  0.5444818332658570  0.5507763182900101  0.9209996425541210
  0.4999874097754994  0.5765581404840779  0.8784643714351577
  0.4554690543854599  0.5279815490772546  0.9531884745368536
  0.4109606045308836  0.5250979313656163  0.9511431392766961
  0.4306684860629660  0.4850992496893372  0.9532187262018225
  0.4751866751137352  0.5621438144308757  0.9532187262018225
  0.4802493938339769  0.4851028735953921  0.9532128005565228
  0.4999754354862684  0.5250979313656163  0.9511431392766961
  0.5444838853408442  0.5279815490772546  0.9531884745368536
  0.5196833170183506  0.4850992496893372  0.9532187262018225
  0.5247675828847460  0.5621474383369305  0.9532128005565228
  0.3467618695524386  0.6650678565738538  0.8078552648734459
  0.3467571994885756  0.6422346552772075  0.8462453345925826
  0.2971689874921967  0.6136040235493371  0.8805399583602841
  0.3467498952632076  0.6136076474553921  0.8805340327149844
  0.2774633410531520  0.6309019673141778  0.8078309388537767
  0.3219675037397031  0.6792810921500101  0.8483208747125826
  0.3219695558146903  0.6564863229372544  0.8805097066953153
  0.2971809617814276  0.6650642326677988  0.8078611905187455
  0.3416871765429662  0.6906485882908757  0.8805399583602841
  0.2971747108627750  0.6422307085868595  0.8462525422186682
  0.3664627762671884  0.6249358201632628  0.9189539084328855
  0.3861957927368121  0.6650642326677988  0.8078611905187455
  0.3664781720085366  0.6309019673141778  0.8078309388537767
  0.3664747505564191  0.6763960292817244  0.8462751405913468
  0.3861895418181595  0.6422307085868595  0.8462525422186682
  0.4109823346950877  0.6792810921500101  0.8483208747125826
  0.3664759369154992  0.6536027052256163  0.8784643714351577
  0.4109843867700750  0.6564863229372544  0.8805097066953153
  0.4357647262185925  0.6136076474553921  0.8805340327149844
  0.4307020074983507  0.6906485882908757  0.8805399583602841
  0.4306957565796979  0.6678150642099364  0.9189313100602066
  0.3861838184475814  0.6136040235493371  0.8805399583602841
  0.3912800586032078  0.7421124213153919  0.8078552648734459
  0.4307139817875812  0.7421087974093372  0.8078611905187455
  0.4307077308689288  0.7192752733283980  0.8462525422186682
  0.3416928999135443  0.7192752733283980  0.8462525422186682
  0.3219815301039213  0.7079465320557161  0.8078309388537767
  0.3416991508321967  0.7421087974093372  0.8078611905187455
  0.4109963610593058  0.7079465320557161  0.8078309388537767
  0.3912680843139770  0.6906522121969304  0.8805340327149844
  0.3664997191546904  0.7849910967972547  0.8078309388537767
  0.3664856927904724  0.7563256568915485  0.8483208747125826
  0.3862173398829659  0.8191533621508756  0.8078611905187455
  0.5247868613993448  0.6422346552772075  0.8462453345925826
  0.4554776072225730  0.6249358201632628  0.9189539084328855
  0.4999992177254595  0.6564863229372544  0.8805097066953153
  0.4554907678708838  0.6536027052256163  0.8784643714351577
  0.4751986494029659  0.6136040235493371  0.8805399583602841
  0.4357720304439601  0.6422346552772075  0.8462453345925826
  0.5247915314632077  0.6650678565738538  0.8078552648734459
  0.5247795571739770  0.6136076474553921  0.8805340327149844
  0.5197105875350825  0.6678150642099364  0.9189313100602066
  0.5000111920146905  0.7079465320557161  0.8078309388537767
  0.5197288127429658  0.7421087974093372  0.8078611905187455
  0.4802902194947295  0.7192792200187460  0.8462453345925826
  0.4802948895585924  0.7421124213153919  0.8078552648734459
  0.5197225618243135  0.7192752733283980  0.8462525422186682
  0.4999971656504724  0.6792810921500101  0.8483208747125826
  0.5000089569216530  0.7306472699671548  0.8784643714351577
  0.5197168384537352  0.6906485882908757  0.8805399583602841
  0.4802829152693617  0.6906522121969304  0.8805340327149844
  0.4802782452054984  0.6678190109002844  0.9189241024341209
  0.4555025758208442  0.7335308876787930  0.8805097066953153
  0.5000077705625728  0.7534405940232627  0.8462751405913468
  0.4555005237458569  0.7563256568915485  0.8483208747125826
  0.4555145501100751  0.7849910967972547  0.8078309388537767
  0.4357982476539771  0.8191569860569307  0.8078552648734459
  0.5248130786093613  0.8191569860569307  0.8078552648734459
  0.4357935775901141  0.7963237847602843  0.8462453345925826
  0.4752321708383505  0.8191533621508756  0.8078611905187455
  0.4109703604058569  0.6278208830315486  0.9209996425541210
  0.4999851913612416  0.6278208830315486  0.9209996425541210
  0.6334976962764191  0.5223068997986472  0.8462751405913468
  0.5641976565827751  0.4881415791037826  0.8462525422186682
  0.5444862867731518  0.4768128378311007  0.8078309388537767
  0.6137801452085755  0.4881455257941307  0.8462453345925826
  0.6087158456335443  0.5651861438453211  0.8462525422186682
  0.6137848152724384  0.5109787270907766  0.8078552648734459
  0.5692835033039603  0.5651900905356690  0.8462453345925826
  0.5890044758239211  0.5538574025726392  0.8078309388537767
  0.6335011177285367  0.4768128378311007  0.8078309388537767
  0.5642039075014275  0.5109751031847218  0.8078611905187455
  0.5889904494597030  0.5251919626669331  0.8483208747125826
  0.5889784751704722  0.4737317535484715  0.9209996425541210
  0.6087038713443135  0.5137259347268596  0.9189313100602066
  0.5444840516801146  0.4995135757425394  0.8784643714351577
  0.6334988826354991  0.4995135757425394  0.8784643714351577
  0.5889925015346904  0.5023971934541777  0.8805097066953153
  0.5692715290147292  0.5137298814172075  0.9189241024341209
  0.6087101222629659  0.5365594588077988  0.8805399583602841
  0.5692761990785925  0.5365630827138536  0.8805340327149844
  0.5889890800825730  0.5478912554217242  0.9189539084328855
  0.6334966642212415  0.5507763182900101  0.9209996425541210
  0.5890022407308837  0.5765581404840779  0.8784643714351577
  0.5444958596300750  0.5794417581957161  0.8805097066953153
  0.6335106905854596  0.5794417581957161  0.8805097066953153
  0.5692881733678231  0.5880232918323152  0.8078552648734459
  0.5445078339193057  0.6309019673141778  0.8078309388537767
  0.6335226648746906  0.6309019673141778  0.8078309388537767
  0.6138063624185924  0.6650678565738538  0.8078552648734459
  0.6087220965521968  0.5880196679262601  0.8078611905187455
  0.5642254546475814  0.6650642326677988  0.8078611905187455
  0.6335086385104726  0.6022365274084717  0.8483208747125826
  0.5642192037289286  0.6422307085868595  0.8462525422186682
  0.6138016923547293  0.6422346552772075  0.8462453345925826
  0.5444938075550877  0.6022365274084717  0.8483208747125826
  0.5890010543718038  0.5993514645401855  0.8462751405913468
  0.5642072294396979  0.5907704994683979  0.9189313100602066
  0.5444924381779577  0.6249358201632628  0.9189539084328855
  0.5445055988262686  0.6536027052256163  0.8784643714351577
  0.5642134803583504  0.6136040235493371  0.8805399583602841
  0.5890140486808441  0.6564863229372544  0.8805097066953153
  0.6137897180654988  0.5907744461587460  0.9189241024341209
  0.6137943881293616  0.6136076474553921  0.8805340327149844
  0.6335072691333422  0.6249358201632628  0.9189539084328855
  0.6335204297816530  0.6536027052256163  0.8784643714351577
  0.7027996462278229  0.5109787270907766  0.8078552648734459
  0.7225159486839210  0.4768128378311007  0.8078309388537767
  0.6780193067793052  0.5538574025726392  0.8078309388537767
  0.7422335694121966  0.5109751031847218  0.8078611905187455
  0.6532187384568121  0.5109751031847218  0.8078611905187455
  0.7225125272318034  0.5223068997986472  0.8462751405913468
  0.6532124875381597  0.4881415791037826  0.8462525422186682
  0.6582983342593447  0.5651900905356690  0.8462453345925826
  0.6780052804150877  0.5251919626669331  0.8483208747125826
  0.6977306765889287  0.5651861438453211  0.8462525422186682
  0.7027949761639605  0.4881455257941307  0.8462453345925826
  0.7422273184935442  0.4881415791037826  0.8462525422186682
  0.7225137135908839  0.4995135757425394  0.8784643714351577
  0.6779933061258567  0.4737317535484715  0.9209996425541210
  0.6780073324900751  0.5023971934541777  0.8805097066953153
  0.6582863599701141  0.5137298814172075  0.9189241024341209
  0.6977249532183505  0.5365594588077988  0.8805399583602841
  0.6780039110379577  0.5478912554217242  0.9189539084328855
  0.6780170716862687  0.5765581404840779  0.8784643714351577
  0.6582910300339770  0.5365630827138536  0.8805340327149844
  0.6977369275075813  0.5880196679262601  0.8078611905187455
  0.6583030043232077  0.5880232918323152  0.8078552648734459
  0.7225374958300745  0.6309019673141778  0.8078309388537767
  0.6532402856029661  0.6650642326677988  0.8078611905187455
  0.7422551165583505  0.6650642326677988  0.8078611905187455
  0.7028211933739769  0.6650678565738538  0.8078552648734459
  0.7028165233101140  0.6422346552772075  0.8462453345925826
  0.6532340346843135  0.6422307085868595  0.8462525422186682
  0.6780158853271884  0.5993514645401855  0.8462751405913468
  0.7225234694658569  0.6022365274084717  0.8483208747125826
  0.7422488656396978  0.6422307085868595  0.8462525422186682
  0.6532283113137353  0.6136040235493371  0.8805399583602841
  0.6532220603950826  0.5907704994683979  0.9189313100602066
  0.6780288796362288  0.6564863229372544  0.8805097066953153
  0.7028092190847461  0.6136076474553921  0.8805340327149844
  0.7225255215408443  0.5794417581957161  0.8805097066953153
  0.5692642247893617  0.4851028735953921  0.9532128005565228
  0.5889902664416532  0.5250979313656163  0.9511431392766961
  0.6335301856566263  0.7563256568915485  0.8483208747125826
  0.6335192434225730  0.6763960292817244  0.8462751405913468
  0.5445153547012418  0.7563256568915485  0.8483208747125826
  0.5693097205139768  0.7421124213153919  0.8078552648734459
  0.6087436436983507  0.7421087974093372  0.8078611905187455
  0.5890119966058569  0.6792810921500101  0.8483208747125826
  0.6087373927796982  0.7192752733283980  0.8462525422186682
  0.5890226015179575  0.7534405940232627  0.8462751405913468
  0.5445044124671884  0.6763960292817244  0.8462751405913468
  0.5890260229700749  0.7079465320557161  0.8078309388537767
  0.5693050504501140  0.7192792200187460  0.8462453345925826
  0.5692930761608833  0.6678190109002844  0.9189241024341209
  0.5445174067762288  0.7335308876787930  0.8805097066953153
  0.5692977462247462  0.6906522121969304  0.8805340327149844
  0.6087316694091199  0.6906485882908757  0.8805399583602841
  0.5890237878770377  0.7306472699671548  0.8784643714351577
  0.5642407508750827  0.7963198380699364  0.8462525422186682
  0.5445293810654595  0.7849910967972547  0.8078309388537767
  0.5642470017937351  0.8191533621508756  0.8078611905187455
  0.6138279095647462  0.8191569860569307  0.8078552648734459
  0.6583198814054986  0.7192792200187460  0.8462453345925826
  0.6780268275612416  0.6792810921500101  0.8483208747125826
  0.6780408539254592  0.7079465320557161  0.8078309388537767
  0.6977522237350826  0.7192752733283980  0.8462525422186682
  0.7225340743779576  0.6763960292817244  0.8462751405913468
  0.6977584746537352  0.7421087974093372  0.8078611905187455
  0.6583245514693615  0.7421124213153919  0.8078552648734459
  0.6583125771801309  0.6906522121969304  0.8805340327149844
  0.6335442120208441  0.7849910967972547  0.8078309388537767
  0.7473058609893615  0.5365630827138536  0.8805340327149844
  0.7670201113704724  0.5251919626669331  0.8483208747125826
  0.7918098071193449  0.4881455257941307  0.8462453345925826
  0.7918144771832077  0.5109787270907766  0.8078552648734459
  0.7670341377346903  0.5538574025726392  0.8078309388537767
  0.8115307796393055  0.4768128378311007  0.8078309388537767
  0.8312484003675814  0.5109751031847218  0.8078611905187455
  0.7473131652147296  0.5651900905356690  0.8462453345925826
  0.7670307162825728  0.5993514645401855  0.8462751405913468
  0.7918360243293615  0.6650678565738538  0.8078552648734459
  0.7473178352785922  0.5880232918323152  0.8078552648734459
  0.7867455075443135  0.5651861438453211  0.8462525422186682
  0.7867517584629659  0.5880196679262601  0.8078611905187455
  0.8115523267854596  0.6309019673141778  0.8078309388537767
  0.7670556848808441  0.7079465320557161  0.8078309388537767
  0.3220297766181647  0.8854134264961638  0.3395694998218133
  0.3862580656152735  0.8711965670139525  0.2991098156279764
  0.3468241424309002  0.8712001909200074  0.2991038899826768
  0.3665370234348807  0.8825283636278780  0.3375237657005778
  0.2527283675473904  0.8739473985560903  0.4101799351694375
  0.2775233788385761  0.8597350395717700  0.3697129965443885
  0.3023155262370539  0.8967845465430844  0.3717826578242152
  0.3023108561731909  0.8739513452464382  0.4101727275433518
  0.3220284072410345  0.9081127192509548  0.4102025335421162
  0.2972345823089288  0.8995317541791672  0.4828587030109758
  0.2775232124993058  0.8882030129064852  0.4444370996460845
  0.3665359913797031  0.9109977821192409  0.4122482676633518
  0.3665382097939605  0.8597350395717700  0.3697129965443885
  0.3417431985027747  0.8739473985560903  0.4101799351694375
  0.3220318286931520  0.8626186572834084  0.3717583318045461
  0.3417494494214275  0.8967809226370294  0.3717885834695149
  0.3220295936001145  0.8853193951948470  0.4423917643859269
  0.3862494132643134  0.8995317541791672  0.4828587030109758
  0.3862556641829661  0.9223652782601064  0.4444673513110535
  0.3665380434546903  0.8882030129064852  0.4444370996460845
  0.3468217409985924  0.9223689021661613  0.4444614256657537
  0.3468170709347294  0.8995357008695152  0.4828514953848903
  0.3913303571924385  0.8967845465430844  0.3717826578242152
  0.4555530407493452  0.8597350395717700  0.3697129965443885
  0.4358389733862846  0.8712001909200074  0.2991038899826768
  0.4803451881478231  0.8967845465430844  0.3717826578242152
  0.4752728965706583  0.8711965670139525  0.2991098156279764
  0.4555650150385760  0.9111952486902317  0.2970342287028500
  0.4307700037473903  0.9254076076745515  0.3375011673278990
  0.4803524923731909  0.9254115543648996  0.3374939597018133
  0.4555648486993059  0.9396632220249470  0.3717583318045461
  0.4307580294581596  0.8739473985560903  0.4101799351694375
  0.4803405180839603  0.8739513452464382  0.4101727275433518
  0.3913256871285755  0.8739513452464382  0.4101727275433518
  0.4358319018901141  0.8995357008695152  0.4828514953848903
  0.4752642442196980  0.8995317541791672  0.4828587030109758
  0.4110444245554994  0.8853193951948470  0.4423917643859269
  0.4752704951383506  0.9223652782601064  0.4444673513110535
  0.4752762185089289  0.9509919632976289  0.4101799351694375
  0.5642877275260428  0.8711965670139525  0.2991098156279764
  0.5890763215593058  0.8626186572834084  0.3717583318045461
  0.5248538043416694  0.8712001909200074  0.2991038899826768
  0.5445678717047299  0.8597350395717700  0.3697129965443885
  0.5000614906039214  0.8626186572834084  0.3717583318045461
  0.5000594385289341  0.8854134264961638  0.3395694998218133
  0.5445666853456497  0.8825283636278780  0.3375237657005778
  0.5693600191032078  0.8967845465430844  0.3717826578242152
  0.5890742694843185  0.8854134264961638  0.3395694998218133
  0.5445798459939607  0.9111952486902317  0.2970342287028500
  0.5000734648931520  0.9140788664018697  0.2990795639630076
  0.5693673233285754  0.9254115543648996  0.3374939597018133
  0.5197848347027749  0.9254076076745515  0.3375011673278990
  0.5000712298001145  0.9367796043133085  0.3697129965443885
  0.5445796796546905  0.9396632220249470  0.3717583318045461
  0.6780891004397031  0.8854134264961638  0.3395694998218133
  0.6335815163010344  0.8825283636278780  0.3375237657005778
  0.6583748500585924  0.8967845465430844  0.3717826578242152
  0.6533025584814274  0.8711965670139525  0.2991098156279764
  0.6780911525146902  0.8626186572834084  0.3717583318045461
  0.6138686352970539  0.8712001909200074  0.2991038899826768
  0.6335827026601146  0.8597350395717700  0.3697129965443885
  0.5890729001071885  0.9081127192509548  0.4102025335421162
  0.5197728604135440  0.8739473985560903  0.4101799351694375
  0.5197791113321968  0.8967809226370294  0.3717885834695149
  0.5693553490393449  0.8739513452464382  0.4101727275433518
  0.5445656532904724  0.9109977821192409  0.4122482676633518
  0.5000580691518038  0.9081127192509548  0.4102025335421162
  0.5445677053654595  0.8882030129064852  0.4444370996460845
  0.5000592555108839  0.8853193951948470  0.4423917643859269
  0.5248587071347295  0.9509959099879767  0.4101727275433518
  0.5248514029093615  0.9223689021661613  0.4444614256657537
  0.5642853260937352  0.9223652782601064  0.4444673513110535
  0.6780877310625729  0.9081127192509548  0.4102025335421162
  0.6087876913689290  0.8739473985560903  0.4101799351694375
  0.6583701799947294  0.8739513452464382  0.4101727275433518
  0.6087939422875814  0.8967809226370294  0.3717885834695149
  0.6335804842458572  0.9109977821192409  0.4122482676633518
  0.6335825363208442  0.8882030129064852  0.4444370996460845
  0.6780889174216531  0.8853193951948470  0.4423917643859269
  0.5890740864662682  0.8853193951948470  0.4423917643859269
  0.6532939061304672  0.8995317541791672  0.4828587030109758
  0.6533001570491199  0.9223652782601064  0.4444673513110535
  0.6138615638008834  0.8995357008695152  0.4828514953848903
  0.6138662338647463  0.9223689021661613  0.4444614256657537
  0.3220294272608443  0.9137873685295622  0.5171158674876231
  0.3665346220025730  0.9336970748740319  0.4828813013836548
  0.3468097667093613  0.8709086930476999  0.5171401935072921
  0.2972288589383507  0.8709050691416447  0.5171461191525918
  0.3220154008966262  0.8851219286238562  0.5576058033464286
  0.3417407970704672  0.9251161098022441  0.5555374708525144
  0.3665226477133421  0.8822368657555704  0.5555600692251931
  0.3220174529716135  0.8623271594111007  0.5897946353291614
  0.3665358083616531  0.9109037508179239  0.5150705322274655
  0.4307618789445044  0.9479496338831833  0.5171461191525918
  0.4358245976647461  0.8709086930476999  0.5171401935072921
  0.4110422061412418  0.9365821377423179  0.4849270355048902
  0.4110442582162290  0.9137873685295622  0.5171158674876231
  0.3913232856962678  0.9251200564925921  0.5555302632264286
  0.4307556280258519  0.9251161098022441  0.5555374708525144
  0.4110302318520107  0.8851219286238562  0.5576058033464286
  0.4110322839269981  0.8623271594111007  0.5897946353291614
  0.4110420231231914  0.9364881064410008  0.5877493000690038
  0.3913279557601307  0.9479532577892380  0.5171401935072921
  0.5000590891716135  0.9137873685295622  0.5171158674876231
  0.4555506393170376  0.9109037508179239  0.5150705322274655
  0.4555388480458572  0.8595375730007792  0.4849270355048902
  0.4752585208491199  0.8709050691416447  0.5171461191525918
  0.5248394286201308  0.8709086930476999  0.5171401935072921
  0.5197704589812365  0.9251161098022441  0.5555374708525144
  0.5000450628073956  0.8851219286238562  0.5576058033464286
  0.5000471148823825  0.8623271594111007  0.5897946353291614
  0.4555374786687267  0.8822368657555704  0.5555600692251931
  0.4803427867155154  0.9479532577892380  0.5171401935072921
  0.4555494529579575  0.9336970748740319  0.4828813013836548
  0.5000570370966264  0.9365821377423179  0.4849270355048902
  0.5197767098998890  0.9479496338831833  0.5171461191525918
  0.4555504729777674  0.9393717241526391  0.5897946353291614
  0.4803381166516524  0.9251200564925921  0.5555302632264286
  0.5000568540785763  0.9364881064410008  0.5877493000690038
  0.3665216156581647  0.9107062842469331  0.6302845711879672
  0.3417350736998892  0.8964894247647217  0.5898248869941304
  0.3417288227812364  0.8736559006837824  0.6282162386940529
  0.3913113114070372  0.8736598473741305  0.6282090310679671
  0.3913159814709001  0.8964930486707768  0.5898189613488307
  0.4110288624748804  0.9078212213786472  0.6282388370667316
  0.4307436537366212  0.8736559006837824  0.6282162386940529
  0.4555364466135494  0.9107062842469331  0.6302845711879672
  0.4307499046552737  0.8964894247647217  0.5898248869941304
  0.4110300488339608  0.8850278973225394  0.6604280679105424
  0.4358221962324386  0.9220774042938538  0.6624977291903692
  0.3665236677331519  0.8879115150341775  0.6624734031706999
  0.3862350375427750  0.8992402563068594  0.7008950065355914
  0.4358175261685757  0.8992442029972074  0.7008877989095055
  0.3862293141721969  0.8706135712693372  0.7351824226772071
  0.4358102219432077  0.8706171951753919  0.7351764970319075
  0.4555384986885366  0.8879115150341775  0.6624734031706999
  0.4803308124262849  0.8964930486707768  0.5898189613488307
  0.4803261423624218  0.8736598473741305  0.6282090310679671
  0.5000436934302652  0.9078212213786472  0.6282388370667316
  0.5000448797893453  0.8850278973225394  0.6604280679105424
  0.5197584846920058  0.8736559006837824  0.6282162386940529
  0.5197647356106586  0.8964894247647217  0.5898248869941304
  0.5445512775689338  0.9107062842469331  0.6302845711879672
  0.4752561194168122  0.9220737803877985  0.6625036548356688
  0.4752498684981597  0.8992402563068594  0.7008950065355914
  0.5248323571239603  0.8992442029972074  0.7008877989095055
  0.4752441451275815  0.8706135712693372  0.7351824226772071
  0.5248250528985924  0.8706171951753919  0.7351764970319075
  0.6087795665660430  0.8964894247647217  0.5898248869941304
  0.5890739201269982  0.9137873685295622  0.5171158674876231
  0.5693529476070373  0.9251200564925921  0.5555302632264286
  0.5445642839133422  0.9336970748740319  0.4828813013836548
  0.5642733518045044  0.8709050691416447  0.5171461191525918
  0.5693456433816694  0.8964930486707768  0.5898189613488307
  0.5890619458377673  0.8623271594111007  0.5897946353291614
  0.5890598937627801  0.8851219286238562  0.5576058033464286
  0.6087852899366211  0.9251161098022441  0.5555374708525144
  0.6138542595755154  0.8709086930476999  0.5171401935072921
  0.6335685099566264  0.8595375730007792  0.4849270355048902
  0.6335791148687268  0.9336970748740319  0.4828813013836548
  0.6335803012278068  0.9109037508179239  0.5150705322274655
  0.6780887510823828  0.9137873685295622  0.5171158674876231
  0.6532881827598891  0.8709050691416447  0.5171461191525918
  0.6583677785624218  0.9251200564925921  0.5555302632264286
  0.6780747247181645  0.8851219286238562  0.5576058033464286
  0.6335671405794960  0.8822368657555704  0.5555600692251931
  0.6780767767931516  0.8623271594111007  0.5897946353291614
  0.6583604743370539  0.8964930486707768  0.5898189613488307
  0.6087915408552738  0.9479496338831833  0.5171461191525918
  0.5890718680520109  0.9365821377423179  0.4849270355048902
  0.5693576176708999  0.9479532577892380  0.5171401935072921
  0.5445653039331518  0.9393717241526391  0.5897946353291614
  0.5890716850339609  0.9364881064410008  0.5877493000690038
  0.6087733156473903  0.8736559006837824  0.6282162386940529
  0.5890597107447301  0.8850278973225394  0.6604280679105424
  0.5693409733178064  0.8736598473741305  0.6282090310679671
  0.5890585243856498  0.9078212213786472  0.6282388370667316
  0.6583558042731911  0.8736598473741305  0.6282090310679671
  0.6335661085243187  0.9107062842469331  0.6302845711879672
  0.6335681605993059  0.8879115150341775  0.6624734031706999
  0.6780745417001146  0.8850278973225394  0.6604280679105424
  0.5642589760829659  0.8706135712693372  0.7351824226772071
  0.5642646994535440  0.8992402563068594  0.7008950065355914
  0.6138471880793449  0.8992442029972074  0.7008877989095055
  0.6138398838539769  0.8706171951753919  0.7351764970319075
  0.7473850109501141  0.8739513452464382  0.4101727275433518
  0.7225975336154989  0.8597350395717700  0.3697129965443885
  0.6978087732429660  0.8967809226370294  0.3717885834695149
  0.6978025223243134  0.8739473985560903  0.4101799351694375
  0.7225973672762288  0.8882030129064852  0.4444370996460845
  0.7028763947562681  0.8995357008695152  0.4828514953848903
  0.7225833409120112  0.8595375730007792  0.4849270355048902
  0.7028690905309001  0.8709086930476999  0.5171401935072921
  0.7225819715348806  0.8822368657555704  0.5555600692251931
  0.7423030137152736  0.8709050691416447  0.5171461191525918
  0.6977881466027749  0.8736559006837824  0.6282162386940529
  0.6977943975214276  0.8964894247647217  0.5898248869941304
  0.7670916077485366  0.8623271594111007  0.5897946353291614
  0.1687155961608833  0.2834706808095152  0.2648151918602749
  0.2329297891333420  0.2405874900724935  0.2648449978590393
  0.2329429497816531  0.2692543751348471  0.2243554608613115
  0.2329417634225729  0.2920476991909551  0.1921662300175005
  0.2081541894091197  0.3063002582001064  0.2264310477864377
  0.2081479384904671  0.2834667341191672  0.2648223994863604
  0.1636512965858518  0.3605112988607056  0.2648223994863604
  0.1439365053241111  0.3946766195555702  0.2648449978590393
  0.1636575475045046  0.3833448229416448  0.2264310477864377
  0.1884331472287269  0.3176320548140318  0.2648449978590393
  0.2329407313673953  0.3205171176823177  0.2668907319802748
  0.2081599127796981  0.3349269432376287  0.1921436316448220
  0.2329547577316136  0.3491825575880237  0.2264007961214691
  0.2132384552755154  0.3833484468476998  0.2264251221411380
  0.1884440894627802  0.3975616824238561  0.2668907319802748
  0.2329527056566262  0.3719773268007794  0.1942119641387365
  0.1439496659724222  0.4233435046179241  0.2243554608613115
  0.1191546546812367  0.4375558636022443  0.2648223994863604
  0.1439474475581647  0.4746062471653945  0.2668907319802748
  0.1439614739223827  0.5032716870711007  0.2264007961214691
  0.1636728437320057  0.5146004283437825  0.2648223994863604
  0.1242405014024217  0.5146043750341304  0.2648151918602749
  0.1884560637520107  0.4490218915423178  0.1942119641387365
  0.2132504295647462  0.4348086559661613  0.1537463542995996
  0.2329667320208443  0.4006427667064852  0.1537220282799308
  0.2329633105687268  0.4461368286740320  0.1921662300175005
  0.2132457595008830  0.4119754546695153  0.1921364240187363
  0.2329764712170377  0.4748037137363855  0.1516766930197729
  0.2081877108445045  0.5118495968016449  0.1537522799448996
  0.2081814599258517  0.4890160727207055  0.1921436316448220
  0.1687491175962679  0.4890200194110537  0.1921364240187363
  0.1884666686641115  0.5231813934155704  0.1921662300175005
  0.2329742528027799  0.5260664562838562  0.1942119641387365
  0.1884581158269980  0.4262271223295621  0.2264007961214691
  0.2329644969278067  0.4233435046179241  0.2243554608613115
  0.1687371433070370  0.4375598102925923  0.2648151918602749
  0.2081694856366212  0.4375558636022443  0.2648223994863604
  0.2081757365552738  0.4603893876831833  0.2264310477864377
  0.1687418133708999  0.4603930115892381  0.2264251221411380
  0.1884546943748805  0.4717211842971088  0.2648449978590393
  0.2329622785135494  0.4746062471653945  0.2668907319802748
  0.1884678550231914  0.5003880693594625  0.2243554608613115
  0.2329763048777672  0.5032716870711007  0.2264007961214691
  0.2132553323578060  0.5146043750341304  0.2648151918602749
  0.1636790946506583  0.5374339524247218  0.2264310477864377
  0.1439580524702652  0.5487657490386473  0.2648449978590393
  0.1191762018273904  0.5916449930853210  0.2648223994863604
  0.1439689947043183  0.6286953766484715  0.2668907319802748
  0.2132719767109000  0.5888977854492383  0.1537463542995996
  0.2132673066470371  0.5660645841525921  0.1921364240187363
  0.2329882791669981  0.5547318961895624  0.1537220282799308
  0.2329848577148803  0.6002259581571089  0.1921662300175005
  0.2329980183631916  0.6288928432194625  0.1516766930197729
  0.2082030070720058  0.6431052022037826  0.1921436316448220
  0.1884656366089339  0.5516508119069331  0.2668907319802748
  0.2329728834256500  0.5487657490386473  0.2648449978590393
  0.2132600024216691  0.5374375763307768  0.2264251221411380
  0.1884796629731521  0.5803162518126390  0.2264007961214691
  0.2329860440739606  0.5774326341010009  0.2243554608613115
  0.2081910327827749  0.5916449930853210  0.2648223994863604
  0.1687586904531909  0.5916489397756689  0.2648151918602749
  0.2081972837014277  0.6144785171662601  0.2264310477864377
  0.1687633605170538  0.6144821410723151  0.2264251221411380
  0.2329838256597031  0.6286953766484715  0.2668907319802748
  0.1884894021693453  0.6544771988425395  0.2243554608613115
  0.1884762415210340  0.6258103137801856  0.2648449978590393
  0.2329957999489338  0.6801555857669330  0.1942119641387365
  0.2330075912201145  0.7315217635840781  0.2243554608613115
  0.2329978520239213  0.6573608165541776  0.2264007961214691
  0.2132815495678232  0.6915267058138536  0.2264251221411380
  0.2329944305718036  0.7028548785217242  0.2648449978590393
  0.2132768795039601  0.6686935045172074  0.2648151918602749
  0.1636943908781593  0.6686895578268595  0.2648223994863604
  0.2330053728058570  0.7827845061315485  0.2668907319802748
  0.2082125799289288  0.7457341225683979  0.2648223994863604
  0.2526508313137353  0.2292556934585679  0.2264310477864377
  0.2526445803950828  0.2064221693776286  0.2648223994863604
  0.3664412619933420  0.1635429253309548  0.2648449978590393
  0.3219340151766261  0.1664279881992407  0.2668907319802748
  0.3219480415408443  0.1950934281049468  0.2264007961214691
  0.3416594113504671  0.2064221693776286  0.2648223994863604
  0.3022270690208833  0.2064261160679766  0.2648151918602749
  0.3416656622691198  0.2292556934585679  0.2264310477864377
  0.3219459894658571  0.2178881973177023  0.1942119641387365
  0.3022317390847461  0.2292593173646228  0.2264251221411380
  0.4357551862339771  0.2036749617415459  0.1537463542995996
  0.4751891094183509  0.2036713378354910  0.1537522799448996
  0.3861560532550827  0.1293776046360903  0.2648223994863604
  0.4751708842104674  0.1293776046360903  0.2648223994863604
  0.3664532362825730  0.2150031344494165  0.1921662300175005
  0.4109608204212417  0.2178881973177023  0.1942119641387365
  0.3861680275443136  0.1808378137545518  0.1921436316448220
  0.4357505161701137  0.1808417604448995  0.1921364240187363
  0.4751828584996984  0.1808378137545518  0.1921436316448220
  0.4554680672379576  0.2150031344494165  0.1921662300175005
  0.3861623041737353  0.1522111287170292  0.2264310477864377
  0.3664544226416531  0.1922098103933084  0.2243554608613115
  0.3912418999762681  0.2064261160679766  0.2648151918602749
  0.3912465700401309  0.2292593173646228  0.2264251221411380
  0.4109488461320109  0.1664279881992407  0.2668907319802748
  0.4306742423058519  0.2064221693776286  0.2648223994863604
  0.4109628724962286  0.1950934281049468  0.2264007961214691
  0.4306804932245044  0.2292556934585679  0.2264310477864377
  0.4357385418808832  0.1293815513264383  0.2648151918602749
  0.4357432119447461  0.1522147526230844  0.2264251221411380
  0.4802614009955157  0.2292593173646228  0.2264251221411380
  0.4554560929487267  0.1635429253309548  0.2648449978590393
  0.4802567309316524  0.2064261160679766  0.2648151918602749
  0.4554692535970374  0.1922098103933084  0.2243554608613115
  0.4751771351291200  0.1522111287170292  0.2264310477864377
  0.4752283542243131  0.4378473614745517  0.0467860959617451
  0.2774633739254598  0.3235982019649469  0.1537220282799308
  0.3022437133739770  0.2807195264830843  0.1537463542995996
  0.3664663969308839  0.2436700195117701  0.1516766930197729
  0.3416776365583505  0.2807159025770295  0.1537522799448996
  0.3416833599289288  0.3093425876145518  0.1194648638032834
  0.3219697550262683  0.3207145842533088  0.1516766930197729
  0.2971809946537352  0.3577604673185680  0.1537522799448996
  0.3219685686671884  0.3435079083094165  0.1194874621759622
  0.2577470714693615  0.3577640912246228  0.1537463542995996
  0.2971867180243133  0.3863871523560902  0.1194648638032834
  0.2774719267625730  0.4205524730509549  0.1194874621759622
  0.2526843527491199  0.4348050320601065  0.1537522799448996
  0.2774731131216530  0.3977591489948472  0.1516766930197729
  0.3219795109012415  0.4234375359192409  0.1215331962971977
  0.3022652605201307  0.4348086559661613  0.1537463542995996
  0.3219815629762286  0.4006427667064852  0.1537220282799308
  0.3416991837045044  0.4348050320601065  0.1537522799448996
  0.3467738767139767  0.4092243003430844  0.0810675864580612
  0.2971627694458519  0.2834667341191672  0.2648223994863604
  0.3022390433101144  0.2578863251864383  0.1921364240187363
  0.2774373732720107  0.2434725529407793  0.2668907319802748
  0.2774513996362289  0.2721379928464854  0.2264007961214691
  0.2577304271162679  0.2834706808095152  0.2648151918602749
  0.2774493475612416  0.2949327620592408  0.1942119641387365
  0.2774479781841112  0.3176320548140318  0.2648449978590393
  0.2971747437350828  0.3349269432376287  0.1921436316448220
  0.2577424014054986  0.3349308899279767  0.1921364240187363
  0.2971690203645045  0.3063002582001064  0.2264310477864377
  0.2577350971801308  0.3063038821061614  0.2264251221411380
  0.3467572323608833  0.3349308899279767  0.1921364240187363
  0.3219565943779573  0.2920476991909551  0.1921662300175005
  0.3416713856396980  0.2578823784960903  0.1921436316448220
  0.3664641785166261  0.2949327620592408  0.1942119641387365
  0.3219577807370374  0.2692543751348471  0.2243554608613115
  0.3664662305916134  0.2721379928464854  0.2264007961214691
  0.3467452580716525  0.2834706808095152  0.2648151918602749
  0.3467499281355154  0.3063038821061614  0.2264251221411380
  0.3219446200887268  0.2405874900724935  0.2648449978590393
  0.3664628091394960  0.3176320548140318  0.2648449978590393
  0.3664522042273954  0.2434725529407793  0.2668907319802748
  0.3219555623227801  0.3205171176823177  0.2668907319802748
  0.2774611388324223  0.3462989398763855  0.2243554608613115
  0.2774708947073954  0.4490218915423178  0.1942119641387365
  0.2774599524733422  0.3690922639324934  0.1921662300175005
  0.2526781018304671  0.4119715079791672  0.1921436316448220
  0.2774729467823828  0.4262271223295621  0.2264007961214691
  0.2526723784598889  0.3833448229416448  0.2264310477864377
  0.3022486161670369  0.3605152455510536  0.2648151918602749
  0.2971843165920058  0.4375558636022443  0.2648223994863604
  0.2577519742624220  0.4375598102925923  0.2648151918602749
  0.3022532862309000  0.3833484468476998  0.2264251221411380
  0.3416809584966213  0.3605112988607056  0.2648223994863604
  0.3219675366120108  0.3719773268007794  0.1942119641387365
  0.3219695886869979  0.3491825575880237  0.2264007961214691
  0.3416872094152737  0.3833448229416448  0.2264310477864377
  0.3664747834287265  0.3690922639324934  0.1921662300175005
  0.3219661672348806  0.3946766195555702  0.2648449978590393
  0.3664737513735491  0.3975616824238561  0.2668907319802748
  0.3022605904562678  0.4119754546695153  0.1921364240187363
  0.3416929327858518  0.4119715079791672  0.1921436316448220
  0.3467668052178061  0.4375598102925923  0.2648151918602749
  0.3219781415241114  0.4461368286740320  0.1921662300175005
  0.3219793278831915  0.4233435046179241  0.2243554608613115
  0.4109748467854599  0.2465536372234084  0.1537220282799308
  0.3912585443293616  0.2807195264830843  0.1537463542995996
  0.4306924675137355  0.2807159025770295  0.1537522799448996
  0.4109727947104724  0.2693484064361639  0.1215331962971977
  0.4109833996225729  0.3435079083094165  0.1194874621759622
  0.3664782048808444  0.3235982019649469  0.1537220282799308
  0.4109845859816531  0.3207145842533088  0.1516766930197729
  0.3912658485547296  0.3093465343048998  0.1194576561771979
  0.4554812278862687  0.2436700195117701  0.1516766930197729
  0.4554800415271885  0.2664633435678780  0.1194874621759622
  0.4802733752847463  0.2807195264830843  0.1537463542995996
  0.4554930358362289  0.3235982019649469  0.1537220282799308
  0.4306981908843134  0.3093425876145518  0.1194648638032834
  0.4307044418029658  0.3321761116954910  0.0810735121033610
  0.4802687052208834  0.2578863251864383  0.1921364240187363
  0.3912538742654989  0.2578863251864383  0.1921364240187363
  0.4306862165950827  0.2578823784960903  0.1921436316448220
  0.4109726116924222  0.2692543751348471  0.2243554608613115
  0.4554810615469984  0.2721379928464854  0.2264007961214691
  0.4109594510441115  0.2405874900724935  0.2648449978590393
  0.4357600890270372  0.2834706808095152  0.2648151918602749
  0.3861776004012362  0.2834667341191672  0.2648223994863604
  0.4751924313566210  0.2834667341191672  0.2648223994863604
  0.4554670351827800  0.2434725529407793  0.2668907319802748
  0.4752044056458519  0.3349269432376287  0.1921436316448220
  0.4357720633162677  0.3349308899279767  0.1921364240187363
  0.3861895746904672  0.3349269432376287  0.1921436316448220
  0.4554790094720107  0.2949327620592408  0.1942119641387365
  0.4109714253333422  0.2920476991909551  0.1921662300175005
  0.4554908007431914  0.3462989398763855  0.2243554608613115
  0.3664759697878066  0.3462989398763855  0.2243554608613115
  0.4357647590909001  0.3063038821061614  0.2264251221411380
  0.4751986822752740  0.3063002582001064  0.2264310477864377
  0.3861838513198890  0.3063002582001064  0.2264310477864377
  0.4109703932781649  0.3205171176823177  0.2668907319802748
  0.4554776400948807  0.3176320548140318  0.2648449978590393
  0.3912800914755155  0.4348086559661613  0.1537463542995996
  0.3664901791700750  0.3750584110834082  0.0810432604383919
  0.3664761528058573  0.3463929711777024  0.1215331962971977
  0.3862077998983506  0.4092206764370296  0.0810735121033610
  0.3664999183662685  0.4492193581133085  0.0789979251782346
  0.3664867577179576  0.4205524730509549  0.1194874621759622
  0.4109965602708838  0.3721747933717703  0.0789979251782346
  0.4109943418566263  0.4234375359192409  0.1215331962971977
  0.4109963939316136  0.4006427667064852  0.1537220282799308
  0.4357887076693615  0.4092243003430844  0.0810675864580612
  0.4554909837612416  0.3463929711777024  0.1215331962971977
  0.4357840376054986  0.3863910990464384  0.1194576561771979
  0.4357767333801308  0.3577640912246228  0.1537463542995996
  0.4555015886733422  0.4205524730509549  0.1194874621759622
  0.4555050101254596  0.3750584110834082  0.0810432604383919
  0.4752163799350826  0.3863871523560902  0.1194648638032834
  0.4752226308537352  0.4092206764370296  0.0810735121033610
  0.4555147493216530  0.4492193581133085  0.0789979251782346
  0.4555027750324223  0.3977591489948472  0.1516766930197729
  0.3861958256091197  0.3577604673185680  0.1537522799448996
  0.3664857256627800  0.4490218915423178  0.1942119641387365
  0.4109929724794961  0.4461368286740320  0.1921662300175005
  0.3912754214116528  0.4119754546695153  0.1921364240187363
  0.4109823675673955  0.3719773268007794  0.1942119641387365
  0.4307077637412366  0.4119715079791672  0.1921436316448220
  0.4307140146598892  0.4348050320601065  0.1537522799448996
  0.4554896143841115  0.3690922639324934  0.1921662300175005
  0.4555005566181646  0.4490218915423178  0.1942119641387365
  0.4752106565645047  0.3577604673185680  0.1537522799448996
  0.3861991475473905  0.4375558636022443  0.2648223994863604
  0.3912681171862846  0.3833484468476998  0.2264251221411380
  0.4109809981902652  0.3946766195555702  0.2648449978590393
  0.3664877777377671  0.4262271223295621  0.2264007961214691
  0.3912634471224217  0.3605152455510536  0.2648151918602749
  0.4109844196423826  0.3491825575880237  0.2264007961214691
  0.4109941588385759  0.4233435046179241  0.2243554608613115
  0.4752139785027749  0.4375558636022443  0.2648223994863604
  0.4307020403706582  0.3833448229416448  0.2264310477864377
  0.4306957894520057  0.3605112988607056  0.2648223994863604
  0.4357816361731907  0.4375598102925923  0.2648151918602749
  0.4554885823289341  0.3975616824238561  0.2668907319802748
  0.4555026086931523  0.4262271223295621  0.2264007961214691
  0.5247700171893617  0.2036749617415459  0.1537463542995996
  0.5642039403737352  0.2036713378354910  0.1537522799448996
  0.5247533728362680  0.1293815513264383  0.2648151918602749
  0.5444709239041116  0.1635429253309548  0.2648449978590393
  0.5247580429001308  0.1522147526230844  0.2264251221411380
  0.4999636770873956  0.1664279881992407  0.2668907319802748
  0.4999777034516139  0.1950934281049468  0.2264007961214691
  0.5247653471254985  0.1808417604448995  0.1921364240187363
  0.5196953241798894  0.2292556934585679  0.2264310477864377
  0.5196890732612367  0.2064221693776286  0.2648223994863604
  0.4999756513766263  0.2178881973177023  0.1942119641387365
  0.5444840845524221  0.1922098103933084  0.2243554608613115
  0.5889904823320108  0.2178881973177023  0.1942119641387365
  0.5444828981933422  0.2150031344494165  0.1921662300175005
  0.5641976894550828  0.1808378137545518  0.1921436316448220
  0.5889925344069982  0.1950934281049468  0.2264007961214691
  0.5692762319509000  0.2292593173646228  0.2264251221411380
  0.6087101551352739  0.2292556934585679  0.2264310477864377
  0.5692715618870372  0.2064261160679766  0.2648151918602749
  0.6087039042166210  0.2064221693776286  0.2648223994863604
  0.5889785080427800  0.1664279881992407  0.2668907319802748
  0.5641857151658518  0.1293776046360903  0.2648223994863604
  0.5641919660845044  0.1522111287170292  0.2264310477864377
  0.6137682037916523  0.1293815513264383  0.2648151918602749
  0.6334857548594963  0.1635429253309548  0.2648449978590393
  0.6137728738555156  0.1522147526230844  0.2264251221411380
  0.6779933389981647  0.1664279881992407  0.2668907319802748
  0.6137801780808833  0.1808417604448995  0.1921364240187363
  0.6334977291487267  0.2150031344494165  0.1921662300175005
  0.6334989155078069  0.1922098103933084  0.2243554608613115
  0.6582910629062850  0.2292593173646228  0.2264251221411380
  0.6582863928424215  0.2064261160679766  0.2648151918602749
  0.6780053132873956  0.2178881973177023  0.1942119641387365
  0.6780073653623825  0.1950934281049468  0.2264007961214691
  0.6977249860906583  0.2292556934585679  0.2264310477864377
  0.6977187351720058  0.2064221693776286  0.2648223994863604
  0.5248108428501143  0.4378513081648998  0.0467788883356596
  0.5444948724825730  0.2664633435678780  0.1194874621759622
  0.4999876256658569  0.2693484064361639  0.1215331962971977
  0.5890024566212417  0.2693484064361639  0.1215331962971977
  0.5444960588416530  0.2436700195117701  0.1516766930197729
  0.5890045086962290  0.2465536372234084  0.1537220282799308
  0.4999896777408442  0.2465536372234084  0.1537220282799308
  0.4999982305779577  0.3435079083094165  0.1194874621759622
  0.4999994169370379  0.3207145842533088  0.1516766930197729
  0.4802806795101142  0.3093465343048998  0.1194576561771979
  0.4802853495739771  0.3321797356015460  0.0810675864580612
  0.5197192727583505  0.3321761116954910  0.0810735121033610
  0.5197130218396979  0.3093425876145518  0.1194648638032834
  0.5693001805293614  0.3321797356015460  0.0810675864580612
  0.5890142478924224  0.3207145842533088  0.1516766930197729
  0.5692955104654990  0.3093465343048998  0.1194576561771979
  0.5890130615333420  0.3435079083094165  0.1194874621759622
  0.4999862562887268  0.2920476991909551  0.1921662300175005
  0.6087221294245044  0.2807159025770295  0.1537522799448996
  0.5197072984691201  0.2807159025770295  0.1537522799448996
  0.5692835361762683  0.2578863251864383  0.1921364240187363
  0.6087158785058521  0.2578823784960903  0.1921436316448220
  0.5642192366012367  0.3349269432376287  0.1921436316448220
  0.5197010475504675  0.2578823784960903  0.1921436316448220
  0.5692882062401309  0.2807195264830843  0.1537463542995996
  0.5444938404273955  0.2949327620592408  0.1942119641387365
  0.5890010872441118  0.2920476991909551  0.1921662300175005
  0.5444958925023829  0.2721379928464854  0.2264007961214691
  0.4999742819994961  0.2405874900724935  0.2648449978590393
  0.5890022736031915  0.2692543751348471  0.2243554608613115
  0.4999874426478070  0.2692543751348471  0.2243554608613115
  0.5889891129548804  0.2405874900724935  0.2648449978590393
  0.5444818661381647  0.2434725529407793  0.2668907319802748
  0.5642072623120058  0.2834667341191672  0.2648223994863604
  0.5247749199824218  0.2834706808095152  0.2648151918602749
  0.5642135132306586  0.3063002582001064  0.2264310477864377
  0.5444924710502653  0.3176320548140318  0.2648449978590393
  0.4999852242335494  0.3205171176823177  0.2668907319802748
  0.5247795900462846  0.3063038821061614  0.2264251221411380
  0.5890262221816531  0.3721747933717703  0.0789979251782346
  0.5445058147166262  0.3463929711777024  0.1215331962971977
  0.5000113912262684  0.3721747933717703  0.0789979251782346
  0.5247988685608836  0.3863910990464384  0.1194576561771979
  0.5642312108904675  0.3863871523560902  0.1194648638032834
  0.5445198410808442  0.3750584110834082  0.0810432604383919
  0.5642374618091197  0.4092206764370296  0.0810735121033610
  0.5248035386247463  0.4092243003430844  0.0810675864580612
  0.5445295802770378  0.4492193581133085  0.0789979251782346
  0.5445164196287269  0.4205524730509549  0.1194874621759622
  0.5890240037673956  0.4234375359192409  0.1215331962971977
  0.5000091728120108  0.4234375359192409  0.1215331962971977
  0.4802949224309003  0.4348086559661613  0.1537463542995996
  0.4802902523670369  0.4119754546695153  0.1921364240187363
  0.5197288456152738  0.4348050320601065  0.1537522799448996
  0.5000112248869979  0.4006427667064852  0.1537220282799308
  0.5890260558423827  0.4006427667064852  0.1537220282799308
  0.5693097533862848  0.4348086559661613  0.1537463542995996
  0.5445176059878071  0.3977591489948472  0.1516766930197729
  0.5693050833224219  0.4119754546695153  0.1921364240187363
  0.5197168713260433  0.3833448229416448  0.2264310477864377
  0.5197106204073902  0.3605112988607056  0.2648223994863604
  0.4999992505977676  0.3491825575880237  0.2264007961214691
  0.4999971985227799  0.3719773268007794  0.1942119641387365
  0.5445044453394960  0.3690922639324934  0.1921662300175005
  0.4802782780778064  0.3605152455510536  0.2648151918602749
  0.4802829481416693  0.3833484468476998  0.2264251221411380
  0.4999958291456500  0.3946766195555702  0.2648449978590393
  0.5445034132843186  0.3975616824238561  0.2668907319802748
  0.5000089897939608  0.4233435046179241  0.2243554608613115
  0.5197225946966214  0.4119715079791672  0.1921436316448220
  0.5247964671285756  0.4375598102925923  0.2648151918602749
  0.5000078034348807  0.4461368286740320  0.1921662300175005
  0.5692977790970544  0.3833484468476998  0.2264251221411380
  0.5890140815531519  0.3491825575880237  0.2264007961214691
  0.5445056316985761  0.3462989398763855  0.2243554608613115
  0.5890120294781649  0.3719773268007794  0.1942119641387365
  0.5890106601010345  0.3946766195555702  0.2648449978590393
  0.5890238207493453  0.4233435046179241  0.2243554608613115
  0.5445174396485368  0.4262271223295621  0.2264007961214691
  0.5642288094581599  0.4375558636022443  0.2648223994863604
  0.5445153875735491  0.4490218915423178  0.1942119641387365
  0.5890226343902653  0.4461368286740320  0.1921662300175005
  0.6335108897970377  0.2436700195117701  0.1516766930197729
  0.6087278527950828  0.3093425876145518  0.1194648638032834
  0.6583103414208835  0.3093465343048998  0.1194576561771979
  0.6780290788478069  0.3207145842533088  0.1516766930197729
  0.6335086713827800  0.2949327620592408  0.1942119641387365
  0.6583030371955152  0.2807195264830843  0.1537463542995996
  0.6335226977469982  0.3235982019649469  0.1537220282799308
  0.6582983671316526  0.2578863251864383  0.1921364240187363
  0.6780159181994959  0.2920476991909551  0.1921662300175005
  0.6780171045585761  0.2692543751348471  0.2243554608613115
  0.7225235023381641  0.2949327620592408  0.1942119641387365
  0.6977307094612366  0.2578823784960903  0.1921436316448220
  0.7225375287023827  0.3235982019649469  0.1537220282799308
  0.6977369603798894  0.2807159025770295  0.1537522799448996
  0.6335107234577673  0.2721379928464854  0.2264007961214691
  0.6137944210016693  0.3063038821061614  0.2264251221411380
  0.6137897509378063  0.2834706808095152  0.2648151918602749
  0.6334966970935495  0.2434725529407793  0.2668907319802748
  0.6335073020056499  0.3176320548140318  0.2648449978590393
  0.6532283441860431  0.3063002582001064  0.2264310477864377
  0.6532220932673903  0.2834667341191672  0.2648223994863604
  0.6780039439102654  0.2405874900724935  0.2648449978590393
  0.6780148861443187  0.3205171176823177  0.2668907319802748
  0.7028045818931911  0.2834706808095152  0.2648151918602749
  0.7225115280489338  0.2434725529407793  0.2668907319802748
  0.7028092519570540  0.3063038821061614  0.2264251221411380
  0.7225255544131520  0.2721379928464854  0.2264007961214691
  0.7028285304716525  0.3863910990464384  0.1194576561771979
  0.6138136995162680  0.3863910990464384  0.1194576561771979
  0.6335346720362289  0.3750584110834082  0.0810432604383919
  0.6780278924887271  0.3435079083094165  0.1194874621759622
  0.6532460418458520  0.3863871523560902  0.1194648638032834
  0.6335206456720109  0.3463929711777024  0.1215331962971977
  0.6532403184752736  0.3577604673185680  0.1537522799448996
  0.6138063952908999  0.3577640912246228  0.1537463542995996
  0.7028212262462845  0.3577640912246228  0.1537463542995996
  0.6335324369431914  0.3977591489948472  0.1516766930197729
  0.6138183695801306  0.4092243003430844  0.0810675864580612
  0.6335444112324223  0.4492193581133085  0.0789979251782346
  0.6780388347227804  0.4234375359192409  0.1215331962971977
  0.6335312505841113  0.4205524730509549  0.1194874621759622
  0.6532522927645048  0.4092206764370296  0.0810735121033610
  0.6977585075260428  0.4348050320601065  0.1537522799448996
  0.6780408867977670  0.4006427667064852  0.1537220282799308
  0.6087436765706583  0.4348050320601065  0.1537522799448996
  0.6583245843416693  0.4348086559661613  0.1537463542995996
  0.6138017252270372  0.3349308899279767  0.1921364240187363
  0.6087317022814278  0.3833448229416448  0.2264310477864377
  0.6532340675566213  0.3349269432376287  0.1921436316448220
  0.6335192762948810  0.3690922639324934  0.1921662300175005
  0.6335204626539608  0.3462989398763855  0.2243554608613115
  0.6583126100524385  0.3833484468476998  0.2264251221411380
  0.6780268604335492  0.3719773268007794  0.1942119641387365
  0.6977465332368123  0.3833448229416448  0.2264310477864377
  0.6977402823181598  0.3605112988607056  0.2648223994863604
  0.6780289125085365  0.3491825575880237  0.2264007961214691
  0.7028165561824216  0.3349308899279767  0.1921364240187363
  0.7225341072502651  0.3690922639324934  0.1921662300175005
  0.7225352936093453  0.3462989398763855  0.2243554608613115
  0.6335322706039211  0.4262271223295621  0.2264007961214691
  0.6335302185289337  0.4490218915423178  0.1942119641387365
  0.6335182442397032  0.3975616824238561  0.2668907319802748
  0.6087374256520059  0.4119715079791672  0.1921436316448220
  0.6583199142778067  0.4119754546695153  0.1921364240187363
  0.6977522566073905  0.4119715079791672  0.1921436316448220
  0.6780386517047300  0.4233435046179241  0.2243554608613115
  0.6780374653456502  0.4461368286740320  0.1921662300175005
  0.7028261290393447  0.4375598102925923  0.2648151918602749
  0.7225330751950879  0.3975616824238561  0.2668907319802748
  0.7473058938616693  0.2292593173646228  0.2264251221411380
  0.7473012237978063  0.2064261160679766  0.2648151918602749
  0.7225472678985762  0.3977591489948472  0.1516766930197729
  0.7670557177531520  0.4006427667064852  0.1537220282799308
  0.7225460815394963  0.4205524730509549  0.1194874621759622
  0.7473394152970539  0.4348086559661613  0.1537463542995996
  0.7670307491548809  0.2920476991909551  0.1921662300175005
  0.7422488985120060  0.3349269432376287  0.1921436316448220
  0.7918313871378065  0.3349308899279767  0.1921364240187363
  0.7670319355139609  0.2692543751348471  0.2243554608613115
  0.7670187748656497  0.2405874900724935  0.2648449978590393
  0.7422431751414275  0.3063002582001064  0.2264310477864377
  0.7918240829124383  0.3063038821061614  0.2264251221411380
  0.7670437434639213  0.3491825575880237  0.2264007961214691
  0.7918194128485756  0.2834706808095152  0.2648151918602749
  0.8115369639164188  0.3176320548140318  0.2648449978590393
  0.8115501245647300  0.3462989398763855  0.2243554608613115
  0.8312517551781595  0.2834667341191672  0.2648223994863604
  0.7422551494306586  0.3577604673185680  0.1537522799448996
  0.7225450494843184  0.4490218915423178  0.1942119641387365
  0.7670416913889340  0.3719773268007794  0.1942119641387365
  0.7473347452331908  0.4119754546695153  0.1921364240187363
  0.7670522963010343  0.4461368286740320  0.1921662300175005
  0.7867670875627748  0.4119715079791672  0.1921436316448220
  0.7867733384814276  0.4348050320601065  0.1537522799448996
  0.8115489382056498  0.3690922639324934  0.1921662300175005
  0.8115598804397031  0.4490218915423178  0.1942119641387365
  0.7473227709439603  0.3605152455510536  0.2648151918602749
  0.7225471015593058  0.4262271223295621  0.2264007961214691
  0.7422584713689288  0.4375558636022443  0.2648223994863604
  0.7670403220118038  0.3946766195555702  0.2648449978590393
  0.7473274410078232  0.3833484468476998  0.2264251221411380
  0.7670534826601147  0.4233435046179241  0.2243554608613115
  0.7867551132735441  0.3605112988607056  0.2648223994863604
  0.7867613641921969  0.3833448229416448  0.2264310477864377
  0.7918409599947293  0.4375598102925923  0.2648151918602749
  0.8363422719632074  0.3833484468476998  0.2264251221411380
  0.8363376018993445  0.3605152455510536  0.2648151918602749
  0.8312733023243136  0.4375558636022443  0.2648223994863604
  0.8115619325146904  0.4262271223295621  0.2264007961214691
  0.8115479061504722  0.3975616824238561  0.2668907319802748
  0.8560683136154992  0.4233435046179241  0.2243554608613115
  0.8560551529671880  0.3946766195555702  0.2648449978590393
  0.8808557909501138  0.4375598102925923  0.2648151918602749
  0.2972082651704670  0.5404762818391672  0.1194648638032834
  0.2526900761196980  0.4634317170976286  0.1194648638032834
  0.3022725647454987  0.4634356637879767  0.1194576561771979
  0.3219901158133422  0.4975970377924935  0.1194874621759622
  0.3220032764616532  0.5262639228548470  0.0789979251782346
  0.3417111579937351  0.4862652411785680  0.0810735121033610
  0.3417049070750828  0.4634317170976286  0.1194648638032834
  0.3219935372654597  0.4521029758249468  0.0810432604383919
  0.4307317123196980  0.5148919262160903  0.0467860959617451
  0.3665117263162291  0.5291475405664854  0.0810432604383919
  0.4110049467687268  0.4975970377924935  0.1194874621759622
  0.3912920657647460  0.4862688650846228  0.0810675864580612
  0.3912873957008835  0.4634356637879767  0.1194576561771979
  0.4110063161458570  0.4748977450377023  0.0488544284556593
  0.4307259889491199  0.4862652411785680  0.0810735121033610
  0.4110083682208445  0.4521029758249468  0.0810432604383919
  0.4307197380304673  0.4634317170976286  0.1194648638032834
  0.4110181074170377  0.5262639228548470  0.0789979251782346
  0.2774934739087267  0.5746416025340320  0.1194874621759622
  0.2577759228408832  0.5404802285295153  0.1194576561771979
  0.3417264542212364  0.6175208465807056  0.1194648638032834
  0.3022941118916526  0.6175247932710537  0.1194576561771979
  0.3467907537962682  0.5404802285295153  0.1194576561771979
  0.3665083048641117  0.5746416025340320  0.1194874621759622
  0.3467954238601308  0.5633134298261614  0.0810675864580612
  0.3862230961258518  0.5404762818391672  0.1194648638032834
  0.3665214655124224  0.6033084875963856  0.0789979251782346
  0.3862293470445043  0.5633098059201063  0.0810735121033610
  0.3913089428470372  0.6175247932710537  0.1194576561771979
  0.4110299153669982  0.6061921053080237  0.0810432604383919
  0.4307412851766212  0.6175208465807056  0.1194648638032834
  0.4358055847516527  0.5404802285295153  0.1194576561771979
  0.4358102548155152  0.5633134298261614  0.0810675864580612
  0.2577639485516522  0.4890200194110537  0.1921364240187363
  0.2774849210716133  0.4776873314480238  0.1537220282799308
  0.2577686186155154  0.5118532207076998  0.1537463542995996
  0.2774828689966266  0.5004821006607792  0.1215331962971977
  0.2774814996194958  0.5231813934155704  0.1921662300175005
  0.3219890837581647  0.5260664562838562  0.1942119641387365
  0.2971962908812365  0.4890160727207055  0.1921436316448220
  0.3219913021724222  0.4748037137363855  0.1516766930197729
  0.2972025417998893  0.5118495968016449  0.1537522799448996
  0.2526939256060433  0.5374339524247218  0.2264310477864377
  0.2577566443262846  0.4603930115892381  0.2264251221411380
  0.2774695253302653  0.4717211842971088  0.2648449978590393
  0.2526876746873902  0.5146004283437825  0.2648223994863604
  0.2971905675106581  0.4603893876831833  0.2264310477864377
  0.2774826859785757  0.5003880693594625  0.2243554608613115
  0.3022701633131910  0.5146043750341304  0.2648151918602749
  0.3417025056427748  0.5146004283437825  0.2648223994863604
  0.3417087565614274  0.5374339524247218  0.2264310477864377
  0.3219877143810345  0.5487657490386473  0.2648449978590393
  0.3022748333770539  0.5374375763307768  0.2264251221411380
  0.3219771094689338  0.4746062471653945  0.2668907319802748
  0.3219911358331522  0.5032716870711007  0.2264007961214691
  0.2775064682177671  0.6317764609311006  0.1537220282799308
  0.2526996489766209  0.5660606374622441  0.1921436316448220
  0.2527058998952738  0.5888941615431832  0.1537522799448996
  0.2774946602678071  0.5518482784779242  0.1516766930197729
  0.3022821376024217  0.5660645841525921  0.1921364240187363
  0.3022868076662848  0.5888977854492383  0.1537463542995996
  0.3219996886702650  0.6002259581571089  0.1921662300175005
  0.3220031101223827  0.5547318961895624  0.1537220282799308
  0.3417207308506583  0.5888941615431832  0.1537522799448996
  0.3417144799320057  0.5660606374622441  0.1921436316448220
  0.3220010580473958  0.5775266654023177  0.1215331962971977
  0.3220128493185761  0.6288928432194625  0.1516766930197729
  0.2774944939285364  0.5803162518126390  0.2264007961214691
  0.2774924418535489  0.6031110210253947  0.1942119641387365
  0.2774804675643187  0.5516508119069331  0.2668907319802748
  0.2774910724764190  0.6258103137801856  0.2648449978590393
  0.2577781914724384  0.6144821410723151  0.2264251221411380
  0.2577735214085755  0.5916489397756689  0.2648151918602749
  0.2972058637381597  0.5916449930853210  0.2648223994863604
  0.2972121146568122  0.6144785171662601  0.2264310477864377
  0.3219986566150879  0.6286953766484715  0.2668907319802748
  0.3220008750293452  0.5774326341010009  0.2243554608613115
  0.3467834495708999  0.5118532207076998  0.1537463542995996
  0.3467787795070370  0.4890200194110537  0.1921364240187363
  0.3664963305748806  0.5231813934155704  0.1921662300175005
  0.3664976999520107  0.5004821006607792  0.1215331962971977
  0.3664997520269982  0.4776873314480238  0.1537220282799308
  0.3862111218366213  0.4890160727207055  0.1921436316448220
  0.3862173727552738  0.5118495968016449  0.1537522799448996
  0.4110061331278068  0.4748037137363855  0.1516766930197729
  0.4110039147135492  0.5260664562838562  0.1942119641387365
  0.4357936104624220  0.4890200194110537  0.1921364240187363
  0.4357982805262845  0.5118532207076998  0.1537463542995996
  0.4555111615302653  0.5231813934155704  0.1921662300175005
  0.3912849942685753  0.5146043750341304  0.2648151918602749
  0.3862053984660429  0.4603893876831833  0.2264310477864377
  0.3664843562856498  0.4717211842971088  0.2648449978590393
  0.3467714752816692  0.4603930115892381  0.2264251221411380
  0.3664975169339608  0.5003880693594625  0.2243554608613115
  0.4109919404243183  0.4746062471653945  0.2668907319802748
  0.4110059667885365  0.5032716870711007  0.2264007961214691
  0.4307173365981598  0.5146004283437825  0.2648223994863604
  0.4307235875168123  0.5374339524247218  0.2264310477864377
  0.4357863062370538  0.4603930115892381  0.2264251221411380
  0.4555123478893449  0.5003880693594625  0.2243554608613115
  0.4554991872410344  0.4717211842971088  0.2648449978590393
  0.4110276802739606  0.6288928432194625  0.1516766930197729
  0.3665094912231917  0.5518482784779242  0.1516766930197729
  0.4110158890027799  0.5775266654023177  0.1215331962971977
  0.4110179410777675  0.5547318961895624  0.1537220282799308
  0.3665212991731517  0.6317764609311006  0.1537220282799308
  0.3913016386216692  0.5888977854492383  0.1537463542995996
  0.4307355618060428  0.5888941615431832  0.1537522799448996
  0.4307293108873905  0.5660606374622441  0.1921436316448220
  0.3912969685578063  0.5660645841525921  0.1921364240187363
  0.4110145196256498  0.6002259581571089  0.1921662300175005
  0.3665072728089339  0.6031110210253947  0.1942119641387365
  0.3665059034318037  0.6258103137801856  0.2648449978590393
  0.3665093248839212  0.5803162518126390  0.2264007961214691
  0.3467930224278231  0.6144821410723151  0.2264251221411380
  0.3467883523639600  0.5916489397756689  0.2648151918602749
  0.3664952985197030  0.5516508119069331  0.2668907319802748
  0.3862269456121966  0.6144785171662601  0.2264310477864377
  0.3862206946935440  0.5916449930853210  0.2648223994863604
  0.3912896643324384  0.5374375763307768  0.2264251221411380
  0.4110025453364191  0.5487657490386473  0.2648449978590393
  0.4358031833193445  0.5916489397756689  0.2648151918602749
  0.4110134875704722  0.6286953766484715  0.2668907319802748
  0.4555101294750880  0.5516508119069331  0.2668907319802748
  0.4358078533832077  0.6144821410723151  0.2264251221411380
  0.4110157059847300  0.5774326341010009  0.2243554608613115
  0.3220116629594960  0.6516861672755703  0.1194874621759622
  0.3665192470981650  0.6545712301438562  0.1215331962971977
  0.4110264939148809  0.6516861672755703  0.1194874621759622
  0.3913136129109001  0.6403579945676997  0.0810675864580612
  0.4307475360952736  0.6403543706616449  0.0810735121033610
  0.3862446432720052  0.6945654113222440  0.1194648638032834
  0.4358271318978064  0.6945693580125920  0.1194576561771979
  0.3468123009424216  0.6945693580125920  0.1194576561771979
  0.4110374361489340  0.7316157948853946  0.1215331962971977
  0.2577901657616692  0.6659423501907765  0.1537463542995996
  0.2577854956978066  0.6431091488941307  0.1921364240187363
  0.2527211961227750  0.7201497669453208  0.1921436316448220
  0.2775030467656501  0.6772705228986472  0.1921662300175005
  0.2972178380273904  0.6431052022037826  0.1921436316448220
  0.3023036847485756  0.7201537136356688  0.1921364240187363
  0.3220246572685366  0.7088210256726392  0.1537220282799308
  0.2972240889460430  0.6659387262847217  0.1537522799448996
  0.3417360270781596  0.7201497669453208  0.1921436316448220
  0.3022917104593451  0.6686935045172074  0.2648151918602749
  0.2775042331247300  0.6544771988425395  0.2243554608613115
  0.2775020147104725  0.7057399413900101  0.2668907319802748
  0.2527092218335443  0.6686895578268595  0.2648223994863604
  0.2527154727521967  0.6915230819077987  0.2264310477864377
  0.3022963805232078  0.6915267058138536  0.2264251221411380
  0.3220092615271882  0.7028548785217242  0.2648449978590393
  0.3220106309043184  0.6801555857669330  0.1942119641387365
  0.3417303037075815  0.6915230819077987  0.2264310477864377
  0.3417240527889289  0.6686895578268595  0.2648223994863604
  0.3220224221754993  0.7315217635840781  0.2243554608613115
  0.3220126829793056  0.6573608165541776  0.2264007961214691
  0.3417422779968122  0.7429832910262602  0.1537522799448996
  0.2775139889997033  0.7572001505084717  0.1942119641387365
  0.3220212358164191  0.7543150876401857  0.1921662300175005
  0.2775126196225731  0.7798994432632625  0.2648449978590393
  0.2577997386185927  0.7685712705553920  0.2264251221411380
  0.2577950685547296  0.7457380692587459  0.2648151918602749
  0.2775160410746907  0.7344053812957160  0.2264007961214691
  0.2972274108843134  0.7457341225683979  0.2648223994863604
  0.2972336618029659  0.7685676466493370  0.2264310477864377
  0.3220202037612415  0.7827845061315485  0.2668907319802748
  0.3417455999350826  0.8227786873099364  0.2648223994863604
  0.3023132576054988  0.8227826340002840  0.2648151918602749
  0.3220342301254598  0.8114499460372546  0.2264007961214691
  0.4358198276724384  0.6659423501907765  0.1537463542995996
  0.4358151576085755  0.6431091488941307  0.1921364240187363
  0.3468003266531907  0.6431091488941307  0.1921364240187363
  0.3862389199014275  0.6659387262847217  0.1537522799448996
  0.3468049967170538  0.6659423501907765  0.1537463542995996
  0.3665310383693455  0.7059374079610011  0.1516766930197729
  0.4110394882239209  0.7088210256726392  0.1537220282799308
  0.4307571089521967  0.7429832910262602  0.1537522799448996
  0.3913185157039601  0.7201537136356688  0.1921364240187363
  0.4110275139346907  0.6573608165541776  0.2264007961214691
  0.3665190640801144  0.6544771988425395  0.2243554608613115
  0.3862326689827749  0.6431052022037826  0.1921436316448220
  0.3913065414147296  0.6686935045172074  0.2648151918602749
  0.4307388837443135  0.6686895578268595  0.2648223994863604
  0.3665178777210342  0.6772705228986472  0.1921662300175005
  0.4110254618597029  0.6801555857669330  0.1942119641387365
  0.4307451346629660  0.6915230819077987  0.2264310477864377
  0.3913112114785923  0.6915267058138536  0.2264251221411380
  0.4307508580335442  0.7201497669453208  0.1921436316448220
  0.4110240924825730  0.7028548785217242  0.2648449978590393
  0.3665168456658571  0.7057399413900101  0.2668907319802748
  0.4110372531308839  0.7315217635840781  0.2243554608613115
  0.3665308720300751  0.7344053812957160  0.2264007961214691
  0.3468218737993450  0.7971982783772076  0.1921364240187363
  0.3665288199550878  0.7572001505084717  0.1942119641387365
  0.3862542161289290  0.7971943316868594  0.1921436316448220
  0.3913231857678233  0.7429869149323153  0.1537463542995996
  0.4110492274201146  0.7829819727025391  0.1516766930197729
  0.4358367047547291  0.7971982783772076  0.1921364240187363
  0.4110360667718037  0.7543150876401857  0.1921662300175005
  0.3862484927583507  0.7685676466493370  0.2264310477864377
  0.3665274505779574  0.7798994432632625  0.2648449978590393
  0.3468098995101139  0.7457380692587459  0.2648151918602749
  0.3665406112262683  0.8085663283256163  0.2243554608613115
  0.3862422418396981  0.7457341225683979  0.2648223994863604
  0.3468145695739770  0.7685712705553920  0.2264251221411380
  0.3913280885608833  0.8227826340002840  0.2648151918602749
  0.4307604308904673  0.8227786873099364  0.2648223994863604
  0.4110490610808443  0.8114499460372546  0.2264007961214691
  0.4110350347166263  0.7827845061315485  0.2668907319802748
  0.4358294005293615  0.7685712705553920  0.2264251221411380
  0.4358247304654984  0.7457380692587459  0.2648151918602749
  0.4803142009454988  0.5148958729064382  0.0467788883356596
  0.5197465432750825  0.5148919262160903  0.0467860959617451
  0.4803068967201307  0.4862688650846228  0.0810675864580612
  0.4555135629625731  0.4720126821694165  0.0468086943344238
  0.4752379270812365  0.5404762818391672  0.1194648638032834
  0.4555265572716135  0.5291475405664854  0.0810432604383919
  0.4803022266562678  0.4634356637879767  0.1194576561771979
  0.5000211471012416  0.4748977450377023  0.0488544284556593
  0.5000231991762288  0.4521029758249468  0.0810432604383919
  0.5000329383724222  0.5262639228548470  0.0789979251782346
  0.5445413882269980  0.5291475405664854  0.0810432604383919
  0.5197408199045042  0.4862652411785680  0.0810735121033610
  0.5197345689858519  0.4634317170976286  0.1194648638032834
  0.5445283939179576  0.4720126821694165  0.0468086943344238
  0.5000317520133420  0.5490572469109549  0.0468086943344238
  0.4555245051966264  0.5519423097792409  0.0488544284556593
  0.5248204157070371  0.5404802285295153  0.1194576561771979
  0.5445393361520108  0.5519423097792409  0.0488544284556593
  0.4752441779998891  0.5633098059201063  0.0810735121033610
  0.5248250857708999  0.5633134298261614  0.0810675864580612
  0.4555362964678069  0.6033084875963856  0.0789979251782346
  0.5000447463223825  0.6061921053080237  0.0810432604383919
  0.4803284438662846  0.6403579945676997  0.0810675864580612
  0.5197561161320058  0.6175208465807056  0.1194648638032834
  0.4803237738024219  0.6175247932710537  0.1194576561771979
  0.5197623670506585  0.6403543706616449  0.0810735121033610
  0.5890359780566263  0.4748977450377023  0.0488544284556593
  0.5693290319008834  0.5148958729064382  0.0467788883356596
  0.6087556508598890  0.4862652411785680  0.0810735121033610
  0.6087493999412364  0.4634317170976286  0.1194648638032834
  0.5890380301316134  0.4521029758249468  0.0810432604383919
  0.5693170576116529  0.4634356637879767  0.1194576561771979
  0.5693217276755155  0.4862688650846228  0.0810675864580612
  0.5890477693278068  0.5262639228548470  0.0789979251782346
  0.6335562191823828  0.5291475405664854  0.0810432604383919
  0.6532675889920057  0.5404762818391672  0.1194648638032834
  0.5642527580366211  0.5404762818391672  0.1194648638032834
  0.6138352466624221  0.5404802285295153  0.1194576561771979
  0.5642590089552737  0.5633098059201063  0.0810735121033610
  0.5445511274231915  0.6033084875963856  0.0789979251782346
  0.5693432748216694  0.6403579945676997  0.0810675864580612
  0.6087709470873903  0.6175208465807056  0.1194648638032834
  0.6138399167262845  0.5633134298261614  0.0810675864580612
  0.6335659583785760  0.6033084875963856  0.0789979251782346
  0.6532738399106582  0.5633098059201063  0.0810735121033610
  0.4752259527920058  0.4890160727207055  0.1921436316448220
  0.4555125309073955  0.5004821006607792  0.1215331962971977
  0.4555145829823828  0.4776873314480238  0.1537220282799308
  0.5000197777241113  0.4975970377924935  0.1194874621759622
  0.4752322037106586  0.5118495968016449  0.1537522799448996
  0.5000187456689338  0.5260664562838562  0.1942119641387365
  0.5000209640831915  0.4748037137363855  0.1516766930197729
  0.5248131114816694  0.5118532207076998  0.1537463542995996
  0.5248084414178066  0.4890200194110537  0.1921364240187363
  0.5445273618627801  0.5004821006607792  0.1215331962971977
  0.5445259924856499  0.5231813934155704  0.1921662300175005
  0.5445294139377673  0.4776873314480238  0.1537220282799308
  0.4752202294214277  0.4603893876831833  0.2264310477864377
  0.5248011371924386  0.4603930115892381  0.2264251221411380
  0.5000067713797033  0.4746062471653945  0.2668907319802748
  0.5445140181964192  0.4717211842971088  0.2648449978590393
  0.5000207977439213  0.5032716870711007  0.2264007961214691
  0.5445271788447299  0.5003880693594625  0.2243554608613115
  0.4802998252239601  0.5146043750341304  0.2648151918602749
  0.5197321675535443  0.5146004283437825  0.2648223994863604
  0.5000173762918039  0.5487657490386473  0.2648449978590393
  0.5197384184721969  0.5374339524247218  0.2264310477864377
  0.4803044952878237  0.5374375763307768  0.2264251221411380
  0.5000425112293452  0.6288928432194625  0.1516766930197729
  0.4555361301285364  0.6317764609311006  0.1537220282799308
  0.5000327720331520  0.5547318961895624  0.1537220282799308
  0.4555243221785762  0.5518482784779242  0.1516766930197729
  0.5000307199581647  0.5775266654023177  0.1215331962971977
  0.4803164695770537  0.5888977854492383  0.1537463542995996
  0.4803117995131913  0.5660645841525921  0.1921364240187363
  0.5000293505810346  0.6002259581571089  0.1921662300175005
  0.5197503927614276  0.5888941615431832  0.1537522799448996
  0.5197441418427748  0.5660606374622441  0.1921436316448220
  0.4555231358194961  0.5746416025340320  0.1194874621759622
  0.5445379667748809  0.5746416025340320  0.1194874621759622
  0.4555241558393060  0.5803162518126390  0.2264007961214691
  0.4555221037643182  0.6031110210253947  0.1942119641387365
  0.4555207343871883  0.6258103137801856  0.2648449978590393
  0.4752417765675814  0.6144785171662601  0.2264310477864377
  0.4752355256489290  0.5916449930853210  0.2648223994863604
  0.5000283185258572  0.6286953766484715  0.2668907319802748
  0.5248180142747295  0.5916489397756689  0.2648151918602749
  0.5445249604304725  0.5516508119069331  0.2668907319802748
  0.5248226843385925  0.6144821410723151  0.2264251221411380
  0.5000305369401147  0.5774326341010009  0.2243554608613115
  0.5445355653425731  0.6258103137801856  0.2648449978590393
  0.5445369347197030  0.6031110210253947  0.1942119641387365
  0.6335421928181650  0.5004821006607792  0.1215331962971977
  0.5890346086794962  0.4975970377924935  0.1194874621759622
  0.6335442448931519  0.4776873314480238  0.1537220282799308
  0.5890357950385761  0.4748037137363855  0.1516766930197729
  0.6138279424370539  0.5118532207076998  0.1537463542995996
  0.6532618656214280  0.5118495968016449  0.1537522799448996
  0.5642470346660432  0.5118495968016449  0.1537522799448996
  0.6138232723731911  0.4890200194110537  0.1921364240187363
  0.6532556147027752  0.4890160727207055  0.1921436316448220
  0.5642407837473904  0.4890160727207055  0.1921436316448220
  0.5890335766243183  0.5260664562838562  0.1942119641387365
  0.6335408234410345  0.5231813934155704  0.1921662300175005
  0.5642350603768125  0.4603893876831833  0.2264310477864377
  0.6138159681478234  0.4603930115892381  0.2264251221411380
  0.5890216023350878  0.4746062471653945  0.2668907319802748
  0.6335420098001144  0.5003880693594625  0.2243554608613115
  0.5890356286993060  0.5032716870711007  0.2264007961214691
  0.6087532494275815  0.5374339524247218  0.2264310477864377
  0.6335397913858570  0.5516508119069331  0.2668907319802748
  0.5693266304685758  0.5660645841525921  0.1921364240187363
  0.5445391531339610  0.5518482784779242  0.1516766930197729
  0.5445509610839212  0.6317764609311006  0.1537220282799308
  0.5890441815364191  0.6002259581571089  0.1921662300175005
  0.5890476029885368  0.5547318961895624  0.1537220282799308
  0.6087589727981598  0.5660606374622441  0.1921436316448220
  0.6335517656750875  0.6031110210253947  0.1942119641387365
  0.6335527977302656  0.5746416025340320  0.1194874621759622
  0.6335539840893455  0.5518482784779242  0.1516766930197729
  0.6335657920393055  0.6317764609311006  0.1537220282799308
  0.5445389867946905  0.5803162518126390  0.2264007961214691
  0.5642566075229661  0.6144785171662601  0.2264310477864377
  0.5642503566043136  0.5916449930853210  0.2648223994863604
  0.5890453678954991  0.5774326341010009  0.2243554608613115
  0.6138375152939770  0.6144821410723151  0.2264251221411380
  0.6335503962979576  0.6258103137801856  0.2648449978590393
  0.6335538177500754  0.5803162518126390  0.2264007961214691
  0.6532651875596983  0.5916449930853210  0.2648223994863604
  0.6532714384783505  0.6144785171662601  0.2264310477864377
  0.4555340780535496  0.6545712301438562  0.1215331962971977
  0.4555481044177674  0.6832366700495622  0.0810432604383919
  0.4555446829656499  0.7287307320171088  0.1194874621759622
  0.4752594742273902  0.6945654113222440  0.1194648638032834
  0.5000413248702654  0.6516861672755703  0.1194874621759622
  0.5000544855185763  0.6803530523379242  0.0789979251782346
  0.5445489090089342  0.6545712301438562  0.1215331962971977
  0.5248419628531912  0.6945693580125920  0.1194576561771979
  0.5445595139210345  0.7287307320171088  0.1194874621759622
  0.5445629353731519  0.6832366700495622  0.0810432604383919
  0.5000522671043188  0.7316157948853946  0.1215331962971977
  0.5890561558256503  0.6516861672755703  0.1194874621759622
  0.5642743051827752  0.6945654113222440  0.1194648638032834
  0.6335637399643189  0.6545712301438562  0.1215331962971977
  0.6532891361381595  0.6945654113222440  0.1194648638032834
  0.6138567938085759  0.6945693580125920  0.1194576561771979
  0.5890670980597034  0.7316157948853946  0.1215331962971977
  0.5000543191793059  0.7088210256726392  0.1537220282799308
  0.5445607002801144  0.7059374079610011  0.1516766930197729
  0.4555458693247301  0.7059374079610011  0.1516766930197729
  0.5248346586278231  0.6659423501907765  0.1537463542995996
  0.4752537508568123  0.6659387262847217  0.1537522799448996
  0.4803333466593447  0.7201537136356688  0.1921364240187363
  0.5248299885639605  0.6431091488941307  0.1921364240187363
  0.5197656889889289  0.7201497669453208  0.1921436316448220
  0.4752474999381597  0.6431052022037826  0.1921436316448220
  0.5000520840862684  0.7315217635840781  0.2243554608613115
  0.4555327086764190  0.6772705228986472  0.1921662300175005
  0.5000402928150877  0.6801555857669330  0.1942119641387365
  0.5445475396318038  0.6772705228986472  0.1921662300175005
  0.5445487259908840  0.6544771988425395  0.2243554608613115
  0.4555338950354992  0.6544771988425395  0.2243554608613115
  0.5000423448900752  0.6573608165541776  0.2264007961214691
  0.4803260424339771  0.6915267058138536  0.2264251221411380
  0.4555316766212416  0.7057399413900101  0.2668907319802748
  0.5445465075766261  0.7057399413900101  0.2668907319802748
  0.5000389234379575  0.7028548785217242  0.2648449978590393
  0.4803213723701140  0.6686935045172074  0.2648151918602749
  0.5197537146996982  0.6686895578268595  0.2648223994863604
  0.5197599656183506  0.6915230819077987  0.2264310477864377
  0.5000640583754991  0.7829819727025391  0.1516766930197729
  0.4803380167232076  0.7429869149323153  0.1537463542995996
  0.5197719399075815  0.7429832910262602  0.1537522799448996
  0.4555576772746902  0.7858655904141777  0.1537220282799308
  0.5445584818658569  0.7572001505084717  0.1942119641387365
  0.4752690470843134  0.7971943316868594  0.1921436316448220
  0.5248515357101141  0.7971982783772076  0.1921364240187363
  0.5000508977271882  0.7543150876401857  0.1921662300175005
  0.4555436509104721  0.7572001505084717  0.1942119641387365
  0.4555457029854599  0.7344053812957160  0.2264007961214691
  0.4555554421816528  0.8085663283256163  0.2243554608613115
  0.4752633237137353  0.7685676466493370  0.2264310477864377
  0.4555422815333422  0.7798994432632625  0.2648449978590393
  0.4752570727950824  0.7457341225683979  0.2648223994863604
  0.4803429195162678  0.8227826340002840  0.2648151918602749
  0.5000498656720108  0.7827845061315485  0.2668907319802748
  0.5000638920362288  0.8114499460372546  0.2264007961214691
  0.5197752618458517  0.8227786873099364  0.2648223994863604
  0.5445571124887267  0.7798994432632625  0.2648449978590393
  0.5248442314847463  0.7685712705553920  0.2264251221411380
  0.5248395614208834  0.7457380692587459  0.2648151918602749
  0.5445605339408442  0.7344053812957160  0.2264007961214691
  0.5642623308935441  0.6431052022037826  0.1921436316448220
  0.6138448195193448  0.6431091488941307  0.1921364240187363
  0.6138494895832080  0.6659423501907765  0.1537463542995996
  0.5642685818121971  0.6659387262847217  0.1537522799448996
  0.6532834127675818  0.6659387262847217  0.1537522799448996
  0.6087867708629661  0.7429832910262602  0.1537522799448996
  0.5890691501346906  0.7088210256726392  0.1537220282799308
  0.5693481776147297  0.7201537136356688  0.1921364240187363
  0.5693528476785924  0.7429869149323153  0.1537463542995996
  0.6087805199443137  0.7201497669453208  0.1921436316448220
  0.6335755312354994  0.7059374079610011  0.1516766930197729
  0.6335753648962292  0.7344053812957160  0.2264007961214691
  0.5890551237704726  0.6801555857669330  0.1942119641387365
  0.5890669150416530  0.7315217635840781  0.2243554608613115
  0.6335635569462685  0.6544771988425395  0.2243554608613115
  0.5890571758454596  0.6573608165541776  0.2264007961214691
  0.5693408733893615  0.6915267058138536  0.2264251221411380
  0.6087747965737353  0.6915230819077987  0.2264310477864377
  0.6087685456550828  0.6686895578268595  0.2648223994863604
  0.5693362033254987  0.6686935045172074  0.2648151918602749
  0.5890537543933423  0.7028548785217242  0.2648449978590393
  0.6335613385320109  0.7057399413900101  0.2668907319802748
  0.5890788893308837  0.7829819727025391  0.1516766930197729
  0.6138663666654989  0.7971982783772076  0.1921364240187363
  0.5890657286825723  0.7543150876401857  0.1921662300175005
  0.5642838780396982  0.7971943316868594  0.1921436316448220
  0.6335733128212419  0.7572001505084717  0.1942119641387365
  0.5642719037504674  0.7457341225683979  0.2648223994863604
  0.5642781546691198  0.7685676466493370  0.2264310477864377
  0.5445702731370377  0.8085663283256163  0.2243554608613115
  0.5890787229916135  0.8114499460372546  0.2264007961214691
  0.5890646966273954  0.7827845061315485  0.2668907319802748
  0.5693577504716522  0.8227826340002840  0.2648151918602749
  0.6087900928012364  0.8227786873099364  0.2648223994863604
  0.6138590624401307  0.7685712705553920  0.2264251221411380
  0.6335719434441113  0.7798994432632625  0.2648449978590393
  0.6138543923762675  0.7457380692587459  0.2648151918602749
  0.6532867347058522  0.7457341225683979  0.2648223994863604
  0.6335851040924220  0.8085663283256163  0.2243554608613115
  0.6532929856245046  0.7685676466493370  0.2264310477864377
  0.6780494396348810  0.4975970377924935  0.1194874621759622
  0.6583318885670372  0.4634356637879767  0.1194576561771979
  0.6583365586308998  0.4862688650846228  0.0810675864580612
  0.6780528610869981  0.4521029758249468  0.0810432604383919
  0.6780626002831915  0.5262639228548470  0.0789979251782346
  0.6977642308966212  0.4634317170976286  0.1194648638032834
  0.7473467195224217  0.4634356637879767  0.1194576561771979
  0.6583534357131913  0.6175247932710537  0.1194576561771979
  0.6977857780427746  0.6175208465807056  0.1194648638032834
  0.7028500776178068  0.5404802285295153  0.1194576561771979
  0.7225676286856497  0.5746416025340320  0.1194874621759622
  0.7422824199473902  0.5404762818391672  0.1194648638032834
  0.7028427733924384  0.5118532207076998  0.1537463542995996
  0.7028381033285759  0.4890200194110537  0.1921364240187363
  0.6780506259939606  0.4748037137363855  0.1516766930197729
  0.6780484075797029  0.5260664562838562  0.1942119641387365
  0.7225556543964192  0.5231813934155704  0.1921662300175005
  0.7225590758485364  0.4776873314480238  0.1537220282799308
  0.7225570237735496  0.5004821006607792  0.1215331962971977
  0.7422704456581597  0.4890160727207055  0.1921436316448220
  0.7422766965768121  0.5118495968016449  0.1537522799448996
  0.6780364332904724  0.4746062471653945  0.2668907319802748
  0.6583294871347294  0.5146043750341304  0.2648151918602749
  0.6583341571985928  0.5374375763307768  0.2264251221411380
  0.6977680803829662  0.5374339524247218  0.2264310477864377
  0.6977618294643134  0.5146004283437825  0.2648223994863604
  0.6780504596546905  0.5032716870711007  0.2264007961214691
  0.7028307991032077  0.4603930115892381  0.2264251221411380
  0.7225436801071881  0.4717211842971088  0.2648449978590393
  0.7473489881539769  0.5374375763307768  0.2264251221411380
  0.7473443180901139  0.5146043750341304  0.2648151918602749
  0.7422647222875816  0.4603893876831833  0.2264310477864377
  0.7670512642458571  0.4746062471653945  0.2668907319802748
  0.7225568407554990  0.5003880693594625  0.2243554608613115
  0.6780603818689338  0.5775266654023177  0.1215331962971977
  0.6780590124918039  0.6002259581571089  0.1921662300175005
  0.6583461314878228  0.5888977854492383  0.1537463542995996
  0.6583414614239601  0.5660645841525921  0.1921364240187363
  0.6780624339439213  0.5547318961895624  0.1537220282799308
  0.6780721731401146  0.6288928432194625  0.1516766930197729
  0.6977738037535446  0.5660606374622441  0.1921436316448220
  0.7225665966304725  0.6031110210253947  0.1942119641387365
  0.6977800546721967  0.5888941615431832  0.1537522799448996
  0.7473562923793451  0.5660645841525921  0.1921364240187363
  0.7473609624432078  0.5888977854492383  0.1537463542995996
  0.7225688150447299  0.5518482784779242  0.1516766930197729
  0.6780601988508839  0.5774326341010009  0.2243554608613115
  0.6780470382025729  0.5487657490386473  0.2648449978590393
  0.6780579804366260  0.6286953766484715  0.2668907319802748
  0.7028476761854984  0.5916489397756689  0.2648151918602749
  0.7028523462493613  0.6144821410723151  0.2264251221411380
  0.7225546223412416  0.5516508119069331  0.2668907319802748
  0.7225652272533419  0.6258103137801856  0.2648449978590393
  0.7225686487054599  0.5803162518126390  0.2264007961214691
  0.7422800185150826  0.5916449930853210  0.2648223994863604
  0.7422862694337354  0.6144785171662601  0.2264310477864377
  0.7670618691579577  0.5487657490386473  0.2648449978590393
  0.8115704853518034  0.5231813934155704  0.1921662300175005
  0.7670632385350876  0.5260664562838562  0.1942119641387365
  0.7670654569493455  0.4748037137363855  0.1516766930197729
  0.7918529342839600  0.4890200194110537  0.1921364240187363
  0.7918576043478234  0.5118532207076998  0.1537463542995996
  0.8312852766135446  0.4890160727207055  0.1921436316448220
  0.8312795532429662  0.4603893876831833  0.2264310477864377
  0.7918456300585927  0.4603930115892381  0.2264251221411380
  0.8560660952012419  0.4746062471653945  0.2668907319802748
  0.8115585110625729  0.4717211842971088  0.2648449978590393
  0.7670652906100750  0.5032716870711007  0.2264007961214691
  0.8115716717108836  0.5003880693594625  0.2243554608613115
  0.8560801215654597  0.5032716870711007  0.2264007961214691
  0.7867766604196982  0.5146004283437825  0.2648223994863604
  0.8363591490454987  0.5146043750341304  0.2648151918602749
  0.7867829113383512  0.5374339524247218  0.2264310477864377
  0.8363638191093615  0.5374375763307768  0.2264251221411380
  0.8560767001133421  0.5487657490386473  0.2648449978590393
  0.8115694532966263  0.5516508119069331  0.2668907319802748
  0.7670870040954991  0.6288928432194625  0.1516766930197729
  0.7670738434471880  0.6002259581571089  0.1921662300175005
  0.7670772648993057  0.5547318961895624  0.1537220282799308
  0.7867948856275813  0.5888941615431832  0.1537522799448996
  0.7867886347089289  0.5660606374622441  0.1921436316448220
  0.8363711233347291  0.5660645841525921  0.1921364240187363
  0.8115800582087266  0.6258103137801856  0.2648449978590393
  0.7670728113920109  0.6286953766484715  0.2668907319802748
  0.7918625071408834  0.5916489397756689  0.2648151918602749
  0.7670750298062686  0.5774326341010009  0.2243554608613115
  0.7918671772047461  0.6144821410723151  0.2264251221411380
  0.8115814275858567  0.6031110210253947  0.1942119641387365
  0.8115834796608441  0.5803162518126390  0.2264007961214691
  0.8312948494704673  0.5916449930853210  0.2648223994863604
  0.8313011003891203  0.6144785171662601  0.2264310477864377
  0.8560876423473955  0.6286953766484715  0.2668907319802748
  0.8560898607616528  0.5774326341010009  0.2243554608613115
  0.6780709867810348  0.6516861672755703  0.1194874621759622
  0.6780839810900752  0.7088210256726392  0.1537220282799308
  0.7225806229946905  0.6317764609311006  0.1537220282799308
  0.7028643205385927  0.6659423501907765  0.1537463542995996
  0.7422982437229662  0.6659387262847217  0.1537522799448996
  0.7028596504747293  0.6431091488941307  0.1921364240187363
  0.6583630085701142  0.7201537136356688  0.1921364240187363
  0.6780699547258567  0.6801555857669330  0.1942119641387365
  0.7422919928043138  0.6431052022037826  0.1921436316448220
  0.7225772015425731  0.6772705228986472  0.1921662300175005
  0.6977953508996980  0.7201497669453208  0.1921436316448220
  0.7225783879016531  0.6544771988425395  0.2243554608613115
  0.6780817459970380  0.7315217635840781  0.2243554608613115
  0.6977896275291201  0.6915230819077987  0.2264310477864377
  0.6583510342808833  0.6686935045172074  0.2648151918602749
  0.6977833766104673  0.6686895578268595  0.2648223994863604
  0.7225761694873957  0.7057399413900101  0.2668907319802748
  0.6780685853487268  0.7028548785217242  0.2648449978590393
  0.7918744814301139  0.6431091488941307  0.1921364240187363
  0.7473778395254987  0.7201537136356688  0.1921364240187363
  0.8115932188570377  0.6544771988425395  0.2243554608613115
  0.7670847856812417  0.6801555857669330  0.1942119641387365
  0.7670965769524223  0.7315217635840781  0.2243554608613115
  0.7670868377562291  0.6573608165541776  0.2264007961214691
  0.7473705353001312  0.6915267058138536  0.2264251221411380
  0.7868044584845046  0.6915230819077987  0.2264310477864377
  0.8363806961916528  0.6686935045172074  0.2648151918602749
  0.7473658652362678  0.6686935045172074  0.2648151918602749
  0.6532987089950831  0.7971943316868594  0.1921436316448220
  0.6583676786339772  0.7429869149323153  0.1537463542995996
  0.6780805596379575  0.7543150876401857  0.1921662300175005
  0.7423015656612367  0.7457341225683979  0.2648223994863604
  0.7028692233316529  0.7457380692587459  0.2648151918602749
  0.7225901958516138  0.7344053812957160  0.2264007961214691
  0.7028738933955154  0.7685712705553920  0.2264251221411380
  0.7225881437766264  0.7572001505084717  0.1942119641387365
  0.7423078165798895  0.7685676466493370  0.2264310477864377
  0.7225867743994960  0.7798994432632625  0.2648449978590393
  0.6780795275827803  0.7827845061315485  0.2668907319802748
  0.6780935539469982  0.8114499460372546  0.2264007961214691
  0.6978049237566212  0.8227786873099364  0.2648223994863604
  0.7670943585381650  0.7827845061315485  0.2668907319802748
  0.7918840542870371  0.7457380692587459  0.2648151918602749
  0.8757914913750824  0.5146004283437825  0.2648223994863604
  0.8808773380962679  0.5916489397756689  0.2648151918602749
  0.3913327586247462  0.8456158352969302  0.2264251221411380
  0.3665383928120107  0.8598290708730869  0.2668907319802748
  0.4555542558225731  0.8313596523817243  0.1921662300175005
  0.4555532237673955  0.8598290708730869  0.2668907319802748
  0.4110456396287269  0.8569440080048014  0.2648449978590393
  0.4307666818091201  0.8456122113908758  0.2264310477864377
  0.5445690867779577  0.8313596523817243  0.1921662300175005
  0.5000604705841114  0.8569440080048014  0.2648449978590393
  0.5000618399612415  0.8342447152500102  0.1942119641387365
  0.5197815127645047  0.8456122113908758  0.2264310477864377
  0.4803475895801307  0.8456158352969302  0.2264251221411380
  0.5445680547227800  0.8598290708730869  0.2668907319802748
  0.6335828856781647  0.8598290708730869  0.2668907319802748
  0.6087963437198890  0.8456122113908758  0.2264310477864377
  0.5693624205355156  0.8456158352969302  0.2264251221411380
  0.5890753015394962  0.8569440080048014  0.2648449978590393
  0.6583725814270369  0.8227826340002840  0.2648151918602749
  0.0549300321524223  0.5256809271102318  0.5150705322274655
  0.0797175094870371  0.5398972327849000  0.5555302632264286
  0.0549168715041116  0.4970140420478781  0.5555600692251931
  0.0549420064416530  0.5771411362286931  0.4423917643859269
  0.0797341538401309  0.6141906432000074  0.4444614256657537
  0.0549288457933419  0.5484742511663396  0.4828813013836548
  0.0549278137381647  0.5769436696577023  0.5576058033464286
  0.0994482212031915  0.6027254918517700  0.5150705322274655
  0.0994470348441113  0.6255188159078782  0.4828813013836548
  0.0797294837762680  0.5913574419033613  0.4828514953848903
  0.0797221795509000  0.5627304340815459  0.5171401935072921
  0.0549418401023825  0.6056091095634085  0.5171158674876231
  0.1242403686016692  0.6397749988230844  0.5171401935072921
  0.0746594608306586  0.6397713749170296  0.5171461191525918
  0.1242356985378063  0.6169417975264383  0.5555302632264286
  0.0746532099120056  0.6169378508360902  0.5555374708525144
  0.0994350605548808  0.5740586067894166  0.5555600692251931
  0.0994601954924222  0.6541857009702317  0.4423917643859269
  0.0994590091333418  0.6769790250263396  0.4102025335421162
  0.0797414580654989  0.6428176510218228  0.4101727275433518
  0.1242596471162681  0.7198622157633614  0.4101727275433518
  0.1439771981841115  0.7540235897678780  0.4102025335421162
  0.1439783845431914  0.7312302657117703  0.4423917643859269
  0.0746651842012363  0.6683980599545518  0.4828587030109758
  0.0994460027889340  0.6539882343992409  0.5576058033464286
  0.0994600291531517  0.6826536743049468  0.5171158674876231
  0.0994579770781647  0.7054484435177023  0.4849270355048902
  0.1242523428909001  0.6912352079415458  0.4444614256657537
  0.1242476728270372  0.6684020066448997  0.4828514953848903
  0.1439664102539607  0.6797700565933086  0.5150705322274655
  0.1439652238948803  0.7025633806494165  0.4828813013836548
  0.1687585576524386  0.7168195635646230  0.5171401935072921
  0.1191776498814278  0.7168159396585678  0.5171461191525918
  0.1687538875885757  0.6939863622679768  0.5555302632264286
  0.1191713989627746  0.6939824155776287  0.5555374708525144
  0.1884714386564186  0.7281477362724935  0.5555600692251931
  0.1439532496056501  0.6511031715309549  0.5555600692251931
  0.1687658618778067  0.7454465713864382  0.4828514953848903
  0.1687705319416689  0.7682797726830843  0.4444614256657537
  0.1191833732520057  0.7454426246960902  0.4828587030109758
  0.1439761661289337  0.7824930082592408  0.4849270355048902
  0.1439641918397032  0.7310327991407792  0.5576058033464286
  0.1687778361670371  0.7969067805048997  0.4101727275433518
  0.0994111119764192  0.4711381885524935  0.7009176049082699
  0.0796982309724384  0.4598100158446229  0.6624977291903692
  0.0797055351978064  0.4884370236664384  0.6282090310679671
  0.0549180578631914  0.4742207179917702  0.5877493000690038
  0.0994242726247299  0.4998050736148471  0.6604280679105424
  0.1242164200232076  0.5368545805861614  0.6624977291903692
  0.0797102052616691  0.5112702249630843  0.5898189613488307
  0.0746355122521965  0.5368509566801064  0.6625036548356688
  0.0994230862656495  0.5225983976709548  0.6282388370667316
  0.1242117499593447  0.5140213792895151  0.7008877989095055
  0.0746474865414274  0.5883111657985681  0.5898248869941304
  0.0549298658131518  0.5541489004449468  0.5897946353291614
  0.0746412356227749  0.5654776417176287  0.6282162386940529
  0.0994220542104723  0.5510678161623178  0.7029633390295057
  0.0994340284997030  0.6025280252807792  0.6302845711879672
  0.1242237242485756  0.5654815884079767  0.6282090310679671
  0.0994362469139606  0.5512652827333087  0.5877493000690038
  0.1242283943124383  0.5883147897046229  0.5898189613488307
  0.1439412753164189  0.5996429624124935  0.6282388370667316
  0.1439424616754989  0.5768496383563854  0.6604280679105424
  0.0994360805746903  0.5797332560680237  0.6624734031706999
  0.1687346090739768  0.6138991453276997  0.6624977291903692
  0.1191537013029657  0.6138955214216448  0.6625036548356688
  0.1191474503843132  0.5910619973407057  0.7008950065355914
  0.1439293010271885  0.5481827532940318  0.7009176049082699
  0.1687299390101139  0.5910659440310536  0.7008877989095055
  0.0994480548639211  0.6311934651864853  0.5897946353291614
  0.0797317524078232  0.6653593544461612  0.5898189613488307
  0.0994446334118036  0.6766875271540320  0.6282388370667316
  0.0994577940601145  0.7053544122163857  0.5877493000690038
  0.0994458197708835  0.6538942030979240  0.6604280679105424
  0.1687419132993448  0.6425261531495153  0.6282090310679671
  0.1191656755921967  0.6653557305401064  0.5898248869941304
  0.1439662439146903  0.7082380299280239  0.5897946353291614
  0.1439544359647298  0.6283098474748471  0.5877493000690038
  0.1687465833632079  0.6653593544461612  0.5898189613488307
  0.1884726250154992  0.7053544122163857  0.5877493000690038
  0.1636776137243133  0.7195667712007057  0.6282162386940529
  0.1242452713947293  0.7195707178910535  0.6282090310679671
  0.1191594246735441  0.6425222064591671  0.6282162386940529
  0.1884594643671881  0.6766875271540320  0.6282388370667316
  0.1439522175504722  0.6795725900223177  0.6302845711879672
  0.1439402432612416  0.6281123809038562  0.7029633390295057
  0.1884474900779577  0.6252273180355703  0.7009176049082699
  0.1636656394350824  0.6681065620822442  0.7008950065355914
  0.1439542696254593  0.6567778208095622  0.6624734031706999
  0.1884606507262683  0.6538942030979240  0.6604280679105424
  0.1242332971054986  0.6681105087725919  0.7008877989095055
  0.1636718903537352  0.6909400861631831  0.6625036548356688
  0.1242379671693617  0.6909437100692382  0.6624977291903692
  0.1884584323120114  0.7051569456453947  0.7029633390295057
  0.1439508481733419  0.7022718827771087  0.7009176049082699
  0.1439640088216528  0.7309387678394624  0.6604280679105424
  0.1884724586762288  0.7338223855511005  0.6624734031706999
  0.1242499414585926  0.7424039191877000  0.5898189613488307
  0.1439628224625726  0.7537320918955703  0.6282388370667316
  0.1636838646429659  0.7424002952816448  0.5898248869941304
  0.1884704066012410  0.7566171547638563  0.6302845711879672
  0.1687514861562678  0.7451550735141305  0.7008877989095055
  0.1687561562201311  0.7679882748107768  0.6624977291903692
  0.1242044457339769  0.4853943714676998  0.7351764970319075
  0.1439173267379573  0.4967225441755704  0.7735963727498085
  0.1687106604955152  0.5109787270907766  0.8078552648734459
  0.1439304873862684  0.5253894292379241  0.7331068357520808
  0.1687179647208832  0.5396057349125921  0.7735665667510441
  0.1884367021478065  0.5509737848610010  0.8057856035936191
  0.1191417270137350  0.5624353123031833  0.7351824226772071
  0.1439282689720106  0.5766521717853947  0.7756421068710440
  0.1439422953362287  0.6053176116911007  0.7351521710122383
  0.1636536651458514  0.6166463529637825  0.7735737743771297
  0.1884486764370374  0.6024339939794625  0.7331068357520808
  0.1884485100977669  0.6309019673141778  0.8078309388537767
  0.1636599160645043  0.6394798770447219  0.7351824226772071
  0.1884355157887263  0.5737671089171088  0.7735963727498085
  0.1687226347847461  0.5624389362092383  0.7351764970319075
  0.1884604843869979  0.6823621764326393  0.7351521710122383
  0.1884464580227801  0.6536967365269331  0.7756421068710440
  0.1687441819308998  0.7165280656923152  0.7351764970319075
  0.1884965735939606  0.8082748304533086  0.4423917643859269
  0.2132887209924381  0.8453243374246229  0.4444614256657537
  0.1884845993047297  0.7568146213348470  0.5150705322274655
  0.2132840509285757  0.8224911361279766  0.4828514953848903
  0.2132767467032076  0.7938641283061613  0.5171401935072921
  0.1884834129456495  0.7796079453909550  0.4828813013836548
  0.2330027883554990  0.8338591860763855  0.5150705322274655
  0.1884964072546902  0.8367428037880238  0.5171158674876231
  0.2330016019964188  0.8566525101324934  0.4828813013836548
  0.2577949357539769  0.8709086930476999  0.5171401935072921
  0.2577782914008835  0.7966152826325922  0.6282090310679671
  0.2081958027750825  0.7966113359422442  0.6282162386940529
  0.2329908140662685  0.7823989769579239  0.5877493000690038
  0.2329788397770380  0.7309387678394624  0.6604280679105424
  0.1884844329654593  0.7852825946695622  0.5897946353291614
  0.2132647724139771  0.7424039191877000  0.5898189613488307
  0.2132720766393447  0.7710309270095153  0.5555302632264286
  0.2132601023501138  0.7195707178910535  0.6282090310679671
  0.2329776534179569  0.7537320918955703  0.6282388370667316
  0.2329896277071883  0.8051923010140318  0.5555600692251931
  0.1884823808904724  0.8080773638823177  0.5576058033464286
  0.2082077770643130  0.8480715450607056  0.5555374708525144
  0.2577902656901140  0.8480754917510535  0.5555302632264286
  0.2775090031170377  0.8594435416994624  0.5877493000690038
  0.2330026220162289  0.8623271594111007  0.5897946353291614
  0.2577829614647459  0.8194484839292382  0.5898189613488307
  0.2082020536937351  0.8194448600231833  0.5898248869941304
  0.2329885956520107  0.8336617195053946  0.6302845711879672
  0.2329906477269980  0.8108669502926391  0.6624734031706999
  0.2775078167579575  0.8822368657555704  0.5555600692251931
  0.3023011505155151  0.8964930486707768  0.5898189613488307
  0.3022964804516522  0.8736598473741305  0.6282090310679671
  0.3220152178785760  0.8850278973225394  0.6604280679105424
  0.2132481280608833  0.6681105087725919  0.7008877989095055
  0.2081661308260428  0.6650642326677988  0.8078611905187455
  0.2577470385970541  0.6650678565738538  0.8078552648734459
  0.2329537048394955  0.6508116736586474  0.7735963727498085
  0.2132408238355153  0.6394835009507767  0.7351764970319075
  0.2132288495462844  0.5880232918323152  0.8078552648734459
  0.2132361537716524  0.6166502996541308  0.7735665667510441
  0.2329668654878066  0.6794785587210008  0.7331068357520808
  0.2329548911985757  0.6280183496025394  0.8057856035936191
  0.2132527981247462  0.6909437100692382  0.6624977291903692
  0.2329656791287269  0.7022718827771087  0.7009176049082699
  0.2081781051152737  0.7165244417862603  0.7351824226772071
  0.2577590128862846  0.7165280656923152  0.7351764970319075
  0.2774718938902656  0.7278562384001857  0.7735963727498085
  0.2577543428224217  0.6936948643956691  0.7735665667510441
  0.2081718541966207  0.6936909177053211  0.7735737743771297
  0.2329646470735497  0.7307413012684718  0.7756421068710440
  0.3022652276478228  0.7421124213153919  0.8078552648734459
  0.2774730802493454  0.7050629143440780  0.8057856035936191
  0.2329666991485362  0.7079465320557161  0.8078309388537767
  0.2081900794045046  0.7679846509047216  0.6625036548356688
  0.2081838284858520  0.7451511268237827  0.7008950065355914
  0.2329786734377671  0.7594067411741774  0.7351521710122383
  0.2329766213627806  0.7822015103869331  0.7029633390295057
  0.2526962941660429  0.7935690065277986  0.7351824226772071
  0.3022772019370538  0.7935726304338537  0.7351764970319075
  0.2577709871755159  0.7679882748107768  0.6624977291903692
  0.2774850545385759  0.7565231234625394  0.7331068357520808
  0.2774838681794961  0.7793164475186471  0.7009176049082699
  0.2577663171116525  0.7451550735141305  0.7008877989095055
  0.2526900432473899  0.7707354824468595  0.7735737743771297
  0.3219912693001146  0.7821074790856165  0.8057856035936191
  0.3219900829410344  0.8049008031417243  0.7735963727498085
  0.3022725318731913  0.7707394291372075  0.7735665667510441
  0.2527020175366212  0.8221956915653210  0.7008950065355914
  0.2527082684552734  0.8450292156462602  0.6625036548356688
  0.3220032435893451  0.8335676882040777  0.7331068357520808
  0.3022845061624222  0.8221996382556690  0.7008877989095055
  0.3220020572302653  0.8563610122601858  0.7009176049082699
  0.2132241794824215  0.5651900905356690  0.8462453345925826
  0.2577423685331907  0.6422346552772075  0.8462453345925826
  0.2329417305502655  0.5993514645401855  0.8462751405913468
  0.2774599196010343  0.6763960292817244  0.8462751405913468
  0.3022605575839599  0.7192792200187460  0.8462453345925826
  0.1439083952179253  0.2689003455802111  0.4727445650580704
  0.0994237276025405  0.3974051194402112  0.4000657972165320
  0.0549151114086943  0.4229894750632882  0.4727445650580704
  0.2329340023564456  0.2691189670877017  0.3092173346528158
  0.2329471747517712  0.3718207638171342  0.3273870293749935
  0.1884146099794638  0.2944847012032882  0.5454233328996089
  0.1884325575872147  0.4485009543215479  0.5999324060189696
  0.2329303975979251  0.4226979771909806  0.6907808685826858
  0.4999449737872149  0.0635696284861632  0.3818961024943542
  0.4109397156887535  0.1661985488507785  0.4545748703358926
  0.4109193666486948  0.0633510069786729  0.5454233328996089
  0.4554255814102330  0.0889353626017498  0.6181021007411472
  0.4554375556994640  0.1403955717202112  0.5454233328996089
  0.3219236814071561  0.2686088477079034  0.6907808685826858
  0.3219440304472149  0.3714563895800094  0.5999324060189696
  0.5444511885487532  0.0891539841092401  0.4545748703358926
  0.4999581461825405  0.1662714252155958  0.4000657972165320
  0.5889813518887533  0.2176587579692402  0.3818961024943542
  0.5889490285594638  0.0633510069786729  0.5454233328996089
  0.5444487871164456  0.1403226953553941  0.5999324060189696
  0.5444499852225407  0.1915642829663650  0.6907808685826858
  0.6334552433210019  0.0889353626017498  0.6181021007411472
  0.6334755923610611  0.1917829044738556  0.5272536381774312
  0.6334767904671560  0.2430244920848265  0.6181021007411472
  0.6779698328333686  0.1659070509784710  0.6726111738605081
  0.5889933261779839  0.2691189670877017  0.3092173346528158
  0.5444966842733685  0.3461635318292403  0.3092173346528158
  0.5889945242840791  0.3203605546986729  0.4000657972165320
  0.5445098566686944  0.4488653285586728  0.3273870293749935
  0.7225179714333100  0.2947761990755959  0.3273870293749935
  0.6780297042795225  0.4232080965707786  0.3092173346528158
  0.6335210880856764  0.4487924521938556  0.3818961024943542
  0.7225239447518299  0.3973322430753941  0.4545748703358926
  0.5889801485625407  0.3200690568263651  0.6181021007411472
  0.6334971395072149  0.3458720339569326  0.5272536381774312
  0.7225011942794636  0.3456534124494420  0.6907808685826858
  0.8115423752456173  0.3974051194402112  0.4000657972165320
  0.8115243999856765  0.3970407452030865  0.6726111738605081
  0.2774366123594635  0.4482823328140574  0.7634596364242242
  0.3664478437764455  0.4482094564492402  0.8179687095435849
  0.4554447271240790  0.2941932033309803  0.7634596364242242
  0.6779710309394641  0.2171486385894419  0.7634596364242242
  0.6334624147456178  0.2427329942125190  0.8361384042657628
  0.7224856204518304  0.2941203269661631  0.8179687095435849
  0.8115219985533687  0.4482094564492402  0.8179687095435849
  0.0549354604487533  0.5258370169353941  0.3818961024943542
  0.2329531480702916  0.4743768078169325  0.4545748703358926
  0.1439514895102330  0.5770786045463651  0.4727445650580704
  0.0994572490379252  0.6029544580417496  0.3273870293749935
  0.1439634637994636  0.6285388136648267  0.4000657972165320
  0.2329902690440789  0.6799990227832881  0.3273870293749935
  0.2774833114102919  0.6028815816769325  0.3818961024943542
  0.3220050999994635  0.6799990227832881  0.3273870293749935
  0.2775168328456763  0.8084309202784710  0.3092173346528158
  0.2775048585564456  0.7569707111600094  0.3818961024943542
  0.3665208876179251  0.8082122987709806  0.4727445650580704
  0.2774725352271558  0.6026629601694420  0.5454233328996089
  0.3664873661825405  0.6026629601694420  0.5454233328996089
  0.3664753918933098  0.5512027510509805  0.6181021007411472
  0.3219990990287533  0.7310948576646249  0.5272536381774312
  0.2774701337948483  0.6538316714155959  0.6907808685826858
  0.3664933395010609  0.7052190041692403  0.6726111738605081
  0.4110283057056764  0.7313863555369325  0.3092173346528158
  0.4110414781010021  0.8340881522663651  0.3273870293749935
  0.4555237442840790  0.7567520896525191  0.5454233328996089
  0.5445385752394636  0.7567520896525191  0.5454233328996089
  0.4110127266579251  0.8335051565217496  0.7634596364242242
  0.6780428766748481  0.5259098933002112  0.3273870293749935
  0.6780309023856175  0.4744496841817497  0.4000657972165320
  0.6780524495317714  0.6285388136648267  0.4000657972165320
  0.8115842714318302  0.6543417907953940  0.3092173346528158
  0.8115974438271560  0.7570435875248266  0.3273870293749935
  0.7225670390441377  0.7055105020415480  0.4545748703358926
  0.9450837700025996  0.5258370169353941  0.3818961024943542
  0.8561000590502919  0.7825550667830864  0.4545748703358926
  0.8115579214210611  0.6025900838046249  0.5999324060189696
  0.7670409304763870  0.5767871066740574  0.6907808685826858
  0.8560545633256764  0.5255455190630862  0.5999324060189696
  0.9450610195302331  0.4741581863094420  0.6181021007411472
  0.9005524033363866  0.4997425419325190  0.6907808685826858
  0.8560641361825994  0.6281744394277017  0.6726111738605081
  0.8560521618933686  0.5767142303092403  0.7452899417020465
  0.3219523999779252  0.5764956088017499  0.9088171721073012
  0.4109660328272148  0.5252540211907788  0.8179687095435849
  0.4109792052225405  0.6279558179202113  0.8361384042657628
  0.3664909380687532  0.7563877154153941  0.8179687095435849
  0.5000239580749071  0.8334322801569326  0.8179687095435849
  0.5445002509394637  0.6535401735432883  0.9088171721073012
  0.4555476928625404  0.8596725078894419  0.4000657972165320
  0.4110390766686943  0.8852568635125190  0.4727445650580704
  0.5445589242795226  0.8595996315246247  0.4545748703358926
  0.5000503080856764  0.8851839871477017  0.5272536381774312
  0.5000395319025405  0.8849653656402113  0.6907808685826858
  0.5890651390410611  0.8851839871477017  0.5272536381774312
  0.5890543628579252  0.8849653656402113  0.6907808685826858
  0.1884493347410609  0.3976237409477017  0.2365385668112772
  0.1439742399825993  0.6287574351723171  0.2365385668112772
  0.1884708818872146  0.5517128704307787  0.2365385668112772
  0.2330022433333097  0.7314592319017499  0.2547082615334550
  0.4109660656995224  0.2179502558415479  0.1638597989697386
  0.4554878542886943  0.2950676969479036  0.1093507258503781
  0.4554854528563865  0.3462364081940575  0.2547082615334550
  0.3664813980841380  0.3464550297015480  0.0911810311282002
  0.4109876128456765  0.3720393853246248  0.1638597989697386
  0.5890089000056173  0.3206520525709805  0.1820294936919162
  0.5445122581010020  0.3976966173125190  0.1820294936919162
  0.6335234895179843  0.3976237409477017  0.2365385668112772
  0.6335606104917711  0.6032459559140574  0.1093507258503781
  0.5890268476133688  0.4746683056892402  0.2365385668112772
  0.6335450366641380  0.5517128704307787  0.2365385668112772
  0.6335582090594639  0.6544146671602112  0.2547082615334550
  0.5890735414440790  0.7829194410202115  0.1820294936919162
  0.6780752000041379  0.6802176442907787  0.1638597989697386
  0.6780883723994640  0.7829194410202115  0.1820294936919162
