Cl F  Mn O  P 
 1.0000000000000000
    65.0000000000000000    0.0000000000000000    0.0000000000000000
     0.0000000000000000   65.0000000000000000    0.0000000000000000
     0.0000000000000000    0.0000000000000000   65.0000000000000000
 Cl  F   Mn  O   P  
 248  41 3206 6325 101
Direct
  0.1884423066981895  0.3205714907724613  0.2606943942463990
  0.2132105055182060  0.2547005795068525  0.4081215912093026
  0.2329233865221866  0.2660287522147229  0.4465414669272036
  0.2329268079743041  0.2205346902471763  0.4080972651896335
  0.2526444287025799  0.2546969556007976  0.4081275168546022
  0.2081415358793118  0.3089079962613968  0.4465188685545248
  0.1884279309766512  0.3202799929001537  0.4787306977710143
  0.2329363808312270  0.3231636106117918  0.4807760330311719
  0.2329209850898787  0.3171974634608769  0.5918990026102805
  0.2132081040858982  0.3058692907530063  0.5534791268923797
  0.2329244065419966  0.2717034014933303  0.5534548008727104
  0.2526357763516194  0.2830321427660122  0.5918764042376018
  0.3022133621843598  0.2032403703883909  0.4808003590508411
  0.2971348196885424  0.1548188667783198  0.4465188685545248
  0.3219276125654708  0.1918692503414705  0.4485872010484391
  0.3219296646404575  0.1690744811287151  0.4807760330311719
  0.2329627308419962  0.3749153176025611  0.1900609616650181
  0.2526803515702718  0.4090775829561822  0.1900912133299869
  0.1636535463256565  0.3576173738377207  0.2627699811715254
  0.2132560012428215  0.5117101272268526  0.2627640555262256
  0.1884602660529557  0.5486226555578001  0.3738626990856652
  0.1687473850489750  0.5372944828499295  0.3354428233677642
  0.1884636875050731  0.5031285935902533  0.3354184973480949
  0.2081750573146961  0.5144573348629353  0.3738401007129863
  0.2081813082333488  0.5372908589438746  0.3354487490130639
  0.2329688822468019  0.5230382999347231  0.3011839312441267
  0.2132513311789584  0.4888769259302064  0.3011541252453623
  0.2526836735085423  0.4888729792398584  0.3011613328714479
  0.2774691119428050  0.3720316998909229  0.1880156264048604
  0.3664935157551127  0.4746606202555383  0.2606943942463990
  0.3219871346543040  0.4775442379671766  0.2627397295065566
  0.3664923293960326  0.4974539443116464  0.2285051634025883
  0.3219850825793167  0.5003390071799320  0.2305508975238238
  0.1884267446175711  0.3430733169562615  0.4465414669272036
  0.1687067921174200  0.3600806541978988  0.5918691966115160
  0.2132200783751292  0.3573294998714681  0.4808003590508411
  0.2081511087362345  0.4115369166260122  0.5191976363960632
  0.2081391344470040  0.3600767075075508  0.5918764042376018
  0.2329459536881500  0.4257925309764073  0.5534548008727104
  0.1884375038335746  0.4229089132647689  0.5514094656125528
  0.1884363174744942  0.4457022373208769  0.5192202347687421
  0.2329439016131629  0.4485873001891628  0.5212659688899777
  0.2132296512320520  0.4599584202360833  0.5534791268923797
  0.3416841287423887  0.4885814813675508  0.5191976363960632
  0.3219705238397282  0.4999534780063076  0.5514094656125528
  0.3219693374806478  0.5227468020624155  0.5192202347687421
  0.3664769216193169  0.5256318649307012  0.5212659688899777
  0.4751731339502717  0.1264836796131052  0.2627699811715254
  0.6137737754697277  0.2062830225871293  0.3738328930869007
  0.4109780170312270  0.3746238197302535  0.4080972651896335
  0.3912617145751289  0.4087897089899295  0.4081215912093026
  0.4109745955791098  0.4201178816978001  0.4465414669272036
  0.4109757819381896  0.3973245576416920  0.4787306977710143
  0.4109639906670091  0.3459583798245475  0.4485872010484391
  0.3912497402858983  0.3573294998714681  0.4808003590508411
  0.4306836634702718  0.3573258759654128  0.4808062846961408
  0.3912666173681892  0.4885854280578987  0.5191904287699777
  0.4306989596977732  0.4885814813675508  0.5191976363960632
  0.4109735635239321  0.4485873001891628  0.5212659688899777
  0.4109853547951127  0.4999534780063076  0.5514094656125528
  0.1884137382731630  0.3200825263291626  0.5939447367315162
  0.1686994878920520  0.3314536463760832  0.6261578947339180
  0.1884255295443437  0.3714487041463074  0.6240882334540911
  0.3219132368439322  0.1915777524691628  0.6666235045730544
  0.3416266587285425  0.1801117245290892  0.7372339399206785
  0.3021943163989585  0.1801156712194372  0.7372267322945931
  0.3219118674668018  0.2142770452239537  0.7372565382933574
  0.3022062906881892  0.2315758803378987  0.6645479644530545
  0.3219250281151129  0.2429439302863071  0.6967670012956295
  0.3416386330177734  0.2315719336475507  0.6645551720791402
  0.6137689726051127  0.3086204450794370  0.6645479644530545
  0.5889813289312267  0.3228721127394844  0.6988123365557871
  0.3467340525958818  0.4112493654440526  0.7372267322945931
  0.3861783692146963  0.4627056278721660  0.6645551720791402
  0.4109732141666118  0.4769612422225611  0.6988123365557871
  0.3664635779529559  0.4968709485670310  0.6645777704518190
  0.3912569117105136  0.5111271314822372  0.6988366625754564
  0.4109711620916245  0.4997560114353167  0.6666235045730544
  0.4306965582654657  0.5397501926137046  0.6645551720791402
  0.3219464089219963  0.4255010331040994  0.7714911043973257
  0.3664527900228051  0.4226174153924614  0.7694457691371681
  0.3416640296502719  0.4596632984577206  0.7715213560622944
  0.3219443568470092  0.4482958023168550  0.7393022724145930
  0.5889792768562399  0.3456668819522398  0.6666235045730544
  0.6086989496595030  0.3570343780931053  0.6988425882207558
  0.5247517402174201  0.3597891563255906  0.8099055001361315
  0.4999620444685473  0.3968355931983935  0.8119810402561314
  0.5196817172718105  0.4082030893392591  0.8442001239038328
  0.5444704776443434  0.3711572062739997  0.8421245369787067
  0.5444692912852637  0.3939505303301078  0.8099353061348958
  0.5196970134993115  0.5394586947413971  0.8825914756037555
  0.4802646711697278  0.5394626414317447  0.8825842679776698
  0.5889885003558426  0.4766697443502536  0.9168486400804026
  0.6087061210841179  0.5108320097038743  0.9168788917453714
  0.5692721978997449  0.5108356336099293  0.9168729661000717
  0.6334687473362399  0.1148246855999319  0.4485872010484391
  0.6531884201395026  0.1261921817407975  0.4808062846961408
  0.6532061177993115  0.2062790758967815  0.3738401007129863
  0.6532003944287336  0.1776523908592592  0.4081275168546022
  0.6334925128966509  0.2176510725355382  0.4060519299294759
  0.7670135586135745  0.2432354281586153  0.4787306977710143
  0.7225051254377783  0.2689138150830089  0.4485872010484391
  0.7225071775127657  0.2461190458702535  0.4807760330311719
  0.7422247982410410  0.2802813112238745  0.4808062846961408
  0.7918416288797442  0.4346655624853141  0.2627640555262256
  0.8115558792608553  0.4232944424383936  0.2305508975238238
  0.8312755520641182  0.4346619385792591  0.2627699811715254
  0.8312812754346963  0.4632886236167814  0.2284825650299094
  0.8115654521177782  0.5259233628030090  0.3032296653653622
  0.7670578679791098  0.5230382999347231  0.3011839312441267
  0.7918512017366675  0.5372944828499295  0.3354428233677642
  0.8115675041927655  0.5031285935902533  0.3354184973480949
  0.7473283426220353  0.4374167168117449  0.3738328930869007
  0.7225406989481503  0.4516683844717920  0.4080972651896335
  0.7422583196764256  0.4858306498254130  0.4081275168546022
  0.7225386468731629  0.4744631536845474  0.3759084332069007
  0.7670470800489593  0.4487847667601537  0.4060519299294759
  0.8363311992881891  0.3859565076932831  0.4465116609284391
  0.8757635416177729  0.3859525610029351  0.4465188685545248
  0.8560499367151133  0.3973245576416920  0.4787306977710143
  0.8757578182471950  0.3573258759654128  0.4808062846961408
  0.6779821335223937  0.2942066728337783  0.7393022724145930
  0.6334877100320359  0.3199884950278458  0.6967670012956295
  0.7027718292712660  0.2571602359609756  0.7372267322945931
  0.7224893803391100  0.2913216099654923  0.7372565382933574
  0.7917986345158813  0.3086204450794370  0.6645479644530545
  0.8115161855837253  0.3427818190839540  0.6645777704518190
  0.7670089387670089  0.3456668819522398  0.6666235045730544
  0.7670109908419962  0.3228721127394844  0.6988123365557871
  0.6780060821008556  0.3971270910707012  0.5939447367315162
  0.6780081341758424  0.3743323218579456  0.6261335687142489
  0.7027957778497279  0.3600806541978988  0.5918691966115160
  0.7225145152766516  0.3714487041463074  0.6240882334540911
  0.6977257549041183  0.4084945872115668  0.6261638203792175
  0.8115151535285476  0.3712512375753166  0.7393022724145930
  0.7867286115702721  0.3570343780931053  0.6988425882207558
  0.9005559851373811  0.4513768865994842  0.6261335687142489
  0.6779841855973809  0.2714119036210226  0.7714911043973257
  0.6977018063256564  0.3055741689746436  0.7715213560622944
  0.7224905666981898  0.2685282859093843  0.7694457691371681
  0.8115172056035350  0.3484564683625612  0.7714911043973257
  0.9202736058656565  0.4855391519531054  0.6261638203792175
  0.0746492087331578  0.5912104017321661  0.5918764042376018
  0.3220088481397284  0.6031653941155383  0.1880156264048604
  0.3417382768179641  0.7172558419223359  0.1900912133299869
  0.3665172979943040  0.6060490118271765  0.1900609616650181
  0.4358111564297276  0.6173816997902066  0.2284753574038238
  0.4110235127558425  0.6316333674502536  0.2627397295065566
  0.3665270371904975  0.6802099588570767  0.1880156264048604
  0.4555287074975712  0.6515430737947232  0.2285051634025883
  0.4110214606808553  0.6544281366630089  0.2305508975238238
  0.4307411334841181  0.6657956328038747  0.2627699811715254
  0.4555502546437252  0.8056322032778002  0.2285051634025883
  0.4307626806302720  0.8198847622869515  0.2627699811715254
  0.4110450599019962  0.7857224969333304  0.2627397295065566
  0.4555514410028046  0.7828388792216920  0.2606943942463990
  0.5000479165681502  0.7342622878148687  0.3354184973480949
  0.4803269440481892  0.7455949757778987  0.3738328930869007
  0.5197655372964258  0.7684245531684899  0.3354487490130639
  0.5000444951160328  0.7797563497824155  0.3738626990856652
  0.5197592863777732  0.7455910290875507  0.3738401007129863
  0.4803484911943433  0.8996841052609755  0.3738328930869007
  0.5693560179243596  0.8710570974391603  0.4081215912093026
  0.5000672286212666  0.9110521552093844  0.4060519299294759
  0.6532865830133486  0.7940089087915668  0.4081275168546022
  0.6532923063839270  0.8226355938290892  0.3738401007129863
  0.6138599640543434  0.8226395405194372  0.3738328930869007
  0.3467699754635737  0.5656299927994373  0.5191904287699777
  0.3219802797147014  0.6026764296722399  0.5212659688899777
  0.3664887128904974  0.5769980427478459  0.5514094656125528
  0.4307324811331577  0.6941308199690892  0.4465188685545248
  0.4110188762304974  0.7055028166078462  0.4787306977710143
  0.4555252740100857  0.7311812035322397  0.4485872010484391
  0.4110176898714173  0.7282961406639538  0.4465414669272036
  0.4358110236289752  0.7425523235791601  0.4808003590508411
  0.3416999525179641  0.6140439258131054  0.5534850525376792
  0.4109817670037251  0.5739155133085693  0.6645777704518190
  0.4109829533628051  0.5511221892524614  0.6967670012956295
  0.4110187098912271  0.7339707899425610  0.5534548008727104
  0.3913024074351291  0.7681366792022370  0.5534791268923797
  0.4307363306195027  0.7681330552961821  0.5534850525376792
  0.4110152884391096  0.7794648519101076  0.5918990026102805
  0.4307300797008501  0.7452995312152431  0.5918764042376018
  0.3912977373712661  0.7453034779055909  0.5918691966115160
  0.5000119937004579  0.5798816604594842  0.5534548008727104
  0.5693058521358817  0.5912143484225141  0.5918691966115160
  0.4802956912443602  0.6140475497191602  0.5534791268923797
  0.5197296144287334  0.6140439258131054  0.5534850525376792
  0.4802910211804971  0.5912143484225141  0.5918691966115160
  0.5197233635100809  0.5912104017321661  0.5918764042376018
  0.5692985479105136  0.5625873406006987  0.6261578947339180
  0.5890127982916245  0.5512162205537783  0.5939447367315162
  0.6583206830912660  0.5912143484225141  0.5918691966115160
  0.6087381944654654  0.5912104017321661  0.5918764042376018
  0.6780276292470094  0.5512162205537783  0.5939447367315162
  0.5890245895628053  0.6025823983709230  0.6240882334540911
  0.6780394205181899  0.6025823983709230  0.6240882334540911
  0.5890603460912270  0.7854309990610229  0.4807760330311719
  0.6138479897651122  0.7711793314009757  0.4465116609284391
  0.6087779668195028  0.8195932644146436  0.4808062846961408
  0.6335667271920360  0.7825473813493846  0.4787306977710143
  0.6583542045266508  0.7967636870240525  0.5191904287699777
  0.6780611506823940  0.7567655591553167  0.5212659688899777
  0.6780729419535743  0.8081317369724614  0.5514094656125528
  0.5693513478604971  0.8482238961425141  0.4465116609284391
  0.5890688989283405  0.8823852701470308  0.4465414669272036
  0.6780597813052635  0.7794648519101076  0.5918990026102805
  0.6780609676643435  0.7566715278539998  0.6240882334540911
  0.4554914032173807  0.5540058069640996  0.6988123365557871
  0.5197032644179639  0.5622922188223360  0.8442001239038328
  0.4999822222375713  0.5736240154362616  0.8826140739764342
  0.4802693412335906  0.5622958427283911  0.8441941982585334
  0.6138023612397442  0.6393404074699294  0.8441941982585334
  0.6335166116208554  0.6279692874230091  0.8119810402561314
  0.6532420077946962  0.6679634686013969  0.8099127077622169
  0.6138096654651124  0.6679674152917450  0.8099055001361315
  0.7028603193597445  0.6402149010868525  0.1900852876846872
  0.7225766218158426  0.6060490118271765  0.1900609616650181
  0.7422879916254657  0.6173777530998583  0.2284825650299094
  0.7028556492958816  0.6173816997902066  0.2284753574038238
  0.7422942425441182  0.6402112771807976  0.1900912133299869
  0.7225732003637253  0.6515430737947232  0.2285051634025883
  0.8312884468593117  0.6170862552275508  0.4465188685545248
  0.8115748419566512  0.6284582518663075  0.4787306977710143
  0.7918561045297277  0.6170902019178989  0.4465116609284391
  0.6977530254208500  0.5912104017321661  0.5918764042376018
  0.7918488003043597  0.5884631940960833  0.4808003590508411
  0.6977745725670039  0.7452995312152431  0.5918764042376018
  0.6977473020502719  0.5625837166946439  0.6261638203792175
  0.7225694175189193  0.7595551455656381  0.6261335687142489
  0.6977865468562348  0.7967597403337046  0.5191976363960632
  0.7225673654439323  0.7823499147783934  0.5939447367315162
  0.6977808234856565  0.7681330552961821  0.5534850525376792
  0.7028531150628213  0.7937210348253141  0.6261578947339180
  0.7670735802054708  0.8079342704014707  0.6666235045730544
  0.2329606787670091  0.3977100868153166  0.1578721296822853
  0.6335501659285473  0.5262148606753166  0.0851933618407469
  0.6583398616774196  0.4891684238025142  0.0831178217207467
  0.6780585991043439  0.5005364737509230  0.1153368585633220
  0.3417224530423886  0.5917933974767815  0.1558037971883708
  0.3913096117320520  0.6146305454637757  0.1174065198431484
  0.3220076617806481  0.6259587181716462  0.1558263955610498
  0.3468082997635735  0.6688419089086678  0.1557965895622853
  0.3665152459193167  0.6288437810399320  0.1578721296822853
  0.3665258508314171  0.7030032829131846  0.1558263955610498
  0.4110238621131628  0.6032594254168552  0.0851933618407469
  0.4307435349164264  0.6146269215577207  0.1174124454884481
  0.6532698387318104  0.5375823568161823  0.1174124454884481
  0.5889491889083401  0.0604794136131847  0.5192202347687421
  0.6137425226658982  0.0747355965283910  0.5534791268923797
  0.2081621625195026  0.3320330182146438  0.1900912133299869
  0.2526142292054655  0.1289430132829352  0.5918764042376018
  0.6137761769020353  0.1551143113409757  0.2284753574038238
  0.2328984058885476  0.1915777524691628  0.6666235045730544
  0.2131841555074368  0.2029488725160832  0.6988366625754564
  0.3467101040174202  0.3083289472071293  0.8825842679776698
  0.3861424463470040  0.3083250005167814  0.8825914756037555
  0.6582584430851123  0.0777782487271294  0.4465116609284391
  0.6779771805120360  0.0891462986755383  0.4787306977710143
  0.6779759941529558  0.1119396227316462  0.4465414669272036
  0.6531764458502717  0.0747319726223358  0.5534850525376792
  0.7472708726081894  0.1289469599732832  0.5918691966115160
  0.7472755426720522  0.1517801612699294  0.5534791268923797
  0.7867094658564256  0.1517765373638742  0.5534850525376792
  0.6334937279698789  0.1892756853454922  0.2285051634025883
  0.8560224003452636  0.3683661747070309  0.7372565382933574
  0.8115137841514171  0.3939505303301078  0.8099353061348958
  0.9450745235454708  0.5000475093076244  0.4485872010484391
  0.9253602731643600  0.5114186293545449  0.4808003590508411
  0.9253436288112658  0.4371252189394371  0.5918691966115160
  0.9450611798791098  0.4712865929439539  0.5918990026102805
  0.0549238125593169  0.5512162205537783  0.5939447367315162
  0.0746434853625797  0.5625837166946439  0.6261638203792175
  0.4555608475204578  0.9139357729210227  0.4080972651896335
  0.5197870844425797  0.9225136826515667  0.3354487490130639
  0.5000674116393170  0.9111461865107012  0.3032296653653622
  0.6780847499035347  0.8880599194256380  0.5534548008727104
  0.6583684474474371  0.9222258086853140  0.5534791268923797
  0.6583637773835740  0.8993926073886680  0.5918691966115160
  0.6532300335054657  0.6165032594829354  0.8825914756037555
  0.6583205502905141  0.7163849722114680  0.8441941982585334
  0.6335164286028050  0.6278752561216921  0.9148033048202451
  0.4752784682487334  0.9480980382746437  0.4081275168546022
  0.6977961197131580  0.8993886606983200  0.5918764042376018
  0.7473666340497276  0.8479323982702065  0.6645479644530545
  0.6977544734748873  0.7163813483054130  0.8442001239038328
  0.7918609073943428  0.5147527794255912  0.1557965895622853
  0.4307492582870041  0.6432536065952431  0.0831250293468325
  0.4110356533843437  0.6546256032339999  0.1153368585633220
  0.2996633109971973  0.1019849501286669  0.4636584023566411
  0.3886793627199289  0.0763999619484244  0.3909806493287382
  0.4109325018953853  0.0891928206692307  0.4273212321584617
  0.3219176709400003  0.0891928206692307  0.4273212321584617
  0.3441707465260826  0.1019843175715013  0.4636594171702765
  0.3886781419525817  0.1019849501286669  0.4636584023566411
  0.4331867581464282  0.0764005945055900  0.3909796345151026
  0.4554490911996136  0.0893412250606911  0.3183026298604721
  0.4776941936753137  0.0763999619484244  0.3909806493287382
  0.4331855774814676  0.1019843175715013  0.4636594171702765
  0.4776929729079664  0.1019849501286669  0.4636584023566411
  0.4999473328507695  0.0891928206692307  0.4273212321584617
  0.5222015891018124  0.0764005945055900  0.3909796345151026
  0.5444639221549984  0.0893412250606911  0.3183026298604721
  0.6112164200571971  0.0764005945055900  0.3909796345151026
  0.5222004084368520  0.1019843175715013  0.4636594171702765
  0.5667078038633511  0.1019849501286669  0.4636584023566411
  0.5667090246306981  0.0763999619484244  0.3909806493287382
  0.5889621638061543  0.0891928206692307  0.4273212321584617
  0.6112152393922368  0.1019843175715013  0.4636594171702765
  0.3664198845226908  0.0890497271883836  0.5363389333850876
  0.4109285007165367  0.0634653715653065  0.4636601655435490
  0.4554267423676925  0.0633169671738459  0.5726787678415385
  0.4331736031922365  0.0505241084530398  0.5363381850118150
  0.4554347154780754  0.0890497271883836  0.5363389333850876
  0.4331723824248897  0.0761090966332823  0.6090159380397180
  0.3886649869983902  0.0761084640761167  0.6090169528533533
  0.4109181261738464  0.0889013227969230  0.6453575356830770
  0.3886637662310435  0.1016934522563592  0.6816947058812564
  0.4331712017599287  0.1016928196991936  0.6816957206948917
  0.4999433316719215  0.0634653715653065  0.4636601655435490
  0.4776809986187354  0.0505247410102055  0.5363371701981796
  0.5221884341476211  0.0505241084530398  0.5363381850118150
  0.5889581626273057  0.0634653715653065  0.4636601655435490
  0.5666958295741202  0.0505247410102055  0.5363371701981796
  0.5444495464334602  0.0890497271883836  0.5363389333850876
  0.5444415733230773  0.0633169671738459  0.5726787678415385
  0.5221872133802742  0.0761090966332823  0.6090159380397180
  0.4999329571292313  0.0889013227969230  0.6453575356830770
  0.4776798179537751  0.0761084640761167  0.6090169528533533
  0.5666946489091594  0.0761084640761167  0.6090169528533533
  0.5889477880846160  0.0889013227969230  0.6453575356830770
  0.6112020443356589  0.0761090966332823  0.6090159380397180
  0.5221860327153134  0.1016928196991936  0.6816957206948917
  0.4776785971864281  0.1016934522563592  0.6816947058812564
  0.6112008636706981  0.1016928196991936  0.6816957206948917
  0.5666934281418129  0.1016934522563592  0.6816947058812564
  0.1439055549965366  0.2175545010483835  0.4636601655435490
  0.1439095561753849  0.2432819501523076  0.4273212321584617
  0.1216551962325819  0.2560740796117439  0.4636584023566411
  0.0994089130919212  0.2945990657899221  0.4636601655435490
  0.0994129142707695  0.3203265148938462  0.4273212321584617
  0.1216671705218126  0.3075342887302054  0.3909796345151026
  0.1216540155676209  0.2816578026776551  0.5363381850118150
  0.1439071547430769  0.2944506613984612  0.5726787678415385
  0.0994328616703830  0.3975194840268452  0.3183026298604721
  0.0994248885600000  0.3717867240123077  0.3546424643169231
  0.1217019127245439  0.4874986391515014  0.2456231136456612
  0.1216899384353134  0.4360384300330398  0.3183018814871996
  0.1217006919571973  0.5130836273317440  0.3183008666735642
  0.0994464357061540  0.5258758534953845  0.3546424643169231
  0.0771585543279664  0.3331186443532823  0.4636584023566411
  0.0771693479522365  0.4101625765376549  0.4636594171702765
  0.0994208873811517  0.3460592749083836  0.3909813977020105
  0.1216779641460830  0.3845782209145781  0.3909806493287382
  0.1216659898568516  0.3331180117961168  0.4636594171702765
  0.1216767433787357  0.4101632090948208  0.4636584023566411
  0.0771573736630056  0.3587023674191937  0.5363381850118150
  0.0994224871276923  0.4229554352584615  0.5000000000000000
  0.1216647690895047  0.3587029999763591  0.5363371701981796
  0.1216755627137748  0.4357469321607321  0.5363381850118150
  0.0994184859488446  0.3972279861545375  0.5363389333850876
  0.0994105128384616  0.3714952261399997  0.5726787678415385
  0.0549338183334597  0.5257327600145376  0.4636601655435490
  0.1216995112922364  0.5386673503976552  0.3909806493287382
  0.0771920757633510  0.5386679829548209  0.3909796345151026
  0.1216887176679663  0.4616234182132824  0.3909796345151026
  0.0994424345273058  0.5001484043914605  0.3909813977020105
  0.1216875370030056  0.4872071412791936  0.4636594171702765
  0.0549218440442290  0.4742725508960760  0.5363389333850876
  0.0549138709338462  0.4485397908815383  0.5726787678415385
  0.1216863162356588  0.5127921294594363  0.5363371701981796
  0.0994320599846155  0.5255843556230769  0.5726787678415385
  0.1884181723692309  0.2176975945292307  0.3546424643169231
  0.2106724286202742  0.2049053683655901  0.3183008666735642
  0.2551798641491597  0.2049047358084242  0.3183018814871996
  0.2551918384383902  0.2563649449268857  0.2456231136456612
  0.2106844029095051  0.2563655774840516  0.2456220988320259
  0.2552038127276211  0.3078251540453474  0.1729443458041227
  0.1884381197688444  0.2948905636622298  0.2456238620189336
  0.1661757867156584  0.2819499331071285  0.3183008666735642
  0.1884301466584616  0.2691578036476924  0.2819636964753847
  0.2551906176710434  0.2819499331071285  0.3183008666735642
  0.2106832222445441  0.2819493005499626  0.3183018814871996
  0.1439295035749982  0.3204749192853066  0.3183026298604721
  0.1439215304646149  0.2947421592707691  0.3546424643169231
  0.1884261454796135  0.2434303545437681  0.3183026298604721
  0.2329363614200001  0.2947421592707691  0.3546424643169231
  0.2329443345303827  0.3204749192853066  0.3183026298604721
  0.2996884803430057  0.1793203801853473  0.2456231136456612
  0.3441958757695050  0.1793210127425130  0.2456220988320259
  0.3664462345334594  0.1408014341791528  0.2456238620189336
  0.3441839014802741  0.1278608036240513  0.3183008666735642
  0.2996765060537748  0.1278601710668856  0.3183018814871996
  0.3219296452292310  0.1406530297876921  0.3546424643169231
  0.2996872595756587  0.2049053683655901  0.3183008666735642
  0.3219416195184615  0.1921132389061538  0.2819636964753847
  0.3441946951045440  0.2049047358084242  0.3183018814871996
  0.3219376183396137  0.1663857898022297  0.3183026298604721
  0.2774529507242290  0.2948905636622298  0.2456238620189336
  0.2774569519030768  0.3206180127661536  0.2092849286338462
  0.2996992338648899  0.2563655774840516  0.2456220988320259
  0.3219495926288443  0.2178459989206912  0.2456238620189336
  0.3219535938076924  0.2435734480246153  0.2092849286338462
  0.3442066693937749  0.2563649449268857  0.2456231136456612
  0.3219615669180750  0.2693062080391527  0.1729450941773952
  0.3664677816796135  0.2948905636622298  0.2456238620189336
  0.3664717828584616  0.3206180127661536  0.2092849286338462
  0.3442186436830056  0.3078251540453474  0.1729443458041227
  0.2774449776138463  0.2691578036476924  0.2819636964753847
  0.2996980531999289  0.2819493005499626  0.3183018814871996
  0.2774409764349983  0.2434303545437681  0.3183026298604721
  0.2774330033246155  0.2176975945292307  0.3546424643169231
  0.3664598085692307  0.2691578036476924  0.2819636964753847
  0.3219591654857675  0.3204749192853066  0.3183026298604721
  0.3442054486264280  0.2819499331071285  0.3183008666735642
  0.3664558073903829  0.2434303545437681  0.3183026298604721
  0.3664478342800002  0.2176975945292307  0.3546424643169231
  0.3219511923753847  0.2947421592707691  0.3546424643169231
  0.1884141711903828  0.1919701454253066  0.3909813977020105
  0.2551678898599290  0.1534445266899628  0.3909806493287382
  0.2106592736660823  0.1790288823130396  0.4636594171702765
  0.2329124128415383  0.1918217410338461  0.5000000000000000
  0.2551666690925818  0.1790295148702055  0.4636584023566411
  0.2774090547461540  0.1147771762923078  0.5000000000000000
  0.2329004385523080  0.1403615319153844  0.5726787678415385
  0.2551546948033509  0.1275693057517438  0.5363371701981796
  0.1661506574722360  0.2046132379361167  0.5363381850118150
  0.2106580528987358  0.2046138704932824  0.5363371701981796
  0.1884037966476925  0.2174060966569226  0.5726787678415385
  0.2329084116626906  0.1660942919299222  0.5363389333850876
  0.2551654884276210  0.2046132379361167  0.5363381850118150
  0.1661638124264282  0.2304897239886670  0.3909796345151026
  0.1661626317614674  0.2560734470545782  0.4636594171702765
  0.2106700271879667  0.2560740796117439  0.4636584023566411
  0.2106712479553134  0.2304890914315013  0.3909806493287382
  0.2551786433818127  0.2304897239886670  0.3909796345151026
  0.2551774627168517  0.2560734470545782  0.4636594171702765
  0.1661746060506981  0.3075336561730397  0.3909806493287382
  0.1439175292857673  0.2690147101668450  0.3909813977020105
  0.1884277452261543  0.3203265148938462  0.4273212321584617
  0.2329323602411520  0.2690147101668450  0.3909813977020105
  0.2551894370060827  0.3075336561730397  0.3909806493287382
  0.2106820014771970  0.3075342887302054  0.3909796345151026
  0.1661614109941202  0.2816584352348210  0.5363371701981796
  0.1884237440473058  0.2945990657899221  0.4636601655435490
  0.1884157709369232  0.2688663057753845  0.5000000000000000
  0.2329203859519213  0.2175545010483835  0.4636601655435490
  0.2551762419495050  0.2816584352348210  0.5363371701981796
  0.1439151278534600  0.3201834214129989  0.5363389333850876
  0.1884117697580753  0.2431388566714604  0.5363389333850876
  0.2106688465230057  0.2816578026776551  0.5363381850118150
  0.2329299588088443  0.3201834214129989  0.5363389333850876
  0.2774170278565367  0.1405099363068451  0.4636601655435490
  0.2996752852864278  0.1534451592471284  0.3909796345151026
  0.2774210290353847  0.1662373854107690  0.4273212321584617
  0.2774290021457672  0.1919701454253066  0.3909813977020105
  0.3219256440503827  0.1149255806837680  0.3909813977020105
  0.3664438331011519  0.1919701454253066  0.3909813977020105
  0.3441827208153138  0.1534445266899628  0.3909806493287382
  0.3664358599907695  0.1662373854107690  0.4273212321584617
  0.3664318588119212  0.1405099363068451  0.4636601655435490
  0.3441815000479665  0.1790295148702055  0.4636584023566411
  0.3219352169073059  0.2175545010483835  0.4636601655435490
  0.3664238857015388  0.1147771762923078  0.5000000000000000
  0.3441695257587357  0.1275693057517438  0.5363371701981796
  0.2996621303322368  0.1275686731945782  0.5363381850118150
  0.3219152695076923  0.1403615319153844  0.5726787678415385
  0.3219272437969233  0.1918217410338461  0.5000000000000000
  0.2996728838541201  0.2046138704932824  0.5363371701981796
  0.3441803193830058  0.2046132379361167  0.5363381850118150
  0.3219232426180754  0.1660942919299222  0.5363389333850876
  0.3664334585584615  0.2174060966569226  0.5726787678415385
  0.2774186276030775  0.2174060966569226  0.5726787678415385
  0.3441922936722365  0.2560734470545782  0.4636594171702765
  0.2996860789106982  0.2304890914315013  0.3909806493287382
  0.3441934743371973  0.2304897239886670  0.3909796345151026
  0.3219392180861539  0.2432819501523076  0.4273212321584617
  0.2996848581433510  0.2560740796117439  0.4636584023566411
  0.2774385750026908  0.2945990657899221  0.4636601655435490
  0.2774425761815388  0.3203265148938462  0.4273212321584617
  0.2996968324325819  0.3075342887302054  0.3909796345151026
  0.3219471911965364  0.2690147101668450  0.3909813977020105
  0.3442042679614674  0.3075336561730397  0.3909806493287382
  0.3664574071369236  0.3203265148938462  0.4273212321584617
  0.3664534059580751  0.2945990657899221  0.4636601655435490
  0.2774306018923077  0.2688663057753845  0.5000000000000000
  0.3441910729048898  0.2816584352348210  0.5363371701981796
  0.3664454328476925  0.2688663057753845  0.5000000000000000
  0.2774266007134601  0.2431388566714604  0.5363389333850876
  0.2996836774783903  0.2816578026776551  0.5363381850118150
  0.3219368166538464  0.2944506613984612  0.5726787678415385
  0.3219447897642293  0.3201834214129989  0.5363389333850876
  0.3664414316688446  0.2431388566714604  0.5363389333850876
  0.1439414778642290  0.3719351284037682  0.2456238620189336
  0.1661985546291595  0.4104540744099628  0.2456231136456612
  0.2106951965337748  0.3334095096684243  0.2456231136456612
  0.2329563088196135  0.3719351284037682  0.2456238620189336
  0.2107071708230056  0.3848697187868859  0.1729443458041227
  0.2329603099984616  0.3976625775076923  0.2092849286338462
  0.2552133855845442  0.4104540744099628  0.2456231136456612
  0.2329682831088442  0.4233953375222298  0.1729450941773952
  0.2107059500556590  0.4104547069671287  0.2456220988320259
  0.1439335047538463  0.3462023683892308  0.2819636964753847
  0.1661865803399286  0.3589938652915010  0.3183018814871996
  0.1884397195153848  0.3717867240123077  0.3546424643169231
  0.2329483357092306  0.3462023683892308  0.2819636964753847
  0.1884516938046156  0.4232469331307693  0.2819636964753847
  0.2106939757664281  0.3589944978486670  0.3183008666735642
  0.2552014112953133  0.3589938652915010  0.3183018814871996
  0.2107047693906979  0.4360384300330398  0.3183018814871996
  0.1884716412042290  0.5004399022637682  0.1729450941773952
  0.2107287179691597  0.5389588482699629  0.1729443458041227
  0.1439550519000000  0.5002914978723078  0.2819636964753847
  0.1884596669149981  0.4489796931453066  0.2456238620189336
  0.2107167436799287  0.4874986391515014  0.2456231136456612
  0.2329778559657674  0.5260242578868450  0.2456238620189336
  0.1439430776107692  0.4488312887538461  0.3546424643169231
  0.2329579085661540  0.4488312887538461  0.3546424643169231
  0.2552121648171974  0.4360390625902055  0.3183008666735642
  0.2552229584414671  0.5130829947745783  0.3183018814871996
  0.2997100274891594  0.3334095096684243  0.2456231136456612
  0.2997220017783903  0.3848697187868859  0.1729443458041227
  0.2774649250134598  0.3463507727806914  0.1729450941773952
  0.2997207810110437  0.4104547069671287  0.2456220988320259
  0.3219711397749982  0.3719351284037682  0.2456238620189336
  0.3219751409538463  0.3976625775076923  0.2092849286338462
  0.3219831140642290  0.4233953375222298  0.1729450941773952
  0.3442174229156589  0.3334101422255901  0.2456220988320259
  0.3442282165399288  0.4104540744099628  0.2456231136456612
  0.3664797559688445  0.3463507727806914  0.1729450941773952
  0.2774665247600002  0.4232469331307693  0.2819636964753847
  0.3219631666646156  0.3462023683892308  0.2819636964753847
  0.3442269957725821  0.4360390625902055  0.3183008666735642
  0.3442162422506984  0.3589938652915010  0.3183018814871996
  0.2774545504707691  0.3717867240123077  0.3546424643169231
  0.3664693814261539  0.3717867240123077  0.3546424643169231
  0.3664773545365367  0.3975194840268452  0.3183026298604721
  0.2552253598737749  0.4619142835284245  0.1729443458041227
  0.2774744978703826  0.4489796931453066  0.2456238620189336
  0.2774784990492308  0.4747071422492308  0.2092849286338462
  0.2997315746353134  0.4874986391515014  0.2456231136456612
  0.2552241391064281  0.4874992717086670  0.2456220988320259
  0.2774864721596134  0.5004399022637682  0.1729450941773952
  0.2997435489245442  0.5389588482699629  0.1729443458041227
  0.3442401908291595  0.4619142835284245  0.1729443458041227
  0.3664893288257673  0.4489796931453066  0.2456238620189336
  0.3664933300046155  0.4747071422492308  0.2092849286338462
  0.3219926869211520  0.5260242578868450  0.2456238620189336
  0.3665013031149982  0.5004399022637682  0.1729450941773952
  0.3219847138107694  0.5002914978723078  0.2819636964753847
  0.3219807126319213  0.4745640487683837  0.3183026298604721
  0.3219727395215385  0.4488312887538461  0.3546424643169231
  0.2774760976169231  0.5258758534953845  0.3546424643169231
  0.2997303538679665  0.5130836273317440  0.3183008666735642
  0.3442377893968518  0.5130829947745783  0.3183018814871996
  0.3664909285723078  0.5258758534953845  0.3546424643169231
  0.1439311033215385  0.3973710796353845  0.4273212321584617
  0.1439271021426904  0.3716436305314607  0.4636601655435490
  0.1661841789076208  0.4101625765376549  0.4636594171702765
  0.1661733852833511  0.3331186443532823  0.4636584023566411
  0.1884357183365365  0.3460592749083836  0.3909813977020105
  0.2106927951014673  0.3845782209145781  0.3909806493287382
  0.2329459342769233  0.3973710796353845  0.4273212321584617
  0.2329419330980750  0.3716436305314607  0.4636601655435490
  0.2551990098630056  0.4101625765376549  0.4636594171702765
  0.2551882162387354  0.3331186443532823  0.4636584023566411
  0.2107035486233511  0.4616234182132824  0.3909796345151026
  0.1884452911934599  0.4486881952729990  0.4636601655435490
  0.1439486492888445  0.5257327600145376  0.4636601655435490
  0.1662069067187356  0.5386679829548209  0.3909796345151026
  0.1884572654826904  0.5001484043914605  0.3909813977020105
  0.2107143422476209  0.5386673503976552  0.3909806493287382
  0.1439191290323078  0.3459108705169231  0.5000000000000000
  0.1661722046183901  0.3587023674191937  0.5363381850118150
  0.1884333169042292  0.3972279861545375  0.5363389333850876
  0.1884253437938463  0.3714952261399997  0.5726787678415385
  0.1884373180830768  0.4229554352584615  0.5000000000000000
  0.2329339599876928  0.3459108705169231  0.5000000000000000
  0.2551977890956588  0.4357475647178978  0.5363371701981796
  0.2551870355737749  0.3587023674191937  0.5363381850118150
  0.2106796000448894  0.3587029999763591  0.5363371701981796
  0.1439366749996135  0.4742725508960760  0.5363389333850876
  0.1439287018892308  0.4485397908815383  0.5726787678415385
  0.2552085827199286  0.5127914969022705  0.5363381850118150
  0.2107011471910434  0.5127921294594363  0.5363371701981796
  0.2329435328446156  0.4485397908815383  0.5726787678415385
  0.3219567640534598  0.3716436305314607  0.4636601655435490
  0.2997076260568519  0.3845782209145781  0.3909806493287382
  0.2774505492919213  0.3460592749083836  0.3909813977020105
  0.2996956517676211  0.3331180117961168  0.4636594171702765
  0.3442030471941203  0.3331186443532823  0.4636584023566411
  0.3664653802473056  0.3460592749083836  0.3909813977020105
  0.3219687383426906  0.4231038396499220  0.3909813977020105
  0.3219607652323080  0.3973710796353845  0.4273212321584617
  0.2997064052895050  0.4101632090948208  0.4636584023566411
  0.3664749531042291  0.4486881952729990  0.4636601655435490
  0.2774601221488445  0.4486881952729990  0.4636601655435490
  0.3442138408183906  0.4101625765376549  0.4636594171702765
  0.2997183795787358  0.4616234182132824  0.3909796345151026
  0.2997291732030053  0.5386673503976552  0.3909806493287382
  0.2774641233276925  0.4744156443769231  0.4273212321584617
  0.2997171989137748  0.4872071412791936  0.4636594171702765
  0.2552097633848895  0.4872077738363594  0.4636584023566411
  0.3442258151076211  0.4616227856561167  0.3909806493287382
  0.3664869273934597  0.5001484043914605  0.3909813977020105
  0.3664789542830771  0.4744156443769231  0.4273212321584617
  0.3442245943402744  0.4872077738363594  0.4636584023566411
  0.2774521490384618  0.4229554352584615  0.5000000000000000
  0.2996944310002742  0.3587029999763591  0.5363371701981796
  0.2774481478596137  0.3972279861545375  0.5363389333850876
  0.2774401747492309  0.3714952261399997  0.5726787678415385
  0.3664629788149983  0.3972279861545375  0.5363389333850876
  0.3219487909430769  0.3459108705169231  0.5000000000000000
  0.3664669799938459  0.4229554352584615  0.5000000000000000
  0.3442018665291595  0.3587023674191937  0.5363381850118150
  0.3664550057046156  0.3714952261399997  0.5726787678415385
  0.2997052246245437  0.4357469321607321  0.5363381850118150
  0.3442126200510435  0.4357475647178978  0.5363371701981796
  0.3219583638000001  0.4485397908815383  0.5726787678415385
  0.2997159781464281  0.5127921294594363  0.5363371701981796
  0.3664765528507695  0.5255843556230769  0.5726787678415385
  0.2774617218953846  0.5255843556230769  0.5726787678415385
  0.4109564504738465  0.1921132389061538  0.2819636964753847
  0.4332107067248898  0.1793210127425130  0.2456220988320259
  0.4554530923784617  0.1150686741646152  0.2819636964753847
  0.3887033112983903  0.1793203801853473  0.2456231136456612
  0.4554730397780755  0.1922616432976143  0.1729450941773952
  0.4554650666676926  0.1665288832830767  0.2092849286338462
  0.4777181422537747  0.1793203801853473  0.2456231136456612
  0.4999712814292309  0.1921132389061538  0.2819636964753847
  0.4554610654888445  0.1408014341791528  0.2456238620189336
  0.4331987324356587  0.1278608036240513  0.3183008666735642
  0.3886913370091595  0.1278601710668856  0.3183018814871996
  0.4109444761846155  0.1406530297876921  0.3546424643169231
  0.4109524492949982  0.1663857898022297  0.3183026298604721
  0.3887020905310435  0.2049053683655901  0.3183008666735642
  0.4332095260599290  0.2049047358084242  0.3183018814871996
  0.4777061679645442  0.1278601710668856  0.3183018814871996
  0.4999593071400000  0.1406530297876921  0.3546424643169231
  0.4999672802503828  0.1663857898022297  0.3183026298604721
  0.4777169214864286  0.2049053683655901  0.3183008666735642
  0.3887152855876212  0.2307805893038090  0.1729443458041227
  0.4109644235842291  0.2178459989206912  0.2456238620189336
  0.4109684247630772  0.2435734480246153  0.2092849286338462
  0.4332215003491597  0.2563649449268857  0.2456231136456612
  0.3887140648202742  0.2563655774840516  0.2456220988320259
  0.4109763978734598  0.2693062080391527  0.1729450941773952
  0.4777301165430056  0.2307805893038090  0.1729443458041227
  0.4999792545396138  0.2178459989206912  0.2456238620189336
  0.4777288957756591  0.2563655774840516  0.2456220988320259
  0.4554866138138467  0.3206180127661536  0.2092849286338462
  0.4554826126349982  0.2948905636622298  0.2456238620189336
  0.4332334746383902  0.3078251540453474  0.1729443458041227
  0.3887128841553132  0.2819493005499626  0.3183018814871996
  0.4332202795818128  0.2819499331071285  0.3183008666735642
  0.4109660233307694  0.2947421592707691  0.3546424643169231
  0.4109739964411521  0.3204749192853066  0.3183026298604721
  0.4554706383457673  0.2434303545437681  0.3183026298604721
  0.4554626652353844  0.2176975945292307  0.3546424643169231
  0.4554746395246154  0.2691578036476924  0.2819636964753847
  0.4777277151106979  0.2819493005499626  0.3183018814871996
  0.4999808542861541  0.2947421592707691  0.3546424643169231
  0.5444798976230774  0.1665288832830767  0.2092849286338462
  0.5444878707334598  0.1922616432976143  0.1729450941773952
  0.5444679233338464  0.1150686741646152  0.2819636964753847
  0.5444758964442289  0.1408014341791528  0.2456238620189336
  0.5667329732091595  0.1793203801853473  0.2456231136456612
  0.5222255376802747  0.1793210127425130  0.2456220988320259
  0.5889940854949981  0.2178459989206912  0.2456238620189336
  0.6112403686356594  0.1793210127425130  0.2456220988320259
  0.5889861123846157  0.1921132389061538  0.2819636964753847
  0.5667209989199286  0.1278601710668856  0.3183018814871996
  0.5222135633910433  0.1278608036240513  0.3183008666735642
  0.5889741380953848  0.1406530297876921  0.3546424643169231
  0.6112283943464285  0.1278608036240513  0.3183008666735642
  0.5444774961907692  0.2176975945292307  0.3546424643169231
  0.5222243570153134  0.2049047358084242  0.3183018814871996
  0.5667317524418130  0.2049053683655901  0.3183008666735642
  0.5889821112057676  0.1663857898022297  0.3183026298604721
  0.6112391879706982  0.2049047358084242  0.3183018814871996
  0.4999832557184614  0.2435734480246153  0.2092849286338462
  0.5444974435903830  0.2948905636622298  0.2456238620189336
  0.4999912288288442  0.2693062080391527  0.1729450941773952
  0.5222483055937749  0.3078251540453474  0.1729443458041227
  0.5222363313045439  0.2563649449268857  0.2456231136456612
  0.5445014447692310  0.3206180127661536  0.2092849286338462
  0.5667449474983904  0.2307805893038090  0.1729443458041227
  0.5889980866738461  0.2435734480246153  0.2092849286338462
  0.6112511622599287  0.2563649449268857  0.2456231136456612
  0.5667437267310435  0.2563655774840516  0.2456220988320259
  0.5890060597842286  0.2693062080391527  0.1729450941773952
  0.6112631365491596  0.3078251540453474  0.1729443458041227
  0.5444894704800005  0.2691578036476924  0.2819636964753847
  0.5222351105371974  0.2819499331071285  0.3183008666735642
  0.5444854693011516  0.2434303545437681  0.3183026298604721
  0.4999888273965365  0.3204749192853066  0.3183026298604721
  0.5667425460660827  0.2819493005499626  0.3183018814871996
  0.6112499414925817  0.2819499331071285  0.3183008666735642
  0.5890036583519213  0.3204749192853066  0.3183026298604721
  0.5889956852415384  0.2947421592707691  0.3546424643169231
  0.4554387166569230  0.1147771762923078  0.5000000000000000
  0.3886901162418126  0.1534451592471284  0.3909796345151026
  0.4109420747523078  0.1918217410338461  0.5000000000000000
  0.4109404750057672  0.1149255806837680  0.3909813977020105
  0.4331975517706981  0.1534445266899628  0.3909806493287382
  0.3886889355768518  0.1790288823130396  0.4636594171702765
  0.4331963310033513  0.1790295148702055  0.4636584023566411
  0.4554466897673059  0.1405099363068451  0.4636601655435490
  0.4554506909461544  0.1662373854107690  0.4273212321584617
  0.4777037665322365  0.1790288823130396  0.4636594171702765
  0.4777049471971972  0.1534451592471284  0.3909796345151026
  0.4554586640565368  0.1919701454253066  0.3909813977020105
  0.4999569057076922  0.1918217410338461  0.5000000000000000
  0.4999553059611519  0.1149255806837680  0.3909813977020105
  0.3886769612876211  0.1275686731945782  0.5363381850118150
  0.4109301004630771  0.1403615319153844  0.5726787678415385
  0.4331843567141204  0.1275693057517438  0.5363371701981796
  0.4999449314184614  0.1403615319153844  0.5726787678415385
  0.4776917922430056  0.1275686731945782  0.5363381850118150
  0.4331951503383901  0.2046132379361167  0.5363381850118150
  0.4109380735734597  0.1660942919299222  0.5363389333850876
  0.3886877148095049  0.2046138704932824  0.5363371701981796
  0.4554482895138466  0.2174060966569226  0.5726787678415385
  0.4777025457648895  0.2046138704932824  0.5363371701981796
  0.4999529045288446  0.1660942919299222  0.5363389333850876
  0.5444734950119211  0.1919701454253066  0.3909813977020105
  0.5222123827260825  0.1534445266899628  0.3909806493287382
  0.5444655219015387  0.1662373854107690  0.4273212321584617
  0.5444615207226906  0.1405099363068451  0.4636601655435490
  0.5222111619587355  0.1790295148702055  0.4636584023566411
  0.6112272136814673  0.1534445266899628  0.3909806493287382
  0.5667197781525820  0.1534451592471284  0.3909796345151026
  0.5889701369165367  0.1149255806837680  0.3909813977020105
  0.6112259929141204  0.1790295148702055  0.4636584023566411
  0.5667185974876208  0.1790288823130396  0.4636594171702765
  0.5221991876695047  0.1275693057517438  0.5363371701981796
  0.5444535476123082  0.1147771762923078  0.5000000000000000
  0.5667066231983904  0.1275686731945782  0.5363381850118150
  0.5889597623738465  0.1403615319153844  0.5726787678415385
  0.6112140186248894  0.1275693057517438  0.5363371701981796
  0.5667173767202739  0.2046138704932824  0.5363371701981796
  0.5444631204692310  0.2174060966569226  0.5726787678415385
  0.5222099812937748  0.2046132379361167  0.5363381850118150
  0.6112248122491591  0.2046132379361167  0.5363381850118150
  0.5889677354842294  0.1660942919299222  0.5363389333850876
  0.5889717366630770  0.1918217410338461  0.5000000000000000
  0.3887009098660832  0.2304890914315013  0.3909806493287382
  0.3886996890987358  0.2560740796117439  0.4636584023566411
  0.4109540490415388  0.2432819501523076  0.4273212321584617
  0.4109500478626905  0.2175545010483835  0.4636601655435490
  0.4332071246276211  0.2560734470545782  0.4636594171702765
  0.4332083052925820  0.2304897239886670  0.3909796345151026
  0.4999688799969232  0.2432819501523076  0.4273212321584617
  0.4999648788180751  0.2175545010483835  0.4636601655435490
  0.4777157408214674  0.2304890914315013  0.3909806493287382
  0.4332190989168522  0.3075336561730397  0.3909806493287382
  0.4109620221519211  0.2690147101668450  0.3909813977020105
  0.3887116633879665  0.3075342887302054  0.3909796345151026
  0.4554682369134596  0.2945990657899221  0.4636601655435490
  0.4554722380923081  0.3203265148938462  0.4273212321584617
  0.4777264943433509  0.3075342887302054  0.3909796345151026
  0.4777145200541200  0.2560740796117439  0.4636584023566411
  0.3886985084337750  0.2816578026776551  0.5363381850118150
  0.4332059038602741  0.2816584352348210  0.5363371701981796
  0.4554602638030771  0.2688663057753845  0.5000000000000000
  0.4777133393891592  0.2816578026776551  0.5363381850118150
  0.4109516476092308  0.2944506613984612  0.5726787678415385
  0.4109596207196138  0.3201834214129989  0.5363389333850876
  0.4554562626242291  0.2431388566714604  0.5363389333850876
  0.4999664785646155  0.2944506613984612  0.5726787678415385
  0.5889837109523079  0.2432819501523076  0.4273212321584617
  0.5222231362479665  0.2304897239886670  0.3909796345151026
  0.6112379672033512  0.2304897239886670  0.3909796345151026
  0.5667305717768522  0.2304890914315013  0.3909806493287382
  0.5667293510095048  0.2560740796117439  0.4636584023566411
  0.6112367865383904  0.2560734470545782  0.4636594171702765
  0.5222219555830057  0.2560734470545782  0.4636594171702765
  0.4999768531073060  0.2690147101668450  0.3909813977020105
  0.5222339298722366  0.3075336561730397  0.3909806493287382
  0.5444870690476928  0.3203265148938462  0.4273212321584617
  0.5667413252987352  0.3075342887302054  0.3909796345151026
  0.6112487608276214  0.3075336561730397  0.3909806493287382
  0.5889916840626899  0.2690147101668450  0.3909813977020105
  0.5222207348156588  0.2816584352348210  0.5363371701981796
  0.5444830678688444  0.2945990657899221  0.4636601655435490
  0.5444750947584619  0.2688663057753845  0.5000000000000000
  0.6112355657710435  0.2816584352348210  0.5363371701981796
  0.5889797097734599  0.2175545010483835  0.4636601655435490
  0.5444710935796139  0.2431388566714604  0.5363389333850876
  0.4999744516749983  0.3201834214129989  0.5363389333850876
  0.5667281703445445  0.2816578026776551  0.5363381850118150
  0.5889813095199997  0.2944506613984612  0.5726787678415385
  0.5889892826303831  0.3201834214129989  0.5363389333850876
  0.3887248584445441  0.3334095096684243  0.2456231136456612
  0.3887356119664282  0.4104547069671287  0.2456220988320259
  0.4109859707303829  0.3719351284037682  0.2456238620189336
  0.4109979450196137  0.4233953375222298  0.1729450941773952
  0.4109899719092309  0.3976625775076923  0.2092849286338462
  0.4777396893999288  0.3334095096684243  0.2456231136456612
  0.4554945869242289  0.3463507727806914  0.1729450941773952
  0.4777516636891595  0.3848697187868859  0.1729443458041227
  0.4332430474953133  0.4104540744099628  0.2456231136456612
  0.5000048028646155  0.3976625775076923  0.2092849286338462
  0.4109779976200001  0.3462023683892308  0.2819636964753847
  0.3887236376771973  0.3589944978486670  0.3183008666735642
  0.4332310732060827  0.3589938652915010  0.3183018814871996
  0.4554961866707695  0.4232469331307693  0.2819636964753847
  0.4999928285753846  0.3462023683892308  0.2819636964753847
  0.4777384686325821  0.3589944978486670  0.3183008666735642
  0.4554921854919214  0.3975194840268452  0.3183026298604721
  0.4554842123815385  0.3717867240123077  0.3546424643169231
  0.4777732108353134  0.5389588482699629  0.1729443458041227
  0.3887583798799288  0.5389588482699629  0.1729443458041227
  0.4555081609600002  0.4747071422492308  0.2092849286338462
  0.4332550217845442  0.4619142835284245  0.1729443458041227
  0.4109995447661540  0.5002914978723078  0.2819636964753847
  0.3887464055906980  0.4874986391515014  0.2456231136456612
  0.4110075178765367  0.5260242578868450  0.2456238620189336
  0.4555041597811519  0.4489796931453066  0.2456238620189336
  0.4777612365460825  0.4874986391515014  0.2456231136456612
  0.4332538010171971  0.4874992717086670  0.2456220988320259
  0.4109875704769231  0.4488312887538461  0.3546424643169231
  0.4332418267279666  0.4360390625902055  0.3183008666735642
  0.3887344313014672  0.4360384300330398  0.3183018814871996
  0.4109955435873059  0.4745640487683837  0.3183026298604721
  0.3887451848233512  0.5130836273317440  0.3183008666735642
  0.4777492622568520  0.4360384300330398  0.3183018814871996
  0.5000024014323078  0.4488312887538461  0.3546424643169231
  0.4332526203522364  0.5130829947745783  0.3183018814871996
  0.4555057595276925  0.5258758534953845  0.3546424643169231
  0.4777600157787357  0.5130836273317440  0.3183008666735642
  0.5667545203553132  0.3334095096684243  0.2456231136456612
  0.5445094178796137  0.3463507727806914  0.1729450941773952
  0.5667652738771973  0.4104547069671287  0.2456220988320259
  0.6112619157818129  0.3334101422255901  0.2456220988320259
  0.5890156326411522  0.3719351284037682  0.2456238620189336
  0.5667664946445441  0.3848697187868859  0.1729443458041227
  0.5890196338200002  0.3976625775076923  0.2092849286338462
  0.6112727094060826  0.4104540744099628  0.2456231136456612
  0.5890276069303831  0.4233953375222298  0.1729450941773952
  0.5445070164473059  0.3975194840268452  0.3183026298604721
  0.5222459041614671  0.3589938652915010  0.3183018814871996
  0.5444990433369233  0.3717867240123077  0.3546424643169231
  0.5890076595307694  0.3462023683892308  0.2819636964753847
  0.5667532995879666  0.3589944978486670  0.3183008666735642
  0.6112607351168519  0.3589938652915010  0.3183018814871996
  0.5667640932122363  0.4360384300330398  0.3183018814871996
  0.5445189907365366  0.4489796931453066  0.2456238620189336
  0.5445309650257676  0.5004399022637682  0.1729450941773952
  0.5667760675014675  0.4874986391515014  0.2456231136456612
  0.6112846836953133  0.4619142835284245  0.1729443458041227
  0.5667880417906982  0.5389588482699629  0.1729443458041227
  0.5000143757215387  0.5002914978723078  0.2819636964753847
  0.5445205904830770  0.5258758534953845  0.3546424643169231
  0.5890292066769235  0.5002914978723078  0.2819636964753847
  0.5667748467341205  0.5130836273317440  0.3183008666735642
  0.5890172323876925  0.4488312887538461  0.3546424643169231
  0.3887224570122368  0.3845782209145781  0.3909806493287382
  0.4332298524387357  0.3845788534717439  0.3909796345151026
  0.3887104827230057  0.3331180117961168  0.4636594171702765
  0.4332286717737747  0.4101625765376549  0.4636594171702765
  0.3887212362448897  0.4101632090948208  0.4636584023566411
  0.4332178781495050  0.3331186443532823  0.4636584023566411
  0.4554802112026904  0.3460592749083836  0.3909813977020105
  0.4777253136783902  0.3331180117961168  0.4636594171702765
  0.4777372879676215  0.3845782209145781  0.3909806493287382
  0.4999864259642288  0.3716436305314607  0.4636601655435490
  0.4777360672002743  0.4101632090948208  0.4636584023566411
  0.4999904271430773  0.3973710796353845  0.4273212321584617
  0.3887332105341205  0.4616234182132824  0.3909796345151026
  0.4777480414895051  0.4616234182132824  0.3909796345151026
  0.4109835692980752  0.4231038396499220  0.3909813977020105
  0.4332406460630057  0.4616227856561167  0.3909806493287382
  0.4554937852384617  0.4744156443769231  0.4273212321584617
  0.4554897840596137  0.4486881952729990  0.4636601655435490
  0.3887440041583902  0.5386673503976552  0.3909806493287382
  0.3887320298691595  0.4872071412791936  0.4636594171702765
  0.4109931421549983  0.5257327600145376  0.4636601655435490
  0.4332394252956592  0.4872077738363594  0.4636584023566411
  0.4332513995848893  0.5386679829548209  0.3909796345151026
  0.4777588351137748  0.5386673503976552  0.3909806493287382
  0.4555017583488442  0.5001484043914605  0.3909813977020105
  0.4777468608245443  0.4872071412791936  0.4636594171702765
  0.4109636218984617  0.3459108705169231  0.5000000000000000
  0.3887092619556590  0.3587029999763591  0.5363371701981796
  0.3887200555799287  0.4357469321607321  0.5363381850118150
  0.4332166974845442  0.3587023674191937  0.5363381850118150
  0.4554818109492308  0.4229554352584615  0.5000000000000000
  0.4999784528538463  0.3459108705169231  0.5000000000000000
  0.4777240929110432  0.3587029999763591  0.5363371701981796
  0.4777348865353133  0.4357469321607321  0.5363381850118150
  0.4554778097703832  0.3972279861545375  0.5363389333850876
  0.4554698366600003  0.3714952261399997  0.5726787678415385
  0.4332274510064281  0.4357475647178978  0.5363371701981796
  0.3887308091018128  0.5127921294594363  0.5363371701981796
  0.4109731947553845  0.4485397908815383  0.5726787678415385
  0.4999880257107696  0.4485397908815383  0.5726787678415385
  0.4332382446306980  0.5127914969022705  0.5363381850118150
  0.4777456400571973  0.5127921294594363  0.5363371701981796
  0.4554913838061540  0.5255843556230769  0.5726787678415385
  0.5890012569196136  0.3716436305314607  0.4636601655435490
  0.5444950421580752  0.3460592749083836  0.3909813977020105
  0.5222327091048893  0.3331186443532823  0.4636584023566411
  0.6112475400602740  0.3331186443532823  0.4636584023566411
  0.5667401446337749  0.3331180117961168  0.4636594171702765
  0.5667521189230058  0.3845782209145781  0.3909806493287382
  0.4999984002534597  0.4231038396499220  0.3909813977020105
  0.5222435027291593  0.4101625765376549  0.4636594171702765
  0.6112583336845446  0.4101625765376549  0.4636594171702765
  0.5890052580984620  0.3973710796353845  0.4273212321584617
  0.5445165893042289  0.5001484043914605  0.3909813977020105
  0.5222662305402742  0.5386679829548209  0.3909796345151026
  0.5445086161938465  0.4744156443769231  0.4273212321584617
  0.5000079731103829  0.5257327600145376  0.4636601655435490
  0.5222542562510436  0.4872077738363594  0.4636584023566411
  0.5667628724448893  0.4616234182132824  0.3909796345151026
  0.6112690872064284  0.4872077738363594  0.4636584023566411
  0.5667736660691597  0.5386673503976552  0.3909806493287382
  0.5889932838092307  0.3459108705169231  0.5000000000000000
  0.5444966419046156  0.4229554352584615  0.5000000000000000
  0.5222422819618129  0.4357475647178978  0.5363371701981796
  0.5222315284399285  0.3587023674191937  0.5363381850118150
  0.5444846676153846  0.3714952261399997  0.5726787678415385
  0.5444926407257675  0.3972279861545375  0.5363389333850876
  0.5667389238664280  0.3587029999763591  0.5363371701981796
  0.5667497174906977  0.4357469321607321  0.5363381850118150
  0.6112463593953137  0.3587023674191937  0.5363381850118150
  0.6112571129171972  0.4357475647178978  0.5363371701981796
  0.5000000000000000  0.5000000000000000  0.5000000000000000
  0.5222530755860826  0.5127914969022705  0.5363381850118150
  0.5667604710125821  0.5127921294594363  0.5363371701981796
  0.4999959988211522  0.4742725508960760  0.5363389333850876
  0.5445062147615387  0.5255843556230769  0.5726787678415385
  0.5890148309553848  0.5000000000000000  0.5000000000000000
  0.6112679065414673  0.5127914969022705  0.5363381850118150
  0.5890028566661539  0.4485397908815383  0.5726787678415385
  0.0771561528956586  0.3842873555994361  0.6090159380397180
  0.0771669465199285  0.4613312877838089  0.6090169528533533
  0.0771657257525817  0.4869162759640516  0.6816947058812564
  0.2551535141383905  0.1531530288176551  0.6090169528533533
  0.1883997954688444  0.1916786475529989  0.6090177012266259
  0.2329060102303827  0.2172630031760758  0.6816964690681643
  0.2551522933710438  0.1787380169978978  0.6816947058812564
  0.1439031535642293  0.2687232122945373  0.6090177012266259
  0.1661602303291596  0.3072421583007320  0.6090169528533533
  0.1661494367048893  0.2301982261163591  0.6090159380397180
  0.1216527948002742  0.3072427908578977  0.6090159380397180
  0.1661482560399287  0.2557819491822705  0.6816957206948917
  0.2106568722337748  0.2301975935591936  0.6090169528533533
  0.2551642676602741  0.2301982261163591  0.6090159380397180
  0.2329100114092310  0.2429904522799999  0.6453575356830770
  0.2329179845196136  0.2687232122945373  0.6090177012266259
  0.2106676257556587  0.3072427908578977  0.6090159380397180
  0.2551750612845442  0.3072421583007320  0.6090169528533533
  0.1884133695046154  0.3200350170215382  0.6453575356830770
  0.2106556514664283  0.2557825817394364  0.6816947058812564
  0.2551630869953133  0.2557819491822705  0.6816957206948917
  0.1884013952153845  0.2685748079030768  0.7180363035246153
  0.1884093683257676  0.2943075679176144  0.6816964690681643
  0.2551511127060826  0.2043217400638090  0.7543744885364303
  0.2551618662279670  0.2813669373625131  0.7543734737227950
  0.2106544708014672  0.2813663048053474  0.7543744885364303
  0.2329076099769228  0.2941591635261537  0.7907150713661539
  0.2329155830873061  0.3198919235406912  0.7543752369097029
  0.2551606855630055  0.3069506604284243  0.8270532563779687
  0.1216635884245441  0.3842867230422706  0.6090169528533533
  0.1661709838510434  0.3842873555994361  0.6090159380397180
  0.0994065116596139  0.3457677770360759  0.6090177012266259
  0.1439247007103829  0.4228123417776144  0.6090177012266259
  0.1439167276000003  0.3970795817630768  0.6453575356830770
  0.1216516141353132  0.3328265139238089  0.6816957206948917
  0.1661590095618123  0.3328271464809750  0.6816947058812564
  0.1439047533107692  0.3456193726446152  0.7180363035246153
  0.1439127264211520  0.3713521326591525  0.6816964690681643
  0.1661698031860826  0.4098710786653472  0.6816957206948917
  0.1216623676571971  0.4098717112225131  0.6816947058812564
  0.2106784193799284  0.3842867230422706  0.6090169528533533
  0.2329395316657675  0.4228123417776144  0.6090177012266259
  0.2551858148064282  0.3842873555994361  0.6090159380397180
  0.2329315585553846  0.3970795817630768  0.6453575356830770
  0.2329195842661539  0.3456193726446152  0.7180363035246153
  0.2106664450906980  0.3328265139238089  0.6816957206948917
  0.2551738405171973  0.3328271464809750  0.6816947058812564
  0.2329275573765368  0.3713521326591525  0.6816964690681643
  0.1884229423615384  0.4226639373861538  0.7180363035246153
  0.2551846341414670  0.4098710786653472  0.6816957206948917
  0.2106771986125817  0.4098717112225131  0.6816947058812564
  0.1216743419464280  0.4613319203409747  0.6090159380397180
  0.1661817774753133  0.4613312877838089  0.6090169528533533
  0.0994200856953848  0.4741241465046154  0.6453575356830770
  0.0994280588057673  0.4998569065191528  0.6090177012266259
  0.1216851355706979  0.5383758525253475  0.6090169528533533
  0.0994160845165365  0.4483966974006911  0.6816964690681643
  0.1216731612814671  0.4869156434068856  0.6816957206948917
  0.1661805567079664  0.4869162759640516  0.6816947058812564
  0.1439263004569233  0.4997085021276924  0.7180363035246153
  0.1439342735673058  0.5254412621422297  0.6816964690681643
  0.2551966084306976  0.4613312877838089  0.6090169528533533
  0.1884349166507695  0.4741241465046154  0.6453575356830770
  0.1884428897611520  0.4998569065191528  0.6090177012266259
  0.2552073619525820  0.5383764850825132  0.6090159380397180
  0.2106999665260825  0.5383758525253475  0.6090169528533533
  0.1884309154719212  0.4483966974006911  0.6816964690681643
  0.2106879922368518  0.4869156434068856  0.6816957206948917
  0.2551953876633508  0.4869162759640516  0.6816947058812564
  0.2329411314123076  0.4997085021276924  0.7180363035246153
  0.2329491045226905  0.5254412621422297  0.6816964690681643
  0.1661578288968517  0.3584108695468858  0.7543744885364303
  0.1216611869922364  0.4354554342884244  0.7543744885364303
  0.1661685824187357  0.4354560668455900  0.7543734737227950
  0.2106760179476209  0.4354554342884244  0.7543744885364303
  0.2551726598522365  0.3584108695468858  0.7543744885364303
  0.1884189411826905  0.3969364882822296  0.7543752369097029
  0.2551834133741206  0.4354560668455900  0.7543734737227950
  0.2106652243233514  0.3584115021040516  0.7543734737227950
  0.1884109680723077  0.3712037282676920  0.7907150713661539
  0.2551714390848895  0.3839958577271286  0.8270522415643333
  0.2106640436583904  0.3839952251699629  0.8270532563779687
  0.2329251559442291  0.4225208439053065  0.8270540047512412
  0.1439222992780752  0.4739810530237682  0.7543752369097029
  0.1661793760430056  0.5124999990299629  0.7543744885364303
  0.1216719405141202  0.5125006315871287  0.7543734737227950
  0.2329291571230771  0.4482482930092306  0.7907150713661539
  0.2329371302334597  0.4739810530237682  0.7543752369097029
  0.2551942069983901  0.5124999990299629  0.7543744885364303
  0.2106867714695049  0.5125006315871287  0.7543734737227950
  0.1884325152184616  0.5252928577507692  0.7907150713661539
  0.2551822327091596  0.4610397899115010  0.8270532563779687
  0.2106747971802740  0.4610404224686669  0.8270522415643333
  0.2106855908045441  0.5380843546530396  0.8270532563779687
  0.2551929862310432  0.5380849872102055  0.8270522415643333
  0.1884285140396135  0.4995654086468451  0.8270540047512412
  0.3441683450937746  0.1531530288176551  0.6090169528533533
  0.3219112683288445  0.1146340828114605  0.6090177012266259
  0.2996609095648896  0.1531536613748207  0.6090159380397180
  0.2774066533138465  0.1659458875384615  0.6453575356830770
  0.2774146264242289  0.1916786475529989  0.6090177012266259
  0.3441671243264282  0.1787380169978978  0.6816947058812564
  0.2774026521349982  0.1402184384345372  0.6816964690681643
  0.2996597288999288  0.1787373844407321  0.6816957206948917
  0.4109260992842290  0.1146340828114605  0.6090177012266259
  0.3886757405202741  0.1531536613748207  0.6090159380397180
  0.4331831760491594  0.1531530288176551  0.6090169528533533
  0.3664294573796137  0.1916786475529989  0.6090177012266259
  0.3664214842692315  0.1659458875384615  0.6453575356830770
  0.3886745598553134  0.1787373844407321  0.6816957206948917
  0.3664174830903828  0.1402184384345372  0.6816964690681643
  0.4331819552818127  0.1787380169978978  0.6816947058812564
  0.4109276990307694  0.1915302431615384  0.7180363035246153
  0.4109356721411522  0.2172630031760758  0.6816964690681643
  0.3441790986156588  0.2301982261163591  0.6090159380397180
  0.3219328154749981  0.2687232122945373  0.6090177012266259
  0.3441898922399287  0.3072421583007320  0.6090169528533533
  0.2996824567110435  0.3072427908578977  0.6090159380397180
  0.2996717031891593  0.2301975935591936  0.6090169528533533
  0.2774282004600006  0.3200350170215382  0.6453575356830770
  0.3219248423646158  0.2429904522799999  0.6453575356830770
  0.3441779179506979  0.2557819491822705  0.6816957206948917
  0.2996704824218128  0.2557825817394364  0.6816947058812564
  0.2774162261707695  0.2685748079030768  0.7180363035246153
  0.2774241992811521  0.2943075679176144  0.6816964690681643
  0.4109396733200005  0.2429904522799999  0.6453575356830770
  0.4331939295710434  0.2301982261163591  0.6090159380397180
  0.3886865341445438  0.2301975935591936  0.6090169528533533
  0.4109476464303829  0.2687232122945373  0.6090177012266259
  0.4332047231953133  0.3072421583007320  0.6090169528533533
  0.3886972876664280  0.3072427908578977  0.6090159380397180
  0.3664430314153850  0.3200350170215382  0.6453575356830770
  0.4331927489060826  0.2557819491822705  0.6816957206948917
  0.3886853133771974  0.2557825817394364  0.6816947058812564
  0.3664310571261543  0.2685748079030768  0.7180363035246153
  0.3664390302365367  0.2943075679176144  0.6816964690681643
  0.3219088668965367  0.1658027940576143  0.7543752369097029
  0.3441659436614671  0.2043217400638090  0.7543744885364303
  0.2996585081325823  0.2043223726209747  0.7543734737227950
  0.4331699809925820  0.1272778078794361  0.7543734737227950
  0.4109236978519213  0.1658027940576143  0.7543752369097029
  0.4331807746168519  0.2043217400638090  0.7543744885364303
  0.3664190828369233  0.2171145987846153  0.7907150713661539
  0.3886733390879669  0.2043223726209747  0.7543734737227950
  0.2774122249919212  0.2428473587991529  0.7543752369097029
  0.2996693017568518  0.2813663048053474  0.7543744885364303
  0.3441766971833513  0.2813669373625131  0.7543734737227950
  0.3219304140426906  0.3198919235406912  0.7543752369097029
  0.3219224409323078  0.2941591635261537  0.7907150713661539
  0.3441647228941206  0.2299067282440516  0.8270522415643333
  0.3219184397534597  0.2684317144222298  0.8270540047512412
  0.3441755165183903  0.3069506604284243  0.8270532563779687
  0.2996680809895048  0.3069512929855900  0.8270522415643333
  0.3664270559473060  0.2428473587991529  0.7543752369097029
  0.4331915281387361  0.2813669373625131  0.7543734737227950
  0.3886841327122363  0.2813663048053474  0.7543744885364303
  0.4109452449980752  0.3198919235406912  0.7543752369097029
  0.4109372718876926  0.2941591635261537  0.7907150713661539
  0.3886721584230061  0.2299060956868857  0.8270532563779687
  0.4109252975984616  0.2426989544076922  0.8633938392076923
  0.4331795538495050  0.2299067282440516  0.8270522415643333
  0.4109332707088445  0.2684317144222298  0.8270540047512412
  0.4331903474737749  0.3069506604284243  0.8270532563779687
  0.3886829119448899  0.3069512929855900  0.8270522415643333
  0.3664286556938463  0.3197435191492308  0.8633938392076923
  0.4999409302396137  0.1146340828114605  0.6090177012266259
  0.4776905714756590  0.1531536613748207  0.6090159380397180
  0.5221980070045443  0.1531530288176551  0.6090169528533533
  0.4554442883349982  0.1916786475529989  0.6090177012266259
  0.4554363152246158  0.1659458875384615  0.6453575356830770
  0.5221967862371973  0.1787380169978978  0.6816947058812564
  0.4554323140457677  0.1402184384345372  0.6816964690681643
  0.4554243409353848  0.1144856784199998  0.7180363035246153
  0.4776893908106983  0.1787373844407321  0.6816957206948917
  0.4999425299861540  0.1915302431615384  0.7180363035246153
  0.4999505030965364  0.2172630031760758  0.6816964690681643
  0.5667054024310434  0.1531536613748207  0.6090159380397180
  0.5889557611949985  0.1146340828114605  0.6090177012266259
  0.5444591192903829  0.1916786475529989  0.6090177012266259
  0.6112128379599286  0.1531530288176551  0.6090169528533533
  0.5444511461800005  0.1659458875384615  0.6453575356830770
  0.6112116171925821  0.1787380169978978  0.6816947058812564
  0.5444391718907696  0.1144856784199998  0.7180363035246153
  0.5444471450011520  0.1402184384345372  0.6816964690681643
  0.5667042217660826  0.1787373844407321  0.6816957206948917
  0.5889653340519212  0.2172630031760758  0.6816964690681643
  0.5889573609415388  0.1915302431615384  0.7180363035246153
  0.5222087605264278  0.2301982261163591  0.6090159380397180
  0.4777013650999287  0.2301975935591936  0.6090169528533533
  0.4999545042753850  0.2429904522799999  0.6453575356830770
  0.4999624773857674  0.2687232122945373  0.6090177012266259
  0.4554578623707699  0.3200350170215382  0.6453575356830770
  0.5222195541506980  0.3072421583007320  0.6090169528533533
  0.4777121186218127  0.3072427908578977  0.6090159380397180
  0.5222075798614670  0.2557819491822705  0.6816957206948917
  0.4777001443325818  0.2557825817394364  0.6816947058812564
  0.4554458880815385  0.2685748079030768  0.7180363035246153
  0.4554538611919213  0.2943075679176144  0.6816964690681643
  0.6112235914818126  0.2301982261163591  0.6090159380397180
  0.5889693352307698  0.2429904522799999  0.6453575356830770
  0.5667161960553135  0.2301975935591936  0.6090169528533533
  0.5889773083411521  0.2687232122945373  0.6090177012266259
  0.6112343851060827  0.3072421583007320  0.6090169528533533
  0.5667269495771975  0.3072427908578977  0.6090159380397180
  0.5444726933261542  0.3200350170215382  0.6453575356830770
  0.5667149752879665  0.2557825817394364  0.6816947058812564
  0.6112224108168518  0.2557819491822705  0.6816957206948917
  0.5444607190369233  0.2685748079030768  0.7180363035246153
  0.5444686921473061  0.2943075679176144  0.6816964690681643
  0.4776774165214673  0.1272771753222705  0.7543744885364303
  0.5221848119479668  0.1272778078794361  0.7543734737227950
  0.4999385288073059  0.1658027940576143  0.7543752369097029
  0.4776881700433513  0.2043223726209747  0.7543734737227950
  0.5221956055722365  0.2043217400638090  0.7543744885364303
  0.4554339137923080  0.2171145987846153  0.7907150713661539
  0.4554299126134599  0.1913871496806912  0.8270540047512412
  0.5666922474768517  0.1272771753222705  0.7543744885364303
  0.5889533597626907  0.1658027940576143  0.7543752369097029
  0.6112104365276209  0.2043217400638090  0.7543744885364303
  0.5444487447476923  0.2171145987846153  0.7907150713661539
  0.5667030009987361  0.2043223726209747  0.7543734737227950
  0.5444447435688443  0.1913871496806912  0.8270540047512412
  0.4554418869026904  0.2428473587991529  0.7543752369097029
  0.4776989636676210  0.2813663048053474  0.7543744885364303
  0.5222063590941205  0.2813669373625131  0.7543734737227950
  0.4999521028430772  0.2941591635261537  0.7907150713661539
  0.4999600759534596  0.3198919235406912  0.7543752369097029
  0.4999401285538463  0.2426989544076922  0.8633938392076923
  0.5221943848048900  0.2299067282440516  0.8270522415643333
  0.4776869893783901  0.2299060956868857  0.8270532563779687
  0.4999481016642291  0.2684317144222298  0.8270540047512412
  0.4776977429002741  0.3069512929855900  0.8270522415643333
  0.5222051784291593  0.3069506604284243  0.8270532563779687
  0.4554434866492312  0.3197435191492308  0.8633938392076923
  0.5889749069088444  0.3198919235406912  0.7543752369097029
  0.5444567178580751  0.2428473587991529  0.7543752369097029
  0.5667137946230058  0.2813663048053474  0.7543744885364303
  0.5889669337984615  0.2941591635261537  0.7907150713661539
  0.6112211900495053  0.2813669373625131  0.7543734737227950
  0.5889549595092310  0.2426989544076922  0.8633938392076923
  0.5667018203337748  0.2299060956868857  0.8270532563779687
  0.6112092157602744  0.2299067282440516  0.8270522415643333
  0.5889629326196135  0.2684317144222298  0.8270540047512412
  0.5444583176046155  0.3197435191492308  0.8633938392076923
  0.6112200093845441  0.3069506604284243  0.8270532563779687
  0.5667125738556589  0.3069512929855900  0.8270522415643333
  0.2774361735703828  0.3457677770360759  0.6090177012266259
  0.2996932503353134  0.3842867230422706  0.6090169528533533
  0.3442006457618123  0.3842873555994361  0.6090159380397180
  0.3219463895107699  0.3970795817630768  0.6453575356830770
  0.3441886714725820  0.3328271464809750  0.6816947058812564
  0.2996812760460827  0.3328265139238089  0.6816957206948917
  0.3219344152215387  0.3456193726446152  0.7180363035246153
  0.3219423883319211  0.3713521326591525  0.6816964690681643
  0.2774377733169232  0.4226639373861538  0.7180363035246153
  0.3441994650968517  0.4098710786653472  0.6816957206948917
  0.2996920295679665  0.4098717112225131  0.6816947058812564
  0.3664510045257674  0.3457677770360759  0.6090177012266259
  0.3887080812906979  0.3842867230422706  0.6090169528533533
  0.4109612204661542  0.3970795817630768  0.6453575356830770
  0.4109691935765368  0.4228123417776144  0.6090177012266259
  0.4332154767171973  0.3842873555994361  0.6090159380397180
  0.4332035024279668  0.3328271464809750  0.6816947058812564
  0.3886961070014673  0.3328265139238089  0.6816957206948917
  0.4109492461769235  0.3456193726446152  0.7180363035246153
  0.4109572192873059  0.3713521326591525  0.6816964690681643
  0.4332142960522365  0.4098710786653472  0.6816957206948917
  0.3664526042723079  0.4226639373861538  0.7180363035246153
  0.3887068605233512  0.4098717112225131  0.6816947058812564
  0.3219543626211520  0.4228123417776144  0.6090177012266259
  0.2997040038571971  0.4613319203409747  0.6090159380397180
  0.3442114393860824  0.4613312877838089  0.6090169528533533
  0.2774497476061541  0.4741241465046154  0.6453575356830770
  0.3442221929079665  0.5383764850825132  0.6090159380397180
  0.2774577207165367  0.4998569065191528  0.6090177012266259
  0.2997147974814672  0.5383758525253475  0.6090169528533533
  0.2997028231922366  0.4869156434068856  0.6816957206948917
  0.2774457464273060  0.4483966974006911  0.6816964690681643
  0.3442102186187356  0.4869162759640516  0.6816947058812564
  0.3219559623676921  0.4997085021276924  0.7180363035246153
  0.3219639354780752  0.5254412621422297  0.6816964690681643
  0.4332262703414670  0.4613312877838089  0.6090169528533533
  0.4332370238633513  0.5383764850825132  0.6090159380397180
  0.3887296284368518  0.5383758525253475  0.6090169528533533
  0.3664725516719213  0.4998569065191528  0.6090177012266259
  0.3887188348125820  0.4613319203409747  0.6090159380397180
  0.3664645785615391  0.4741241465046154  0.6453575356830770
  0.3664605773826903  0.4483966974006911  0.6816964690681643
  0.4332250495741203  0.4869162759640516  0.6816947058812564
  0.4109707933230771  0.4997085021276924  0.7180363035246153
  0.4109787664334598  0.5254412621422297  0.6816964690681643
  0.3441874908076212  0.3584108695468858  0.7543744885364303
  0.2996800552787362  0.3584115021040516  0.7543734737227950
  0.2996908489030057  0.4354554342884244  0.7543744885364303
  0.2774337721380751  0.3969364882822296  0.7543752369097029
  0.2774257990276922  0.3712037282676920  0.7907150713661539
  0.2774217978488446  0.3454762791637682  0.8270540047512412
  0.2996788746137747  0.3839952251699629  0.8270532563779687
  0.3441862700402743  0.3839958577271286  0.8270522415643333
  0.3219320137892310  0.3967880838907691  0.8633938392076923
  0.3219399868996138  0.4225208439053065  0.8270540047512412
  0.4332023217630055  0.3584108695468858  0.7543744885364303
  0.3886948862341207  0.3584115021040516  0.7543734737227950
  0.3664406299830772  0.3712037282676920  0.7907150713661539
  0.3664486030934596  0.3969364882822296  0.7543752369097029
  0.3887056798583904  0.4354554342884244  0.7543744885364303
  0.4332130752848897  0.4354560668455900  0.7543734737227950
  0.3664366288042289  0.3454762791637682  0.8270540047512412
  0.4332011009956591  0.3839958577271286  0.8270522415643333
  0.3886937055691596  0.3839952251699629  0.8270532563779687
  0.4109468447446157  0.3967880838907691  0.8633938392076923
  0.4109548178549982  0.4225208439053065  0.8270540047512412
  0.3219439880784617  0.4482482930092306  0.7907150713661539
  0.3219519611888443  0.4739810530237682  0.7543752369097029
  0.3442090379537747  0.5124999990299629  0.7543744885364303
  0.2997016024248896  0.5125006315871287  0.7543734737227950
  0.2774473461738464  0.5252928577507692  0.7907150713661539
  0.2996896281356587  0.4610404224686669  0.8270522415643333
  0.3441970636645444  0.4610397899115010  0.8270532563779687
  0.2774353718846154  0.4738326486323075  0.8633938392076923
  0.2774433449949983  0.4995654086468451  0.8270540047512412
  0.3442078171864277  0.5380849872102055  0.8270522415643333
  0.2997004217599289  0.5380843546530396  0.8270532563779687
  0.4109588190338462  0.4482482930092306  0.7907150713661539
  0.4109667921442289  0.4739810530237682  0.7543752369097029
  0.4332238689091594  0.5124999990299629  0.7543744885364303
  0.3887164333802741  0.5125006315871287  0.7543734737227950
  0.3664621771292307  0.5252928577507692  0.7907150713661539
  0.3664502028400000  0.4738326486323075  0.8633938392076923
  0.4332118946199288  0.4610397899115010  0.8270532563779687
  0.3887044590910435  0.4610404224686669  0.8270522415643333
  0.3664581759503828  0.4995654086468451  0.8270540047512412
  0.3887152527153137  0.5380843546530396  0.8270532563779687
  0.4332226481418125  0.5380849872102055  0.8270522415643333
  0.5222303076725819  0.3842873555994361  0.6090159380397180
  0.4777229122460824  0.3842867230422706  0.6090169528533533
  0.4554658354811523  0.3457677770360759  0.6090177012266259
  0.4999840245319215  0.4228123417776144  0.6090177012266259
  0.4999760514215391  0.3970795817630768  0.6453575356830770
  0.4999640771323077  0.3456193726446152  0.7180363035246153
  0.5222183333833510  0.3328271464809750  0.6816947058812564
  0.4777109379568519  0.3328265139238089  0.6816957206948917
  0.4999720502426905  0.3713521326591525  0.6816964690681643
  0.5222291270076211  0.4098710786653472  0.6816957206948917
  0.4777216914787359  0.4098717112225131  0.6816947058812564
  0.4554674352276926  0.4226639373861538  0.7180363035246153
  0.5889908823769234  0.3970795817630768  0.6453575356830770
  0.5889988554873058  0.4228123417776144  0.6090177012266259
  0.5444806664365366  0.3457677770360759  0.6090177012266259
  0.6112451386279663  0.3842873555994361  0.6090159380397180
  0.5667377432014672  0.3842867230422706  0.6090169528533533
  0.5667257689122362  0.3328265139238089  0.6816957206948917
  0.5889789080876925  0.3456193726446152  0.7180363035246153
  0.5889868811980749  0.3713521326591525  0.6816964690681643
  0.6112439579630055  0.4098710786653472  0.6816957206948917
  0.5667365224341202  0.4098717112225131  0.6816947058812564
  0.5444822661830774  0.4226639373861538  0.7180363035246153
  0.4554794095169235  0.4741241465046154  0.6453575356830770
  0.5222411012968516  0.4613312877838089  0.6090169528533533
  0.4777336657679666  0.4613319203409747  0.6090159380397180
  0.4554873826273059  0.4998569065191528  0.6090177012266259
  0.4777444593922363  0.5383758525253475  0.6090169528533533
  0.5222518548187360  0.5383764850825132  0.6090159380397180
  0.5222398805295051  0.4869162759640516  0.6816947058812564
  0.4777324851030060  0.4869156434068856  0.6816957206948917
  0.4554754083380750  0.4483966974006911  0.6816964690681643
  0.4999856242784618  0.4997085021276924  0.7180363035246153
  0.4999935973888446  0.5254412621422297  0.6816964690681643
  0.5667484967233511  0.4613319203409747  0.6090159380397180
  0.6112559322522364  0.4613312877838089  0.6090169528533533
  0.5444942404723079  0.4741241465046154  0.6453575356830770
  0.5445022135826905  0.4998569065191528  0.6090177012266259
  0.5667592903476211  0.5383758525253475  0.6090169528533533
  0.6112666857741206  0.5383764850825132  0.6090159380397180
  0.5667473160583903  0.4869156434068856  0.6816957206948917
  0.5444902392934597  0.4483966974006911  0.6816964690681643
  0.6112547114848894  0.4869162759640516  0.6816947058812564
  0.5890004552338461  0.4997085021276924  0.7180363035246153
  0.5890084283442290  0.5254412621422297  0.6816964690681643
  0.4777097171895054  0.3584115021040516  0.7543734737227950
  0.5222171527183902  0.3584108695468858  0.7543744885364303
  0.4554554609384617  0.3712037282676920  0.7907150713661539
  0.5222279062402746  0.4354560668455900  0.7543734737227950
  0.4554634340488445  0.3969364882822296  0.7543752369097029
  0.4777205108137751  0.4354554342884244  0.7543744885364303
  0.4554514597596136  0.3454762791637682  0.8270540047512412
  0.4777085365245442  0.3839952251699629  0.8270532563779687
  0.4999616757000004  0.3967880838907691  0.8633938392076923
  0.4999696488103828  0.4225208439053065  0.8270540047512412
  0.5667353417691594  0.4354554342884244  0.7543744885364303
  0.6112319836737754  0.3584108695468858  0.7543744885364303
  0.5444782650042292  0.3969364882822296  0.7543752369097029
  0.5667245481448902  0.3584115021040516  0.7543734737227950
  0.6112427371956594  0.4354560668455900  0.7543734737227950
  0.5444702918938469  0.3712037282676920  0.7907150713661539
  0.5444662907149989  0.3454762791637682  0.8270540047512412
  0.5667233674799290  0.3839952251699629  0.8270532563779687
  0.6112307629064285  0.3839958577271286  0.8270522415643333
  0.5889765066553847  0.3967880838907691  0.8633938392076923
  0.5889844797657676  0.4225208439053065  0.8270540047512412
  0.4999816230996137  0.4739810530237682  0.7543752369097029
  0.4999736499892309  0.4482482930092306  0.7907150713661539
  0.5222386998645443  0.5124999990299629  0.7543744885364303
  0.4554770080846158  0.5252928577507692  0.7907150713661539
  0.4777312643356589  0.5125006315871287  0.7543734737227950
  0.4554650337953848  0.4738326486323075  0.8633938392076923
  0.5222267255753135  0.4610397899115010  0.8270532563779687
  0.4777192900464282  0.4610404224686669  0.8270522415643333
  0.4554730069057673  0.4995654086468451  0.8270540047512412
  0.4777300836706979  0.5380843546530396  0.8270532563779687
  0.5222374790971974  0.5380849872102055  0.8270522415643333
  0.5889964540549985  0.4739810530237682  0.7543752369097029
  0.5889884809446156  0.4482482930092306  0.7907150713661539
  0.6112535308199286  0.5124999990299629  0.7543744885364303
  0.5444918390400001  0.5252928577507692  0.7907150713661539
  0.5667460952910434  0.5125006315871287  0.7543734737227950
  0.5667341210018130  0.4610404224686669  0.8270522415643333
  0.6112415565306978  0.4610397899115010  0.8270532563779687
  0.5444798647507696  0.4738326486323075  0.8633938392076923
  0.5667449146260827  0.5380843546530396  0.8270532563779687
  0.5444878378611521  0.4995654086468451  0.8270540047512412
  0.6112523100525820  0.5380849872102055  0.8270522415643333
  0.3441742957510434  0.3325356486086669  0.8997310094058719
  0.3219280126103829  0.3710606347868450  0.8997327725927796
  0.3441850893753135  0.4095795807930397  0.8997320242195073
  0.2996776538464278  0.4095802133502054  0.8997310094058719
  0.3886817312799286  0.3325350160515014  0.8997320242195073
  0.4331891267064281  0.3325356486086669  0.8997310094058719
  0.3886924848018128  0.4095802133502054  0.8997310094058719
  0.4109428435657674  0.3710606347868450  0.8997327725927796
  0.4331999203306980  0.4095795807930397  0.8997320242195073
  0.2774313707057673  0.4481051995283834  0.8997327725927796
  0.3441958428971970  0.4866247780917440  0.8997310094058719
  0.3219495597565366  0.5251497642699220  0.8997327725927796
  0.2996884474706979  0.4866241455345781  0.8997320242195073
  0.3887032784260827  0.4866241455345781  0.8997320242195073
  0.3664462016611521  0.4481051995283834  0.8997327725927796
  0.4332106738525820  0.4866247780917440  0.8997310094058719
  0.4109643907119213  0.5251497642699220  0.8997327725927796
  0.4109564176015387  0.4994170042553847  0.9360726070492309
  0.4554394854703827  0.2940160700453067  0.8997327725927796
  0.5444543164257675  0.2940160700453067  0.8997327725927796
  0.5222039576618128  0.3325356486086669  0.8997310094058719
  0.5222147512860825  0.4095795807930397  0.8997320242195073
  0.4999576745211519  0.3710606347868450  0.8997327725927796
  0.4776965622353133  0.3325350160515014  0.8997320242195073
  0.4777073157571977  0.4095802133502054  0.8997310094058719
  0.4554530595061539  0.4223724395138463  0.9360726070492309
  0.5667113931906981  0.3325350160515014  0.8997320242195073
  0.6112187886171971  0.3325356486086669  0.8997310094058719
  0.5667221467125820  0.4095802133502054  0.8997310094058719
  0.6112295822414673  0.4095795807930397  0.8997320242195073
  0.5889725054765371  0.3710606347868450  0.8997327725927796
  0.5444678904615387  0.4223724395138463  0.9360726070492309
  0.4554610326165368  0.4481051995283834  0.8997327725927796
  0.4777181093814669  0.4866241455345781  0.8997320242195073
  0.4999792216673060  0.5251497642699220  0.8997327725927796
  0.5222255048079665  0.4866247780917440  0.8997310094058719
  0.4999712485569236  0.4994170042553847  0.9360726070492309
  0.5444758635719216  0.4481051995283834  0.8997327725927796
  0.5667329403368517  0.4866241455345781  0.8997320242195073
  0.6112403357633517  0.4866247780917440  0.8997310094058719
  0.5889940526226908  0.5251497642699220  0.8997327725927796
  0.6334907273996137  0.1408014341791528  0.2456238620189336
  0.7002432253018124  0.1278608036240513  0.3183008666735642
  0.6557358298753129  0.1278601710668856  0.3183018814871996
  0.6779889690507691  0.1406530297876921  0.3546424643169231
  0.6557346091079663  0.1534451592471284  0.3909796345151026
  0.7002420446368516  0.1534445266899628  0.3909806493287382
  0.6779849678719210  0.1149255806837680  0.3909813977020105
  0.7447494400633511  0.1534451592471284  0.3909796345151026
  0.6779769947615391  0.0891928206692307  0.4273212321584617
  0.7002300703476215  0.1019843175715013  0.4636594171702765
  0.6334683785676926  0.1147771762923078  0.5000000000000000
  0.6334763516780750  0.1405099363068451  0.4636601655435490
  0.7224911826334598  0.1405099363068451  0.4636601655435490
  0.7224832095230773  0.1147771762923078  0.5000000000000000
  0.6334643773888441  0.0890497271883836  0.5363389333850876
  0.6557214541537747  0.1275686731945782  0.5363381850118150
  0.7002288495802742  0.1275693057517438  0.5363371701981796
  0.6779745933292308  0.1403615319153844  0.5726787678415385
  0.6557202333864282  0.1531536613748207  0.6090159380397180
  0.6779705921503828  0.1146340828114605  0.6090177012266259
  0.7002276689153134  0.1531530288176551  0.6090169528533533
  0.7447362851091595  0.1275686731945782  0.5363381850118150
  0.7447350643418125  0.1531536613748207  0.6090159380397180
  0.7224768069119211  0.1402184384345372  0.6816964690681643
  0.6334619759565367  0.1402184384345372  0.6816964690681643
  0.6557597784537748  0.2307805893038090  0.1729443458041227
  0.6557478041645443  0.1793203801853473  0.2456231136456612
  0.6780089164503829  0.2178459989206912  0.2456238620189336
  0.6780129176292309  0.2435734480246153  0.2092849286338462
  0.7002551995910433  0.1793210127425130  0.2456220988320259
  0.6335162757246158  0.3206180127661536  0.2092849286338462
  0.6557693513106979  0.3334095096684243  0.2456231136456612
  0.6557585576864287  0.2563655774840516  0.2456220988320259
  0.6335122745457669  0.2948905636622298  0.2456238620189336
  0.6780208907396134  0.2693062080391527  0.1729450941773952
  0.7002659932153135  0.2563649449268857  0.2456231136456612
  0.7002767467371976  0.3334101422255901  0.2456220988320259
  0.7002779675045440  0.3078251540453474  0.1729443458041227
  0.7225271055011521  0.2948905636622298  0.2456238620189336
  0.7225311066800006  0.3206180127661536  0.2092849286338462
  0.7447733886418125  0.2563655774840516  0.2456220988320259
  0.7447841822660827  0.3334095096684243  0.2456231136456612
  0.6780009433400001  0.1921132389061538  0.2819636964753847
  0.6557465833971973  0.2049053683655901  0.3183008666735642
  0.6335003002565364  0.2434303545437681  0.3183026298604721
  0.6779969421611519  0.1663857898022297  0.3183026298604721
  0.6334923271461540  0.2176975945292307  0.3546424643169231
  0.7447614143525816  0.2049053683655901  0.3183008666735642
  0.7002540189260825  0.2049047358084242  0.3183018814871996
  0.7225151312119211  0.2434303545437681  0.3183026298604721
  0.7225071581015383  0.2176975945292307  0.3546424643169231
  0.6335043014353854  0.2691578036476924  0.2819636964753847
  0.6557573770214670  0.2819493005499626  0.3183018814871996
  0.6780184893073056  0.3204749192853066  0.3183026298604721
  0.6780105161969228  0.2947421592707691  0.3546424643169231
  0.7225191323907697  0.2691578036476924  0.2819636964753847
  0.7447722079768517  0.2819493005499626  0.3183018814871996
  0.7002647724479660  0.2819499331071285  0.3183008666735642
  0.7670253471523075  0.2947421592707691  0.3546424643169231
  0.7892808241706978  0.2563649449268857  0.2456231136456612
  0.7892915776925822  0.3334101422255901  0.2456220988320259
  0.8115419364565368  0.2948905636622298  0.2456238620189336
  0.8337990132214670  0.3334095096684243  0.2456231136456612
  0.7892688498814673  0.2049047358084242  0.3183018814871996
  0.8115299621673059  0.2434303545437681  0.3183026298604721
  0.8115219890569231  0.2176975945292307  0.3546424643169231
  0.8115339633461545  0.2691578036476924  0.2819636964753847
  0.7892796034033508  0.2819499331071285  0.3183008666735642
  0.7670333202626903  0.3204749192853066  0.3183026298604721
  0.8337870389322365  0.2819493005499626  0.3183018814871996
  0.8560481512180752  0.3204749192853066  0.3183026298604721
  0.8560401781076923  0.2947421592707691  0.3546424643169231
  0.6334803528569231  0.1662373854107690  0.4273212321584617
  0.6557454027322365  0.2304890914315013  0.3909806493287382
  0.7002527981587355  0.2304897239886670  0.3909796345151026
  0.6779985419076923  0.2432819501523076  0.4273212321584617
  0.7224951838123083  0.1662373854107690  0.4273212321584617
  0.7225031569226903  0.1919701454253066  0.3909813977020105
  0.7447602336876208  0.2304890914315013  0.3909806493287382
  0.7670133728630770  0.2432819501523076  0.4273212321584617
  0.6557334284430056  0.1790288823130396  0.4636594171702765
  0.6779945407288442  0.2175545010483835  0.4636601655435490
  0.6779865676184613  0.1918217410338461  0.5000000000000000
  0.6557322076756587  0.2046138704932824  0.5363371701981796
  0.6334859245349982  0.2431388566714604  0.5363389333850876
  0.6779825664396137  0.1660942919299222  0.5363389333850876
  0.7002408238695047  0.1790295148702055  0.4636584023566411
  0.7670093716842290  0.2175545010483835  0.4636601655435490
  0.7447482593983904  0.1790288823130396  0.4636594171702765
  0.7670013985738461  0.1918217410338461  0.5000000000000000
  0.7002396432045439  0.2046132379361167  0.5363381850118150
  0.7447470386310434  0.2046138704932824  0.5363371701981796
  0.7669973973949981  0.1660942919299222  0.5363389333850876
  0.7225007554903825  0.2431388566714604  0.5363389333850876
  0.6780065150180747  0.2690147101668450  0.3909813977020105
  0.6557441819648896  0.2560740796117439  0.4636584023566411
  0.6557561562541200  0.3075342887302054  0.3909796345151026
  0.6335019000030767  0.3203265148938462  0.4273212321584617
  0.6335098731134592  0.3460592749083836  0.3909813977020105
  0.6557549755891593  0.3331180117961168  0.4636594171702765
  0.7002516174937748  0.2560734470545782  0.4636594171702765
  0.7447709872095049  0.3075342887302054  0.3909796345151026
  0.7002635917830057  0.3075336561730397  0.3909806493287382
  0.7225167309584615  0.3203265148938462  0.4273212321584617
  0.7447698065445441  0.3331180117961168  0.4636594171702765
  0.7002623710156584  0.3331186443532823  0.4636584023566411
  0.7225247040688439  0.3460592749083836  0.3909813977020105
  0.6334899257138462  0.2688663057753845  0.5000000000000000
  0.6557430012999288  0.2816578026776551  0.5363381850118150
  0.6334978988242287  0.2945990657899221  0.4636601655435490
  0.6780041135857674  0.3201834214129989  0.5363389333850876
  0.6780081147646159  0.3459108705169231  0.5000000000000000
  0.7225127297796134  0.2945990657899221  0.4636601655435490
  0.7225047566692310  0.2688663057753845  0.5000000000000000
  0.7002503967264279  0.2816584352348210  0.5363371701981796
  0.7447578322553131  0.2816578026776551  0.5363381850118150
  0.7670189445411517  0.3201834214129989  0.5363389333850876
  0.8115179878780751  0.1919701454253066  0.3909813977020105
  0.7892676291141204  0.2304897239886670  0.3909796345151026
  0.8337750646430061  0.2304890914315013  0.3909806493287382
  0.8560282038184618  0.2432819501523076  0.4273212321584617
  0.7892556548248890  0.1790295148702055  0.4636584023566411
  0.7892544741599287  0.2046132379361167  0.5363381850118150
  0.8115155864457673  0.2431388566714604  0.5363389333850876
  0.8337618695864277  0.2046138704932824  0.5363371701981796
  0.8337738438756587  0.2560740796117439  0.4636584023566411
  0.7892664484491596  0.2560734470545782  0.4636594171702765
  0.8560242026396138  0.2175545010483835  0.4636601655435490
  0.8782812794045444  0.2560734470545782  0.4636594171702765
  0.7670213459734595  0.2690147101668450  0.3909813977020105
  0.8337858181648896  0.3075342887302054  0.3909796345151026
  0.7892784227383901  0.3075336561730397  0.3909806493287382
  0.8115315619138462  0.3203265148938462  0.4273212321584617
  0.8115395350242287  0.3460592749083836  0.3909813977020105
  0.8782932536937749  0.3075336561730397  0.3909806493287382
  0.8560361769288443  0.2690147101668450  0.3909813977020105
  0.9005463928692310  0.3203265148938462  0.4273212321584617
  0.9005543659796135  0.3460592749083836  0.3909813977020105
  0.7892772019710431  0.3331186443532823  0.4636584023566411
  0.8115275607349982  0.2945990657899221  0.4636601655435490
  0.8337846374999288  0.3331180117961168  0.4636594171702765
  0.8115195876246154  0.2688663057753845  0.5000000000000000
  0.7670229457200006  0.3459108705169231  0.5000000000000000
  0.8337726632106979  0.2816578026776551  0.5363381850118150
  0.7892652276818126  0.2816584352348210  0.5363371701981796
  0.9005423916903830  0.2945990657899221  0.4636601655435490
  0.8782920329264279  0.3331186443532823  0.4636584023566411
  0.8560377766753846  0.3459108705169231  0.5000000000000000
  0.8782800586371974  0.2816584352348210  0.5363371701981796
  0.8560337754965369  0.3201834214129989  0.5363389333850876
  0.6335242488349982  0.3463507727806914  0.1729450941773952
  0.6557813255999289  0.3848697187868859  0.1729443458041227
  0.6557801048325821  0.4104547069671287  0.2456220988320259
  0.6780304635965367  0.3719351284037682  0.2456238620189336
  0.6780344647753849  0.3976625775076923  0.2092849286338462
  0.6780424378857677  0.4233953375222298  0.1729450941773952
  0.7225390797903828  0.3463507727806914  0.1729450941773952
  0.7670492957307694  0.3976625775076923  0.2092849286338462
  0.7447961565553134  0.3848697187868859  0.1729443458041227
  0.7447949357879668  0.4104547069671287  0.2456220988320259
  0.7002875403614673  0.4104540744099628  0.2456231136456612
  0.7670452945519213  0.3719351284037682  0.2456238620189336
  0.6780224904861542  0.3462023683892308  0.2819636964753847
  0.6557681305433511  0.3589944978486670  0.3183008666735642
  0.7002755660722362  0.3589938652915010  0.3183018814871996
  0.6557789241676211  0.4360384300330398  0.3183018814871996
  0.6335218474026905  0.3975194840268452  0.3183026298604721
  0.6335138742923072  0.3717867240123077  0.3546424643169231
  0.7225406795369234  0.4232469331307693  0.2819636964753847
  0.7670373214415389  0.3462023683892308  0.2819636964753847
  0.7447829614987357  0.3589944978486670  0.3183008666735642
  0.7225366783580752  0.3975194840268452  0.3183026298604721
  0.7225287052476920  0.3717867240123077  0.3546424643169231
  0.6335338216919214  0.4489796931453066  0.2456238620189336
  0.6335457959811521  0.5004399022637682  0.1729450941773952
  0.6557908984568518  0.4874986391515014  0.2456231136456612
  0.6780520107426906  0.5260242578868450  0.2456238620189336
  0.6558028727460827  0.5389588482699629  0.1729443458041227
  0.7002995146506981  0.4619142835284245  0.1729443458041227
  0.7225486526473059  0.4489796931453066  0.2456238620189336
  0.7225526538261541  0.4747071422492308  0.2092849286338462
  0.7448057294122366  0.4874986391515014  0.2456231136456612
  0.7002982938833515  0.4874992717086670  0.2456220988320259
  0.7448177037014673  0.5389588482699629  0.1729443458041227
  0.7225606269365367  0.5004399022637682  0.1729450941773952
  0.6780440376323078  0.5002914978723078  0.2819636964753847
  0.6557896776895050  0.5130836273317440  0.3183008666735642
  0.6780400364534599  0.4745640487683837  0.3183026298604721
  0.6780320633430771  0.4488312887538461  0.3546424643169231
  0.7002863195941204  0.4360390625902055  0.3183008666735642
  0.7447937551230058  0.4360384300330398  0.3183018814871996
  0.7670468942984616  0.4488312887538461  0.3546424643169231
  0.7448045086448896  0.5130836273317440  0.3183008666735642
  0.7002971132183903  0.5130829947745783  0.3183018814871996
  0.7670572688411522  0.4233953375222298  0.1729450941773952
  0.8338097667433516  0.4104547069671287  0.2456220988320259
  0.7893023713168519  0.4104540744099628  0.2456231136456612
  0.8560601255073060  0.3719351284037682  0.2456238620189336
  0.8115435362030767  0.3717867240123077  0.3546424643169231
  0.8337977924541204  0.3589944978486670  0.3183008666735642
  0.7892903970276209  0.3589938652915010  0.3183018814871996
  0.8115515093134598  0.3975194840268452  0.3183026298604721
  0.8115555104923079  0.4232469331307693  0.2819636964753847
  0.7893011505495049  0.4360390625902055  0.3183008666735642
  0.8338085860783901  0.4360384300330398  0.3183018814871996
  0.8783052279830057  0.3589938652915010  0.3183018814871996
  0.8560521523969237  0.3462023683892308  0.2819636964753847
  0.9005583671584615  0.3717867240123077  0.3546424643169231
  0.9005663402688444  0.3975194840268452  0.3183026298604721
  0.8560617252538464  0.4488312887538461  0.3546424643169231
  0.8783159815048898  0.4360390625902055  0.3183008666735642
  0.7893131248387361  0.4874992717086670  0.2456220988320259
  0.7670668416980752  0.5260242578868450  0.2456238620189336
  0.7893143456060826  0.4619142835284245  0.1729443458041227
  0.8115674847815386  0.4747071422492308  0.2092849286338462
  0.8115754578919212  0.5004399022637682  0.1729450941773952
  0.8338205603676211  0.4874986391515014  0.2456231136456612
  0.8560816726534597  0.5260242578868450  0.2456238620189336
  0.8783279557941206  0.4874992717086670  0.2456220988320259
  0.7670588685876926  0.5002914978723078  0.2819636964753847
  0.8338193396002742  0.5130836273317440  0.3183008666735642
  0.7670548674088447  0.4745640487683837  0.3183026298604721
  0.8115650833492308  0.5258758534953845  0.3546424643169231
  0.8560736995430771  0.5002914978723078  0.2819636964753847
  0.8560696983642293  0.4745640487683837  0.3183026298604721
  0.8783267751291595  0.5130829947745783  0.3183018814871996
  0.9005799143046156  0.5258758534953845  0.3546424643169231
  0.6780280621642291  0.4231038396499220  0.3909813977020105
  0.6557669498783901  0.3845782209145781  0.3909806493287382
  0.6780200890538459  0.3973710796353845  0.4273212321584617
  0.7670428931196134  0.4231038396499220  0.3909813977020105
  0.7002743453048897  0.3845788534717439  0.3909796345151026
  0.7447817808337750  0.3845782209145781  0.3909806493287382
  0.7670349200092307  0.3973710796353845  0.4273212321584617
  0.7447805600664282  0.4101632090948208  0.4636584023566411
  0.7002731646399289  0.4101625765376549  0.4636594171702765
  0.6780160878749979  0.3716436305314607  0.4636601655435490
  0.6335114728599999  0.4229554352584615  0.5000000000000000
  0.7002719438725820  0.4357475647178978  0.5363371701981796
  0.7002611903506976  0.3587023674191937  0.5363381850118150
  0.6557645484460825  0.4357469321607321  0.5363381850118150
  0.6335074716811518  0.3972279861545375  0.5363389333850876
  0.6557537548218128  0.3587029999763591  0.5363371701981796
  0.7670309188303827  0.3716436305314607  0.4636601655435490
  0.7225263038153846  0.4229554352584615  0.5000000000000000
  0.7225223026365366  0.3972279861545375  0.5363389333850876
  0.7447685857771971  0.3587029999763591  0.5363371701981796
  0.7447793794014668  0.4357469321607321  0.5363381850118150
  0.6557777034002742  0.4616234182132824  0.3909796345151026
  0.6335314202596135  0.5001484043914605  0.3909813977020105
  0.6557884970245444  0.5386673503976552  0.3909806493287382
  0.7002851389291597  0.4616227856561167  0.3909806493287382
  0.7225462512149983  0.5001484043914605  0.3909813977020105
  0.7448033279799289  0.5386673503976552  0.3909806493287382
  0.6335194459703828  0.4486881952729990  0.4636601655435490
  0.6780296619107693  0.5000000000000000  0.5000000000000000
  0.7447913536906979  0.4872071412791936  0.4636594171702765
  0.7670404916873060  0.4742725508960760  0.5363389333850876
  0.7225342769257675  0.4486881952729990  0.4636601655435490
  0.7002839181618129  0.4872077738363594  0.4636584023566411
  0.7002827374968517  0.5127914969022705  0.5363381850118150
  0.8337966117891593  0.3845782209145781  0.3909806493287382
  0.7892891762602743  0.3845788534717439  0.3909796345151026
  0.8115491078811521  0.4486881952729990  0.4636601655435490
  0.7892879955953137  0.4101625765376549  0.4636594171702765
  0.8337953910218128  0.4101632090948208  0.4636584023566411
  0.8560577240749981  0.4231038396499220  0.3909813977020105
  0.8783040072156588  0.3845788534717439  0.3909796345151026
  0.8560497509646154  0.3973710796353845  0.4273212321584617
  0.9005639388365366  0.4486881952729990  0.4636601655435490
  0.8783028265506980  0.4101625765376549  0.4636594171702765
  0.7892760213060823  0.3587023674191937  0.5363381850118150
  0.8337834167325818  0.3587029999763591  0.5363371701981796
  0.8115371335919214  0.3972279861545375  0.5363389333850876
  0.8115411347707695  0.4229554352584615  0.5000000000000000
  0.8337942103568515  0.4357469321607321  0.5363381850118150
  0.7892867748279667  0.4357475647178978  0.5363371701981796
  0.8782908522614671  0.3587023674191937  0.5363381850118150
  0.9005519645473057  0.3972279861545375  0.5363389333850876
  0.9005559657261538  0.4229554352584615  0.5000000000000000
  0.8783016057833510  0.4357475647178978  0.5363371701981796
  0.7892999698845444  0.4616227856561167  0.3909806493287382
  0.8115531090600006  0.4744156443769231  0.4273212321584617
  0.8115610821703826  0.5001484043914605  0.3909813977020105
  0.7893107234064282  0.5386679829548209  0.3909796345151026
  0.9005679400153849  0.4744156443769231  0.4273212321584617
  0.8338073653110435  0.4616234182132824  0.3909796345151026
  0.8783148008399292  0.4616227856561167  0.3909806493287382
  0.9005759131257673  0.5001484043914605  0.3909813977020105
  0.8783255543618129  0.5386679829548209  0.3909796345151026
  0.8338181589353136  0.5386673503976552  0.3909806493287382
  0.8338061846460827  0.4872071412791936  0.4636594171702765
  0.7892987491171972  0.4872077738363594  0.4636584023566411
  0.7670524659765370  0.5257327600145376  0.4636601655435490
  0.7670444928661539  0.5000000000000000  0.5000000000000000
  0.7892975684522364  0.5127914969022705  0.5363381850118150
  0.8338049638787359  0.5127921294594363  0.5363371701981796
  0.8560672969319215  0.5257327600145376  0.4636601655435490
  0.8783135800725820  0.4872077738363594  0.4636584023566411
  0.8560593238215387  0.5000000000000000  0.5000000000000000
  0.8783123994076207  0.5127914969022705  0.5363381850118150
  0.8560553226426908  0.4742725508960760  0.5363389333850876
  0.6334659771353853  0.1659458875384615  0.6453575356830770
  0.6334739502457668  0.1916786475529989  0.6090177012266259
  0.6557310270106974  0.2301975935591936  0.6090169528533533
  0.6334779514246153  0.2174060966569226  0.5726787678415385
  0.7002384224371974  0.2301982261163591  0.6090159380397180
  0.7224808080907696  0.1659458875384615  0.6453575356830770
  0.7224927823800001  0.2174060966569226  0.5726787678415385
  0.7224887812011516  0.1916786475529989  0.6090177012266259
  0.7447458579660826  0.2301975935591936  0.6090169528533533
  0.6557417805325818  0.3072427908578977  0.6090159380397180
  0.6334875242815390  0.3200350170215382  0.6453575356830770
  0.6779841661861541  0.2429904522799999  0.6453575356830770
  0.6779961404753846  0.2944506613984612  0.5726787678415385
  0.6779921392965369  0.2687232122945373  0.6090177012266259
  0.7002492160614671  0.3072421583007320  0.6090169528533533
  0.7225023552369237  0.3200350170215382  0.6453575356830770
  0.7447566114879661  0.3072427908578977  0.6090159380397180
  0.7670069702519212  0.2687232122945373  0.6090177012266259
  0.7225103283473061  0.3457677770360759  0.6090177012266259
  0.7669989971415384  0.2429904522799999  0.6453575356830770
  0.6557190527214674  0.1787373844407321  0.6816957206948917
  0.6779721918969231  0.1915302431615384  0.7180363035246153
  0.6779801650073060  0.2172630031760758  0.6816964690681643
  0.6557178319541208  0.2043223726209747  0.7543734737227950
  0.7002264481479664  0.1787380169978978  0.6816947058812564
  0.7447338836768521  0.1787373844407321  0.6816957206948917
  0.7447326629095051  0.2043223726209747  0.7543734737227950
  0.7669949959626907  0.2172630031760758  0.6816964690681643
  0.6557298062433504  0.2557825817394364  0.6816947058812564
  0.6334755499923080  0.2685748079030768  0.7180363035246153
  0.6334835231026900  0.2943075679176144  0.6816964690681643
  0.6779937390430768  0.3456193726446152  0.7180363035246153
  0.6557405998676210  0.3328265139238089  0.6816957206948917
  0.7002372417722366  0.2557819491822705  0.6816957206948917
  0.7447446371987352  0.2557825817394364  0.6816947058812564
  0.7224903809476924  0.2685748079030768  0.7180363035246153
  0.7224983540580752  0.2943075679176144  0.6816964690681643
  0.7447554308230053  0.3328265139238089  0.6816957206948917
  0.7002479952941201  0.3328271464809750  0.6816947058812564
  0.7892532533925817  0.2301982261163591  0.6090159380397180
  0.8115076133353849  0.2174060966569226  0.5726787678415385
  0.8115036121565363  0.1916786475529989  0.6090177012266259
  0.8337606889214669  0.2301975935591936  0.6090169528533533
  0.8337714424433509  0.3072427908578977  0.6090159380397180
  0.7670109714307694  0.2944506613984612  0.5726787678415385
  0.8115171861923085  0.3200350170215382  0.6453575356830770
  0.7892640470168518  0.3072421583007320  0.6090169528533533
  0.8560218012073060  0.2687232122945373  0.6090177012266259
  0.8560258023861546  0.2944506613984612  0.5726787678415385
  0.8782788779722361  0.3072421583007320  0.6090169528533533
  0.7892520727276209  0.2557819491822705  0.6816957206948917
  0.8337594681541199  0.2557825817394364  0.6816947058812564
  0.8337702617783901  0.3328265139238089  0.6816957206948917
  0.8115131850134596  0.2943075679176144  0.6816964690681643
  0.8115052119030771  0.2685748079030768  0.7180363035246153
  0.7670085699984616  0.3456193726446152  0.7180363035246153
  0.7892508519602744  0.2813669373625131  0.7543734737227950
  0.8782776572048897  0.3328271464809750  0.6816947058812564
  0.8560234009538463  0.3456193726446152  0.7180363035246153
  0.6334954973919213  0.3457677770360759  0.6090177012266259
  0.6334994985707695  0.3714952261399997  0.5726787678415385
  0.6780057133323077  0.3970795817630768  0.6453575356830770
  0.6557525741568520  0.3842867230422706  0.6090169528533533
  0.6780136864426906  0.4228123417776144  0.6090177012266259
  0.7225143295261542  0.3714952261399997  0.5726787678415385
  0.7670285173980753  0.4228123417776144  0.6090177012266259
  0.7447674051122363  0.3842867230422706  0.6090169528533533
  0.7670205442876930  0.3970795817630768  0.6453575356830770
  0.6557393791002740  0.3584115021040516  0.7543734737227950
  0.6557513533895050  0.4098717112225131  0.6816947058812564
  0.6334970971384617  0.4226639373861538  0.7180363035246153
  0.6780017121534601  0.3713521326591525  0.6816964690681643
  0.7002575681510433  0.4354560668455900  0.7543734737227950
  0.7447661843448889  0.4098717112225131  0.6816947058812564
  0.7002587889183902  0.4098710786653472  0.6816957206948917
  0.7670165431088444  0.3713521326591525  0.6816964690681643
  0.7225119280938460  0.4226639373861538  0.7180363035246153
  0.7447542100556593  0.3584115021040516  0.7543734737227950
  0.6335210457169234  0.5255843556230769  0.5726787678415385
  0.6335170445380750  0.4998569065191528  0.6090177012266259
  0.6335090714276926  0.4741241465046154  0.6453575356830770
  0.6557741213030056  0.5383758525253475  0.6090169528533533
  0.6557633276787359  0.4613319203409747  0.6090159380397180
  0.6780176876215387  0.4485397908815383  0.5726787678415385
  0.7002707632076212  0.4613312877838089  0.6090169528533533
  0.7225239023830770  0.4741241465046154  0.6453575356830770
  0.7447781586341202  0.4613319203409747  0.6090159380397180
  0.7225318754934598  0.4998569065191528  0.6090177012266259
  0.7447889522583904  0.5383758525253475  0.6090169528533533
  0.6335050702488441  0.4483966974006911  0.6816964690681643
  0.6557621470137747  0.4869156434068856  0.6816957206948917
  0.6557609262464282  0.5125006315871287  0.7543734737227950
  0.6780152861892309  0.4997085021276924  0.7180363035246153
  0.6780232592996135  0.5254412621422297  0.6816964690681643
  0.7225199012042293  0.4483966974006911  0.6816964690681643
  0.7002695424402742  0.4869162759640516  0.6816947058812564
  0.7447769779691599  0.4869156434068856  0.6816957206948917
  0.7670301171446152  0.4997085021276924  0.7180363035246153
  0.7447757572018125  0.5125006315871287  0.7543734737227950
  0.8115291604815386  0.3714952261399997  0.5726787678415385
  0.8115251593026904  0.3457677770360759  0.6090177012266259
  0.7892748005387358  0.3842873555994361  0.6090159380397180
  0.8337822360676210  0.3842867230422706  0.6090169528533533
  0.9005439914369233  0.3714952261399997  0.5726787678415385
  0.8782896314941201  0.3842873555994361  0.6090159380397180
  0.8560433483534596  0.4228123417776144  0.6090177012266259
  0.9005399902580752  0.3457677770360759  0.6090177012266259
  0.8560353752430773  0.3970795817630768  0.6453575356830770
  0.8560313740642288  0.3713521326591525  0.6816964690681643
  0.7892736198737750  0.4098710786653472  0.6816957206948917
  0.8337810153002737  0.4098717112225131  0.6816947058812564
  0.8115267590492308  0.4226639373861538  0.7180363035246153
  0.8115347321596137  0.4483966974006911  0.6816964690681643
  0.7892723991064281  0.4354560668455900  0.7543734737227950
  0.8782884508291594  0.4098710786653472  0.6816957206948917
  0.8782872300618129  0.4354560668455900  0.7543734737227950
  0.9005495631149980  0.4483966974006911  0.6816964690681643
  0.7670325185769230  0.4485397908815383  0.5726787678415385
  0.7892855941630050  0.4613312877838089  0.6090169528533533
  0.8115507076276924  0.5255843556230769  0.5726787678415385
  0.8115467064488443  0.4998569065191528  0.6090177012266259
  0.8337929895895050  0.4613319203409747  0.6090159380397180
  0.8560473495323073  0.4485397908815383  0.5726787678415385
  0.8783004251183902  0.4613312877838089  0.6090169528533533
  0.9005615374042290  0.4998569065191528  0.6090177012266259
  0.9005655385830772  0.5255843556230769  0.5726787678415385
  0.8338037832137745  0.5383758525253475  0.6090169528533533
  0.8783111786402742  0.5383764850825132  0.6090159380397180
  0.8115387333384617  0.4741241465046154  0.6453575356830770
  0.7892843733956586  0.4869162759640516  0.6816947058812564
  0.8337918089245446  0.4869156434068856  0.6816957206948917
  0.7670380902549981  0.5254412621422297  0.6816964690681643
  0.8337905881571975  0.5125006315871287  0.7543734737227950
  0.8782992043510434  0.4869162759640516  0.6816947058812564
  0.9005535642938465  0.4741241465046154  0.6453575356830770
  0.8560529212103829  0.5254412621422297  0.6816964690681643
  0.8560449481000000  0.4997085021276924  0.7180363035246153
  0.6334635757030775  0.2171145987846153  0.7907150713661539
  0.7002252674830056  0.2043217400638090  0.7543744885364303
  0.6557166512891597  0.2299060956868857  0.8270532563779687
  0.6779681907180750  0.1658027940576143  0.7543752369097029
  0.6779897378642288  0.3198919235406912  0.7543752369097029
  0.6334715488134595  0.2428473587991529  0.7543752369097029
  0.6557286255783901  0.2813663048053474  0.7543744885364303
  0.6779817647538463  0.2941591635261537  0.7907150713661539
  0.6779777635749983  0.2684317144222298  0.8270540047512412
  0.6557274048110436  0.3069512929855900  0.8270522415643333
  0.7447434565337749  0.2813663048053474  0.7543744885364303
  0.7224863797688443  0.2428473587991529  0.7543752369097029
  0.7002348403399289  0.3069506604284243  0.8270532563779687
  0.7447422357664280  0.3069512929855900  0.8270522415643333
  0.6334731485600003  0.3197435191492308  0.8633938392076923
  0.6557262241460828  0.3325350160515014  0.8997320242195073
  0.7670045688196135  0.3198919235406912  0.7543752369097029
  0.7669965957092311  0.2941591635261537  0.7907150713661539
  0.6557381984353133  0.3839952251699629  0.8270532563779687
  0.6334851228492308  0.3712037282676920  0.7907150713661539
  0.6334811216703827  0.3454762791637682  0.8270540047512412
  0.7002455938618128  0.3839958577271286  0.8270522415643333
  0.6334930959596137  0.3969364882822296  0.7543752369097029
  0.6779993107211519  0.4225208439053065  0.8270540047512412
  0.6557501727245442  0.4354554342884244  0.7543744885364303
  0.7224959526257675  0.3454762791637682  0.8270540047512412
  0.7002468146291594  0.3584108695468858  0.7543744885364303
  0.7224999538046160  0.3712037282676920  0.7907150713661539
  0.7447530293906981  0.3839952251699629  0.8270532563779687
  0.7670141416765367  0.4225208439053065  0.8270540047512412
  0.7225079269149984  0.3969364882822296  0.7543752369097029
  0.7447650036799286  0.4354554342884244  0.7543744885364303
  0.6779913376107695  0.3967880838907691  0.8633938392076923
  0.6557369776679663  0.4095802133502054  0.8997310094058719
  0.6779873364319214  0.3710606347868450  0.8997327725927796
  0.7002444131968520  0.4095795807930397  0.8997320242195073
  0.6557489519571973  0.4610404224686669  0.8270522415643333
  0.6780033119000000  0.4482482930092306  0.7907150713661539
  0.6780112850103829  0.4739810530237682  0.7543752369097029
  0.6335026688165368  0.4995654086468451  0.8270540047512412
  0.6557597455814670  0.5380843546530396  0.8270532563779687
  0.6335066699953849  0.5252928577507692  0.7907150713661539
  0.7447637829125821  0.4610404224686669  0.8270522415643333
  0.7002563874860825  0.4610397899115010  0.8270532563779687
  0.7670181428553847  0.4482482930092306  0.7907150713661539
  0.7225174997719211  0.4995654086468451  0.8270540047512412
  0.7002683617753135  0.5124999990299629  0.7543744885364303
  0.7225215009507692  0.5252928577507692  0.7907150713661539
  0.7447745765368518  0.5380843546530396  0.8270532563779687
  0.7002671410079665  0.5380849872102055  0.8270522415643333
  0.6334946957061539  0.4738326486323075  0.8633938392076923
  0.6557477712922365  0.4866241455345781  0.8997320242195073
  0.6334906945273059  0.4481051995283834  0.8997327725927796
  0.6780088835780751  0.5251497642699220  0.8997327725927796
  0.7225095266615388  0.4738326486323075  0.8633938392076923
  0.7002551667187360  0.4866247780917440  0.8997310094058719
  0.7225055254826906  0.4481051995283834  0.8997327725927796
  0.8115147847600007  0.3712037282676920  0.7907150713661539
  0.7892616455845441  0.3584108695468858  0.7543744885364303
  0.8115227578703827  0.3969364882822296  0.7543752369097029
  0.7892604248171972  0.3839958577271286  0.8270522415643333
  0.8337798346353134  0.4354554342884244  0.7543744885364303
  0.8115323307273059  0.4995654086468451  0.8270540047512412
  0.7892712184414673  0.4610397899115010  0.8270532563779687
  0.7670261159657676  0.4739810530237682  0.7543752369097029
  0.7892831927306978  0.5124999990299629  0.7543744885364303
  0.8115363319061539  0.5252928577507692  0.7907150713661539
  0.7892819719633510  0.5380849872102055  0.8270522415643333
  0.8560409469211520  0.4739810530237682  0.7543752369097029
  0.8782980236860826  0.5124999990299629  0.7543744885364303
  0.9227994684553136  0.3331180117961168  0.4636594171702765
  0.9228341705556590  0.5130836273317440  0.3183008666735642
  0.9228114427445441  0.3845782209145781  0.3909806493287382
  0.9228102219771975  0.4101632090948208  0.4636584023566411
  0.9228221962664283  0.4616234182132824  0.3909796345151026
  0.9228329898906982  0.5386673503976552  0.3909806493287382
  0.9228210156014672  0.4872071412791936  0.4636594171702765
  0.9228090413122363  0.4357469321607321  0.5363381850118150
  0.9227982476879666  0.3587029999763591  0.5363371701981796
  0.9227970670230058  0.3842867230422706  0.6090169528533533
  0.9228197948341202  0.5127921294594363  0.5363371701981796
  0.9450701535980753  0.4742725508960760  0.5363389333850876
  0.9450621804876921  0.4485397908815383  0.5726787678415385
  0.9450741547769235  0.5000000000000000  0.5000000000000000
  0.9228186141691594  0.5383758525253475  0.6090169528533533
  0.9228066398799291  0.4869156434068856  0.6816957206948917
  0.1217126662464279  0.5645438364502056  0.2456220988320259
  0.2329898302549983  0.5774844670053065  0.1729450941773952
  0.2329818571446155  0.5517517069907693  0.2092849286338462
  0.2107274972018127  0.5645438364502056  0.2456220988320259
  0.2107382908260824  0.6415877686345782  0.2456231136456612
  0.1662308552971971  0.6415884011917440  0.2456220988320259
  0.1884812140611521  0.6030688226283837  0.2456238620189336
  0.1884947880969232  0.7314251920969232  0.2819636964753847
  0.1217114855814672  0.5901275595161168  0.3183018814871996
  0.0772028693876212  0.6157119151391938  0.3909806493287382
  0.1439606235780752  0.5771929691329990  0.3909813977020105
  0.0994560085630771  0.6285047738600000  0.4273212321584617
  0.1439725978673060  0.6286531782514604  0.3183026298604721
  0.1884692397719213  0.5516086135099221  0.3183026298604721
  0.2107263165368517  0.5901275595161168  0.3183018814871996
  0.2329794557123077  0.6029204182369230  0.3546424643169231
  0.1884708395184617  0.6285047738600000  0.4273212321584617
  0.1662177003430058  0.6157119151391938  0.3909806493287382
  0.2329674814230770  0.5514602091184616  0.4273212321584617
  0.1662296746322363  0.6671721242576552  0.3183018814871996
  0.1884828138076924  0.6799649829784614  0.3546424643169231
  0.1662284538648894  0.6927571124378977  0.3909796345151026
  0.1439821707242290  0.7312820986160758  0.3909813977020105
  0.2329970016796136  0.7312820986160758  0.3909813977020105
  0.1662404281541203  0.7442173215563593  0.3183008666735642
  0.2330089759688444  0.7827423077345372  0.3183026298604721
  0.1662392474891594  0.7698010446222706  0.3909806493287382
  0.1884923866646155  0.7825939033430769  0.4273212321584617
  0.2330105757153847  0.8596384680846154  0.4273212321584617
  0.1216982905248896  0.5642523385778978  0.4636584023566411
  0.0994440342738463  0.5770445647415385  0.5000000000000000
  0.1216971098599286  0.5898360616438090  0.5363381850118150
  0.0772004679553134  0.6668806263853476  0.5363381850118150
  0.1662164795756588  0.6412969033194363  0.4636584023566411
  0.1884588652292309  0.5770445647415385  0.5000000000000000
  0.1439582221457673  0.6283616803791529  0.5363389333850876
  0.2107119408153134  0.5898360616438090  0.5363381850118150
  0.2329730531011519  0.6283616803791529  0.5363389333850876
  0.1662272731999287  0.7183408355038090  0.4636594171702765
  0.1439701964349983  0.6798218894976145  0.4636601655435490
  0.1884804123753847  0.7311336942246155  0.5000000000000000
  0.1662152989106979  0.6668806263853476  0.5363381850118150
  0.2329850273903829  0.6798218894976145  0.4636601655435490
  0.0771884936660825  0.6154204172668859  0.6090169528533533
  0.1216958890925818  0.6154210498240515  0.6090159380397180
  0.1439462478565366  0.5769014712606914  0.6090177012266259
  0.0994376316626906  0.6024858268837683  0.6816964690681643
  0.0994416328415385  0.6282132759876922  0.6453575356830770
  0.1216839148033510  0.5639608407055900  0.6816947058812564
  0.1439382747461540  0.5511687112461539  0.6453575356830770
  0.1217066827168518  0.6924649820084244  0.6090169528533533
  0.0994496059519213  0.6539460360022298  0.6090177012266259
  0.0994536071307693  0.6796734851061537  0.5726787678415385
  0.1216947084276210  0.6410047728899629  0.6816957206948917
  0.2107107200479664  0.6154210498240515  0.6090159380397180
  0.1662033246214670  0.6154204172668859  0.6090169528533533
  0.2329610788119213  0.5769014712606914  0.6090177012266259
  0.1661913503322365  0.5639602081484244  0.6816957206948917
  0.2329531057015386  0.5511687112461539  0.6453575356830770
  0.2106987457587357  0.5639608407055900  0.6816947058812564
  0.1884524626180750  0.6024858268837683  0.6816964690681643
  0.1884564637969231  0.6282132759876922  0.6453575356830770
  0.2107095393830056  0.6410047728899629  0.6816957206948917
  0.1439677950026905  0.7309906007437681  0.6090177012266259
  0.1884644369073059  0.6539460360022298  0.6090177012266259
  0.1884684380861539  0.6796734851061537  0.5726787678415385
  0.2329826259580749  0.7309906007437681  0.6090177012266259
  0.2107215136722363  0.6924649820084244  0.6090169528533533
  0.1439558207134598  0.6795303916253066  0.6816964690681643
  0.1662128974783904  0.7180493376315014  0.6816957206948917
  0.1439598218923079  0.7052578407292307  0.6453575356830770
  0.1662021038541202  0.6410054054471286  0.6816947058812564
  0.2107202929048895  0.7180499701886670  0.6816947058812564
  0.2329706516688445  0.6795303916253066  0.6816964690681643
  0.2329746528476924  0.7052578407292307  0.6453575356830770
  0.1662380267218126  0.7953860328025131  0.4636584023566411
  0.1662260524325819  0.7439258236840517  0.5363371701981796
  0.2329946002473058  0.7824508098622297  0.5363389333850876
  0.1662248717676210  0.7695095467499629  0.6090169528533533
  0.1884859840534597  0.8080351654853067  0.6090177012266259
  0.1884740097642290  0.7565749563668452  0.6816964690681643
  0.1884780109430772  0.7823024054707691  0.6453575356830770
  0.2107310865291595  0.7950939023730396  0.6816957206948917
  0.2552456862525819  0.6415884011917440  0.2456220988320259
  0.2774880719061540  0.5773360626138461  0.2819636964753847
  0.2775000461953847  0.6287962717323076  0.2092849286338462
  0.2552349327306979  0.5645432038930398  0.2456231136456612
  0.2774960450165366  0.6030688226283837  0.2456238620189336
  0.2552469070199289  0.6160034130115013  0.1729443458041227
  0.2997423281571974  0.5645438364502056  0.2456220988320259
  0.2997531217814671  0.6415877686345782  0.2456231136456612
  0.3220046612103826  0.5774844670053065  0.1729450941773952
  0.3442497636860826  0.5645432038930398  0.2456231136456612
  0.3665029028615387  0.5773360626138461  0.2819636964753847
  0.3220262083565367  0.7315735964883835  0.1729450941773952
  0.2775080193057675  0.6545290317468452  0.1729450941773952
  0.3220182352461540  0.7058408364738461  0.2092849286338462
  0.2997650960706980  0.6930479777530398  0.1729443458041227
  0.3442605172079667  0.6415884011917440  0.2456220988320259
  0.3220062609569233  0.6543806273553846  0.2819636964753847
  0.3220142340673059  0.6801133873699220  0.2456238620189336
  0.2775096190523078  0.7314251920969232  0.2819636964753847
  0.4555297081061541  0.6287962717323076  0.2092849286338462
  0.3665148771507693  0.6287962717323076  0.2092849286338462
  0.4110115190553847  0.5517517069907693  0.2092849286338462
  0.3887571591125818  0.5645438364502056  0.2456220988320259
  0.3665108759719212  0.6030688226283837  0.2456238620189336
  0.4332645946414673  0.5645432038930398  0.2456231136456612
  0.4555177338169231  0.5773360626138461  0.2819636964753847
  0.4555257069273060  0.6030688226283837  0.2456238620189336
  0.4555376812165367  0.6545290317468452  0.1729450941773952
  0.3665228502611518  0.6545290317468452  0.1729450941773952
  0.4110410393119213  0.7315735964883835  0.1729450941773952
  0.3887799270260825  0.6930479777530398  0.1729443458041227
  0.4110330662015385  0.7058408364738461  0.2092849286338462
  0.4110210919123079  0.6543806273553846  0.2819636964753847
  0.3887679527368518  0.6415877686345782  0.2456231136456612
  0.4110290650226905  0.6801133873699220  0.2456238620189336
  0.4332861417876210  0.7186323333761168  0.2456231136456612
  0.3887787062587359  0.7186329659332824  0.2456220988320259
  0.2774840707273060  0.5516086135099221  0.3183026298604721
  0.3219942866676924  0.6029204182369230  0.3546424643169231
  0.3664989016826905  0.5516086135099221  0.3183026298604721
  0.2774856704738462  0.6285047738600000  0.4273212321584617
  0.3219823123784618  0.5514602091184616  0.4273212321584617
  0.2997399267248895  0.6157125476963594  0.3909796345151026
  0.2997519010141205  0.6671727568148209  0.3183008666735642
  0.2775056178734597  0.7056977429929989  0.3183026298604721
  0.2997626946383901  0.7442166889991937  0.3183018814871996
  0.2774976447630769  0.6799649829784614  0.3546424643169231
  0.2552432848202739  0.6927571124378977  0.3909796345151026
  0.2997507203491593  0.6927564798807322  0.3909806493287382
  0.2774936435842289  0.6542375338745373  0.3909813977020105
  0.3887559784476211  0.5901275595161168  0.3183018814871996
  0.4110170907334597  0.6286531782514604  0.3183026298604721
  0.4555137326380750  0.5516086135099221  0.3183026298604721
  0.4332633738741204  0.5901281920732824  0.3183008666735642
  0.3887547576802742  0.6157125476963594  0.3909796345151026
  0.4110051164442290  0.5771929691329990  0.3909813977020105
  0.4332621932091594  0.6157119151391938  0.3909806493287382
  0.4332741674983902  0.6671721242576552  0.3183018814871996
  0.3887667319695051  0.6671727568148209  0.3183008666735642
  0.4555352797842289  0.7056977429929989  0.3183026298604721
  0.3665204488288444  0.7056977429929989  0.3183026298604721
  0.3665084745396136  0.6542375338745373  0.3909813977020105
  0.3887655513045441  0.6927564798807322  0.3909806493287382
  0.4555233054949983  0.6542375338745373  0.3909813977020105
  0.3442832851214674  0.7700925424945783  0.1729443458041227
  0.2552672333987356  0.7956775306748208  0.2456220988320259
  0.3442820643541203  0.7956775306748208  0.2456220988320259
  0.2997746689276208  0.7956768981176551  0.2456231136456612
  0.2775175921626906  0.7571579521114606  0.2456238620189336
  0.3220357812134597  0.8342025168529990  0.2456238620189336
  0.3220278081030770  0.8084697568384616  0.2819636964753847
  0.3665364242969233  0.7828854012153845  0.2092849286338462
  0.4555512552523079  0.7828854012153845  0.2092849286338462
  0.4555592283626906  0.8086181612299221  0.1729450941773952
  0.4332981160768518  0.7700925424945783  0.1729443458041227
  0.3887894998830056  0.7956768981176551  0.2456231136456612
  0.3665324231180752  0.7571579521114606  0.2456238620189336
  0.4110506121688444  0.8342025168529990  0.2456238620189336
  0.4555472540734594  0.7571579521114606  0.2456238620189336
  0.4333076889337749  0.8727214628591936  0.2456231136456612
  0.4555608281092311  0.8855143215800000  0.2819636964753847
  0.2997734481602742  0.8212618862978979  0.3183008666735642
  0.2552552591095051  0.7442173215563593  0.3183008666735642
  0.2775191919092307  0.8340541124615384  0.3546424643169231
  0.2775072176200002  0.7825939033430769  0.4273212321584617
  0.2552540784445442  0.7698010446222706  0.3909806493287382
  0.3665220485753846  0.7825939033430769  0.4273212321584617
  0.2775271650196136  0.8597868724760760  0.3183026298604721
  0.3442796629218124  0.8468462419209747  0.3909796345151026
  0.2552648319664278  0.8468462419209747  0.3909796345151026
  0.2997722674953134  0.8468456093638091  0.3909806493287382
  0.3220333797811523  0.8853712280991528  0.3909813977020105
  0.3887775255937749  0.7442166889991937  0.3183018814871996
  0.4332849210202739  0.7442173215563593  0.3183008666735642
  0.4332957146445441  0.8212612537407321  0.3183018814871996
  0.3887882791156588  0.8212618862978979  0.3183008666735642
  0.4110386378796136  0.7827423077345372  0.3183026298604721
  0.4110306647692308  0.7570095477199998  0.3546424643169231
  0.4555488538200002  0.8340541124615384  0.3546424643169231
  0.3665300216857674  0.8083266633576143  0.3909813977020105
  0.4332837403553134  0.7698010446222706  0.3909806493287382
  0.4555368795307697  0.7825939033430769  0.4273212321584617
  0.4555448526411521  0.8083266633576143  0.3909813977020105
  0.4333064681664281  0.8983064510394363  0.3183008666735642
  0.4555568269303829  0.8597868724760760  0.3183026298604721
  0.3887990727399285  0.8983058184822706  0.3183018814871996
  0.3665419959749983  0.8597868724760760  0.3183026298604721
  0.4110522119153849  0.9110986772030769  0.3546424643169231
  0.3887870984506979  0.8468456093638091  0.3909806493287382
  0.4332944938771972  0.8468462419209747  0.3909796345151026
  0.4110482107365369  0.8853712280991528  0.3909813977020105
  0.3887978519725818  0.9238908066625131  0.3909796345151026
  0.4333052875014671  0.9238901741053476  0.3909806493287382
  0.4555584266769231  0.9366830328261537  0.4273212321584617
  0.5000263500107693  0.5517517069907693  0.2092849286338462
  0.4777719900679664  0.5645438364502056  0.2456220988320259
  0.4777827836922366  0.6415877686345782  0.2456231136456612
  0.5445325647723079  0.5773360626138461  0.2819636964753847
  0.5445405378826905  0.6030688226283837  0.2456238620189336
  0.5667976146476209  0.6415877686345782  0.2456231136456612
  0.5667868210233514  0.5645438364502056  0.2456220988320259
  0.5000478971569233  0.7058408364738461  0.2092849286338462
  0.4777947579814671  0.6930479777530398  0.1729443458041227
  0.5445525121719212  0.6545290317468452  0.1729450941773952
  0.5668095889368518  0.6930479777530398  0.1729443458041227
  0.5000359228676924  0.6543806273553846  0.2819636964753847
  0.4777935372141205  0.7186329659332824  0.2456220988320259
  0.5445541119184618  0.7314251920969232  0.2819636964753847
  0.5668083681695051  0.7186329659332824  0.2456220988320259
  0.6780639850319213  0.5774844670053065  0.1729450941773952
  0.5890411809661542  0.5517517069907693  0.2092849286338462
  0.6780560119215387  0.5517517069907693  0.2092849286338462
  0.6558016519787357  0.5645438364502056  0.2456220988320259
  0.6335553688380748  0.6030688226283837  0.2456238620189336
  0.6558124456030057  0.6415877686345782  0.2456231136456612
  0.6335673431273060  0.6545290317468452  0.1729450941773952
  0.5890627281123079  0.7058408364738461  0.2092849286338462
  0.6780775590676926  0.7058408364738461  0.2092849286338462
  0.6558244198922366  0.6930479777530398  0.1729443458041227
  0.5890507538230771  0.6543806273553846  0.2819636964753847
  0.6780655847784612  0.6543806273553846  0.2819636964753847
  0.6558231991248898  0.7186329659332824  0.2456220988320259
  0.4777708094030059  0.5901275595161168  0.3183018814871996
  0.5000319216888442  0.6286531782514604  0.3183026298604721
  0.5000239485784619  0.6029204182369230  0.3546424643169231
  0.5667856403583904  0.5901275595161168  0.3183018814871996
  0.5445285635934598  0.5516086135099221  0.3183026298604721
  0.5000199473996135  0.5771929691329990  0.3909813977020105
  0.4777695886356587  0.6157125476963594  0.3909796345151026
  0.5000119742892309  0.5514602091184616  0.4273212321584617
  0.5222770241645441  0.6157119151391938  0.3909806493287382
  0.5445301633400002  0.6285047738600000  0.4273212321584617
  0.5890268052446157  0.5514602091184616  0.4273212321584617
  0.5667844195910434  0.6157125476963594  0.3909796345151026
  0.4777815629248896  0.6671727568148209  0.3183008666735642
  0.5445421376292311  0.6799649829784614  0.3546424643169231
  0.5445501107396137  0.7056977429929989  0.3183026298604721
  0.5667963938802744  0.6671727568148209  0.3183008666735642
  0.4777803822599286  0.6927564798807322  0.3909806493287382
  0.5000414945457674  0.7312820986160758  0.3909813977020105
  0.5222877776864281  0.6927571124378977  0.3909796345151026
  0.5667952132153133  0.6927564798807322  0.3909806493287382
  0.5445381364503828  0.6542375338745373  0.3909813977020105
  0.5890387795338462  0.6029204182369230  0.3546424643169231
  0.6335433945488443  0.5516086135099221  0.3183026298604721
  0.6558004713137749  0.5901275595161168  0.3183018814871996
  0.6780536104892312  0.6029204182369230  0.3546424643169231
  0.6335449942953854  0.6285047738600000  0.4273212321584617
  0.6557992505464283  0.6157125476963594  0.3909796345151026
  0.6780416362000005  0.5514602091184616  0.4273212321584617
  0.6558112248356587  0.6671727568148209  0.3183008666735642
  0.6335649416949982  0.7056977429929989  0.3183026298604721
  0.6335529674057674  0.6542375338745373  0.3909813977020105
  0.6558100441706982  0.6927564798807322  0.3909806493287382
  0.6780631833461539  0.7055493386015385  0.4273212321584617
  0.5890483523907694  0.7055493386015385  0.4273212321584617
  0.5445660862076925  0.7828854012153845  0.2092849286338462
  0.5445740593180751  0.8086181612299221  0.1729450941773952
  0.5223117262648900  0.7956775306748208  0.2456220988320259
  0.4778043308383902  0.7956768981176551  0.2456231136456612
  0.5668191617937750  0.7956768981176551  0.2456231136456612
  0.5000654431242291  0.8342025168529990  0.2456238620189336
  0.5445620850288444  0.7571579521114606  0.2456238620189336
  0.5668299153156594  0.8727220954163594  0.2456220988320259
  0.4778150843602744  0.8727220954163594  0.2456220988320259
  0.5223225198891595  0.8727214628591936  0.2456231136456612
  0.5445756590646159  0.8855143215800000  0.2819636964753847
  0.6113265572202743  0.7956775306748208  0.2456220988320259
  0.6558339927491593  0.7956768981176551  0.2456231136456612
  0.5890802740796136  0.8342025168529990  0.2456238620189336
  0.6335769159842287  0.7571579521114606  0.2456238620189336
  0.6780951050349981  0.8342025168529990  0.2456238620189336
  0.5890723009692310  0.8084697568384616  0.2819636964753847
  0.4778031100710437  0.8212618862978979  0.3183008666735642
  0.4777923565491595  0.7442166889991937  0.3183018814871996
  0.5000534688349981  0.7827423077345372  0.3183026298604721
  0.5222997519756588  0.7442173215563593  0.3183008666735642
  0.5223105455999287  0.8212612537407321  0.3183018814871996
  0.5668071875045441  0.7442166889991937  0.3183018814871996
  0.5668179410264278  0.8212618862978979  0.3183008666735642
  0.5890603266800003  0.7570095477199998  0.3546424643169231
  0.4777911357818128  0.7698016771794363  0.3909796345151026
  0.5445517104861540  0.7825939033430769  0.4273212321584617
  0.5222985713106980  0.7698010446222706  0.3909806493287382
  0.5445596835965367  0.8083266633576143  0.3909813977020105
  0.5668059667371974  0.7698016771794363  0.3909796345151026
  0.5000670428707694  0.9110986772030769  0.3546424643169231
  0.4778139036953135  0.8983058184822706  0.3183018814871996
  0.5223212991218127  0.8983064510394363  0.3183008666735642
  0.5668287346506979  0.8983058184822706  0.3183018814871996
  0.5445716578857673  0.8597868724760760  0.3183026298604721
  0.5000550685815387  0.8596384680846154  0.4273212321584617
  0.5223093248325821  0.8468462419209747  0.3909796345151026
  0.5668167603614673  0.8468456093638091  0.3909806493287382
  0.5223201184568520  0.9238901741053476  0.3909806493287382
  0.5668275138833513  0.9238908066625131  0.3909796345151026
  0.5445732576323079  0.9366830328261537  0.4273212321584617
  0.5000630416919214  0.8853712280991528  0.3909813977020105
  0.6780751576353848  0.7570095477199998  0.3546424643169231
  0.6113145829310436  0.7442173215563593  0.3183008666735642
  0.6558220184599288  0.7442166889991937  0.3183018814871996
  0.5890682997903829  0.7827423077345372  0.3183026298604721
  0.6113253765553135  0.8212612537407321  0.3183018814871996
  0.6780831307457675  0.7827423077345372  0.3183026298604721
  0.6558327719818126  0.8212618862978979  0.3183008666735642
  0.6335785157307695  0.8340541124615384  0.3546424643169231
  0.6113134022660827  0.7698010446222706  0.3909806493287382
  0.6558207976925819  0.7698016771794363  0.3909796345151026
  0.6335665414415388  0.7825939033430769  0.4273212321584617
  0.6335864888411522  0.8597868724760760  0.3183026298604721
  0.6113361300771977  0.8983064510394363  0.3183008666735642
  0.5890818738261540  0.9110986772030769  0.3546424643169231
  0.6780847304923080  0.8596384680846154  0.4273212321584617
  0.6558315913168521  0.8468456093638091  0.3909806493287382
  0.6113241557879666  0.8468462419209747  0.3909796345151026
  0.5890778726473057  0.8853712280991528  0.3909813977020105
  0.6780927036026905  0.8853712280991528  0.3909813977020105
  0.6113349494122368  0.9238901741053476  0.3909806493287382
  0.2774816692949983  0.6027773247560759  0.4636601655435490
  0.2774696950057674  0.5513171156376144  0.5363389333850876
  0.2997279524356589  0.5642523385778978  0.4636584023566411
  0.3664885271400001  0.5770445647415385  0.5000000000000000
  0.2997267717706978  0.5898360616438090  0.5363381850118150
  0.3664845259611519  0.5513171156376144  0.5363389333850876
  0.3219878840565367  0.6283616803791529  0.5363389333850876
  0.3442461414864280  0.6412969033194363  0.4636584023566411
  0.2552313105310436  0.6412969033194363  0.4636584023566411
  0.2552421041553135  0.7183408355038090  0.4636594171702765
  0.2552301298660825  0.6668806263853476  0.5363381850118150
  0.3442449608214671  0.6668806263853476  0.5363381850118150
  0.2774952433307695  0.7311336942246155  0.5000000000000000
  0.3664965002503830  0.6027773247560759  0.4636601655435490
  0.4110027150119214  0.6283616803791529  0.5363389333850876
  0.3887535770153135  0.6412962707622705  0.4636594171702765
  0.3887416027260825  0.5898360616438090  0.5363381850118150
  0.4332609724418128  0.6412969033194363  0.4636584023566411
  0.4555113312057673  0.6027773247560759  0.4636601655435490
  0.4332502189199287  0.5642517060207322  0.4636594171702765
  0.4555033580953847  0.5770445647415385  0.5000000000000000
  0.4554993569165368  0.5513171156376144  0.5363389333850876
  0.4110146893011521  0.6798218894976145  0.4636601655435490
  0.4110067161907693  0.6540891294830770  0.5000000000000000
  0.4332597917768519  0.6668806263853476  0.5363381850118150
  0.3887523562479665  0.6668812589425133  0.5363371701981796
  0.4555209040626907  0.7054062451206912  0.5363389333850876
  0.3887631498722362  0.7439251911268859  0.5363381850118150
  0.3665100742861539  0.7311336942246155  0.5000000000000000
  0.4555249052415388  0.7311336942246155  0.5000000000000000
  0.3219799109461539  0.6026289203646155  0.5726787678415385
  0.3442329865322364  0.6154204172668859  0.6090169528533533
  0.3219759097673059  0.5769014712606914  0.6090177012266259
  0.2997255510033511  0.6154210498240515  0.6090159380397180
  0.2552181555768517  0.6154204172668859  0.6090169528533533
  0.2774672935734598  0.6024858268837683  0.6816964690681643
  0.2552061812876211  0.5639602081484244  0.6816957206948917
  0.2774712947523079  0.6282132759876922  0.6453575356830770
  0.2997135767141201  0.5639608407055900  0.6816947058812564
  0.3219679366569231  0.5511687112461539  0.6453575356830770
  0.3442210122430056  0.5639602081484244  0.6816957206948917
  0.3664821245288444  0.6024858268837683  0.6816964690681643
  0.2774832690415385  0.6796734851061537  0.5726787678415385
  0.2774792678626905  0.6539460360022298  0.6090177012266259
  0.2552289090987356  0.6924656145655900  0.6090159380397180
  0.2997363446276211  0.6924649820084244  0.6090169528533533
  0.3219974569134597  0.7309906007437681  0.6090177012266259
  0.2997243703383902  0.6410047728899629  0.6816957206948917
  0.2552169348095048  0.6410054054471286  0.6816947058812564
  0.2552277284337749  0.7180493376315014  0.6816957206948917
  0.2997351238602740  0.7180499701886670  0.6816947058812564
  0.3219854826242290  0.6795303916253066  0.6816964690681643
  0.3219894838030771  0.7052578407292307  0.6453575356830770
  0.3442317657648896  0.6410054054471286  0.6816947058812564
  0.3442425593891595  0.7180493376315014  0.6816957206948917
  0.3887403819587356  0.6154210498240515  0.6090159380397180
  0.4109907407226905  0.5769014712606914  0.6090177012266259
  0.4332478174876210  0.6154204172668859  0.6090169528533533
  0.3887284076695049  0.5639608407055900  0.6816947058812564
  0.3664861257076923  0.6282132759876922  0.6453575356830770
  0.3887392012937748  0.6410047728899629  0.6816957206948917
  0.4109827676123078  0.5511687112461539  0.6453575356830770
  0.4555009566630774  0.6282132759876922  0.6453575356830770
  0.4554969554842291  0.6024858268837683  0.6816964690681643
  0.3887511755830055  0.6924649820084244  0.6090169528533533
  0.3664980999969230  0.6796734851061537  0.5726787678415385
  0.3664940988180752  0.6539460360022298  0.6090177012266259
  0.4110122878688444  0.7309906007437681  0.6090177012266259
  0.4555129309523077  0.6796734851061537  0.5726787678415385
  0.4555089297734598  0.6539460360022298  0.6090177012266259
  0.4110003135796136  0.6795303916253066  0.6816964690681643
  0.4332465967202740  0.6410054054471286  0.6816947058812564
  0.4110043147584615  0.7052578407292307  0.6453575356830770
  0.3887499548156585  0.7180499701886670  0.6816947058812564
  0.4332573903445441  0.7180493376315014  0.6816957206948917
  0.3220214054919214  0.8339110189806914  0.4636601655435490
  0.3442676886325817  0.7953860328025131  0.4636584023566411
  0.2552528576771971  0.7953860328025131  0.4636584023566411
  0.2552408833879665  0.7439258236840517  0.5363371701981796
  0.2552516770122363  0.8209697558684246  0.5363381850118150
  0.3220094312026907  0.7824508098622297  0.5363389333850876
  0.3442665079676211  0.8209697558684246  0.5363381850118150
  0.3442557143433513  0.7439258236840517  0.5363371701981796
  0.2997710467279663  0.8724305975440516  0.4636584023566411
  0.2775167904769231  0.8852228237076923  0.5000000000000000
  0.2997698660630055  0.8980143206099629  0.5363381850118150
  0.3442772614895050  0.8980149531671285  0.5363371701981796
  0.3665180473965368  0.7568664542391528  0.4636601655435490
  0.4332813389230056  0.8209697558684246  0.5363381850118150
  0.3665395945426907  0.9109555837222297  0.4636601655435490
  0.3887858776833510  0.8724305975440516  0.4636584023566411
  0.4332933132122361  0.8724299649868857  0.4636594171702765
  0.4555544254980751  0.9109555837222297  0.4636601655435490
  0.3887846970183904  0.8980143206099629  0.5363381850118150
  0.3665316214323079  0.8852228237076923  0.5000000000000000
  0.4110458093042290  0.9365399393453068  0.5363389333850876
  0.4332920924448898  0.8980149531671285  0.5363371701981796
  0.4555424512088444  0.8594953746037681  0.5363389333850876
  0.4555464523876927  0.8852228237076923  0.5000000000000000
  0.3442545336783902  0.7695095467499629  0.6090169528533533
  0.2552397027230056  0.7695095467499629  0.6090169528533533
  0.2775008150088443  0.8080351654853067  0.6090177012266259
  0.2997578917737748  0.8465541114915014  0.6090169528533533
  0.2775048161876926  0.8337626145892310  0.5726787678415385
  0.2774888407196135  0.7565749563668452  0.6816964690681643
  0.2774928418984615  0.7823024054707691  0.6453575356830770
  0.2552384819556587  0.7950945349302057  0.6816947058812564
  0.2997459174845440  0.7950939023730396  0.6816957206948917
  0.3220070297703828  0.8336195211083836  0.6816964690681643
  0.3442533129110433  0.7950945349302057  0.6816947058812564
  0.3665036716749979  0.7565749563668452  0.6816964690681643
  0.2552504562448896  0.8465547440486669  0.6090159380397180
  0.3220190040596134  0.8850797302268451  0.6090177012266259
  0.3442652872002741  0.8465547440486669  0.6090159380397180
  0.2997566710064279  0.8721390996717440  0.6816947058812564
  0.3220110309492309  0.8593469702123078  0.6453575356830770
  0.3442641065353133  0.8721384671145782  0.6816957206948917
  0.4332693646337746  0.7695095467499629  0.6090169528533533
  0.4555304769196137  0.8080351654853067  0.6090177012266259
  0.3665156459642291  0.8080351654853067  0.6090177012266259
  0.3665196471430771  0.8337626145892310  0.5726787678415385
  0.4555344780984615  0.8337626145892310  0.5726787678415385
  0.3665076728538463  0.7823024054707691  0.6453575356830770
  0.4110218607257676  0.8336195211083836  0.6816964690681643
  0.3887607484399286  0.7950939023730396  0.6816957206948917
  0.4555185026303828  0.7565749563668452  0.6816964690681643
  0.4332681438664278  0.7950945349302057  0.6816947058812564
  0.4555225038092309  0.7823024054707691  0.6453575356830770
  0.4110338350149983  0.8850797302268451  0.6090177012266259
  0.4332801181556588  0.8465547440486669  0.6090159380397180
  0.3887727227291595  0.8465541114915014  0.6090169528533533
  0.3887834762510434  0.9235993087902055  0.6090159380397180
  0.4332909117799288  0.9235986762330398  0.6090169528533533
  0.3887715019618124  0.8721390996717440  0.6816947058812564
  0.4110258619046156  0.8593469702123078  0.6453575356830770
  0.4555400497765369  0.9106640858499221  0.6816964690681643
  0.4332789374906981  0.8721384671145782  0.6816957206948917
  0.5222758033971975  0.6412969033194363  0.4636584023566411
  0.4777576143464284  0.5642523385778978  0.4636584023566411
  0.5222650498753135  0.5642517060207322  0.4636594171702765
  0.4777684079706979  0.6412962707622705  0.4636594171702765
  0.4777564336814670  0.5898360616438090  0.5363381850118150
  0.5222638291079663  0.5898366942009746  0.5363371701981796
  0.5000175459673059  0.6283616803791529  0.5363389333850876
  0.5667832389260827  0.6412962707622705  0.4636594171702765
  0.5667724453018128  0.5642523385778978  0.4636584023566411
  0.5445261621611521  0.6027773247560759  0.4636601655435490
  0.5445181890507694  0.5770445647415385  0.5000000000000000
  0.5667712646368518  0.5898360616438090  0.5363381850118150
  0.5445141878719214  0.5513171156376144  0.5363389333850876
  0.5667939924479667  0.7183414680609748  0.4636584023566411
  0.5222865970214672  0.7183408355038090  0.4636594171702765
  0.4777791614925821  0.7183414680609748  0.4636584023566411
  0.5000295202565366  0.6798218894976145  0.4636601655435490
  0.5000215471461543  0.6540891294830770  0.5000000000000000
  0.4777671872033512  0.6668812589425133  0.5363371701981796
  0.5222746227322367  0.6668806263853476  0.5363381850118150
  0.5667820181587355  0.6668812589425133  0.5363371701981796
  0.5445397361969231  0.7311336942246155  0.5000000000000000
  0.5445357350180751  0.7054062451206912  0.5363389333850876
  0.6557872762571976  0.5642523385778978  0.4636584023566411
  0.6335409931165367  0.6027773247560759  0.4636601655435490
  0.6557980698814673  0.6412962707622705  0.4636594171702765
  0.6335330200061540  0.5770445647415385  0.5000000000000000
  0.6335290188273059  0.5513171156376144  0.5363389333850876
  0.6557860955922366  0.5898360616438090  0.5363381850118150
  0.6112786600633511  0.5898366942009746  0.5363371701981796
  0.5890323769226906  0.6283616803791529  0.5363389333850876
  0.5890443512119213  0.6798218894976145  0.4636601655435490
  0.6113014279768519  0.7183408355038090  0.4636594171702765
  0.5890363781015386  0.6540891294830770  0.5000000000000000
  0.6112894536876212  0.6668806263853476  0.5363381850118150
  0.6335545671523080  0.7311336942246155  0.5000000000000000
  0.6335505659734598  0.7054062451206912  0.5363389333850876
  0.6780512090569233  0.6540891294830770  0.5000000000000000
  0.4777552129141205  0.6154210498240515  0.6090159380397180
  0.5667700438695050  0.6154210498240515  0.6090159380397180
  0.5222626484430055  0.6154204172668859  0.6090169528533533
  0.5000055716780751  0.5769014712606914  0.6090177012266259
  0.5222506741537748  0.5639602081484244  0.6816957206948917
  0.4777540322491595  0.6410047728899629  0.6816957206948917
  0.4777432386248898  0.5639608407055900  0.6816947058812564
  0.4999975985676925  0.5511687112461539  0.6453575356830770
  0.5445117864396134  0.6024858268837683  0.6816964690681643
  0.5445157876184618  0.6282132759876922  0.6453575356830770
  0.5667580695802743  0.5639608407055900  0.6816947058812564
  0.5667688632045440  0.6410047728899629  0.6816957206948917
  0.4777660065383902  0.6924649820084244  0.6090169528533533
  0.5222734019648899  0.6924656145655900  0.6090159380397180
  0.5000271188242290  0.7309906007437681  0.6090177012266259
  0.5445237607288443  0.6539460360022298  0.6090177012266259
  0.5667808374937749  0.6924649820084244  0.6090169528533533
  0.5445277619076923  0.6796734851061537  0.5726787678415385
  0.4777647857710434  0.7180499701886670  0.6816947058812564
  0.5000151445349983  0.6795303916253066  0.6816964690681643
  0.5000191457138466  0.7052578407292307  0.6453575356830770
  0.5222614276756588  0.6410054054471286  0.6816947058812564
  0.5222722212999289  0.7180493376315014  0.6816957206948917
  0.5667796167264277  0.7180499701886670  0.6816947058812564
  0.5890244038123080  0.6026289203646155  0.5726787678415385
  0.6780392347676926  0.6026289203646155  0.5726787678415385
  0.6112774793983903  0.6154204172668859  0.6090169528533533
  0.6557848748248896  0.6154210498240515  0.6090159380397180
  0.6557729005356588  0.5639608407055900  0.6816947058812564
  0.6112655051091596  0.5639602081484244  0.6816957206948917
  0.6780272604784618  0.5511687112461539  0.6453575356830770
  0.5890124295230771  0.5511687112461539  0.6453575356830770
  0.6335266173949982  0.6024858268837683  0.6816964690681643
  0.6335306185738463  0.6282132759876922  0.6453575356830770
  0.6557836941599288  0.6410047728899629  0.6816957206948917
  0.6112882329202742  0.6924656145655900  0.6090159380397180
  0.5890419497796135  0.7309906007437681  0.6090177012266259
  0.6335385916842289  0.6539460360022298  0.6090177012266259
  0.6335425928630770  0.6796734851061537  0.5726787678415385
  0.6557956684491595  0.6924649820084244  0.6090169528533533
  0.6780567807349983  0.7309906007437681  0.6090177012266259
  0.6112762586310435  0.6410054054471286  0.6816947058812564
  0.6780448064457675  0.6795303916253066  0.6816964690681643
  0.5890299754903826  0.6795303916253066  0.6816964690681643
  0.6780488076246155  0.7052578407292307  0.6453575356830770
  0.5890339766692310  0.7052578407292307  0.6453575356830770
  0.6112870522553137  0.7180493376315014  0.6816957206948917
  0.6557944476818127  0.7180499701886670  0.6816947058812564
  0.5668047860722364  0.7953854002453475  0.4636594171702765
  0.4777899551168516  0.7953854002453475  0.4636594171702765
  0.5445477093073062  0.7568664542391528  0.4636601655435490
  0.5000430942923080  0.8081782589661540  0.5000000000000000
  0.5222853762541206  0.7439258236840517  0.5363371701981796
  0.5667928117830057  0.7439251911268859  0.5363381850118150
  0.4778007086387357  0.8724305975440516  0.4636584023566411
  0.5445692564534599  0.9109555837222297  0.4636601655435490
  0.5668155395941206  0.8724305975440516  0.4636584023566411
  0.5223069234002741  0.8980149531671285  0.5363371701981796
  0.5000606402596136  0.9365399393453068  0.5363389333850876
  0.5445572821642292  0.8594953746037681  0.5363389333850876
  0.5668143589291598  0.8980143206099629  0.5363381850118150
  0.5890658983580752  0.8339110189806914  0.4636601655435490
  0.6558196170276211  0.7953854002453475  0.4636594171702765
  0.6780807293134598  0.8339110189806914  0.4636601655435490
  0.6780727562030772  0.8081782589661540  0.5000000000000000
  0.6558076427383902  0.7439251911268859  0.5363381850118150
  0.6113002072095047  0.7439258236840517  0.5363371701981796
  0.5890539240688445  0.7824508098622297  0.5363389333850876
  0.6113110008337749  0.8209697558684246  0.5363381850118150
  0.6558183962602739  0.8209703884255900  0.5363371701981796
  0.6113229751230058  0.8724299649868857  0.4636594171702765
  0.6113217543556588  0.8980149531671285  0.5363371701981796
  0.5890754712149984  0.9365399393453068  0.5363389333850876
  0.6335721131196137  0.8594953746037681  0.5363389333850876
  0.6335840874088444  0.9109555837222297  0.4636601655435490
  0.6558303705495051  0.8724305975440516  0.4636584023566411
  0.6558291898845443  0.8980143206099629  0.5363381850118150
  0.4777875536845438  0.8465541114915014  0.6090169528533533
  0.5000311200030771  0.7567180498476922  0.5726787678415385
  0.4777767600602741  0.7695101793071285  0.6090159380397180
  0.5445493090538464  0.8337626145892310  0.5726787678415385
  0.5668023846399286  0.8465541114915014  0.6090169528533533
  0.5445453078749982  0.8080351654853067  0.6090177012266259
  0.5222841955891594  0.7695095467499629  0.6090169528533533
  0.4777755793953132  0.7950939023730396  0.6816957206948917
  0.5222829748218126  0.7950945349302057  0.6816947058812564
  0.5000366916811519  0.8336195211083836  0.6816964690681643
  0.5445333335857675  0.7565749563668452  0.6816964690681643
  0.5445373347646159  0.7823024054707691  0.6453575356830770
  0.5667904103506981  0.7950939023730396  0.6816957206948917
  0.5668131381618126  0.9235993087902055  0.6090159380397180
  0.5000486659703829  0.8850797302268451  0.6090177012266259
  0.4777983072064278  0.9235993087902055  0.6090159380397180
  0.5223057427353130  0.9235986762330398  0.6090169528533533
  0.5222949491110433  0.8465547440486669  0.6090159380397180
  0.4777863329171971  0.8721390996717440  0.6816947058812564
  0.5000406928600001  0.8593469702123078  0.6453575356830770
  0.5222937684460826  0.8721384671145782  0.6816957206948917
  0.5445548807319212  0.9106640858499221  0.6816964690681643
  0.5668011638725818  0.8721390996717440  0.6816947058812564
  0.6780607819138464  0.7567180498476922  0.5726787678415385
  0.6335641400092307  0.8337626145892310  0.5726787678415385
  0.5890459509584617  0.7567180498476922  0.5726787678415385
  0.6112990265445439  0.7695095467499629  0.6090169528533533
  0.6558172155953134  0.8465541114915014  0.6090169528533533
  0.6558064219710439  0.7695101793071285  0.6090159380397180
  0.6335601388303828  0.8080351654853067  0.6090177012266259
  0.6112978057771969  0.7950945349302057  0.6816947058812564
  0.5890515226365366  0.8336195211083836  0.6816964690681643
  0.6335481645411523  0.7565749563668452  0.6816964690681643
  0.6335521657200002  0.7823024054707691  0.6453575356830770
  0.6558052413060824  0.7950939023730396  0.6816957206948917
  0.6780663535919216  0.8336195211083836  0.6816964690681643
  0.5890634969257674  0.8850797302268451  0.6090177012266259
  0.6780783278811520  0.8850797302268451  0.6090177012266259
  0.6113097800664277  0.8465547440486669  0.6090159380397180
  0.6113205736906978  0.9235986762330398  0.6090169528533533
  0.5890674981046156  0.9108071793307692  0.5726787678415385
  0.5890555238153848  0.8593469702123078  0.6453575356830770
  0.6113085994014671  0.8721384671145782  0.6816957206948917
  0.6558159948279663  0.8721390996717440  0.6816947058812564
  0.6780703547707694  0.8593469702123078  0.6453575356830770
  0.1439478476030771  0.6537976316107693  0.7180363035246153
  0.1662009231891592  0.6665891285130399  0.7543744885364303
  0.1661901295648895  0.5895451963286671  0.7543734737227950
  0.1884404883288442  0.5510256177653067  0.7543752369097029
  0.1439438464242290  0.6280701825068451  0.7543752369097029
  0.1884444895076924  0.5767530668692307  0.7180363035246153
  0.2774593204630770  0.5767530668692307  0.7180363035246153
  0.2329626785584616  0.6537976316107693  0.7180363035246153
  0.2552049605202742  0.5895451963286671  0.7543734737227950
  0.2106975650937748  0.5895445637715014  0.7543744885364303
  0.2774553192842290  0.5510256177653067  0.7543752369097029
  0.2329586773796133  0.6280701825068451  0.7543752369097029
  0.2329507042692309  0.6023374224923077  0.7907150713661539
  0.2106963443264278  0.6151295519517440  0.8270522415643333
  0.2552037798553135  0.6151289193945784  0.8270532563779687
  0.1884660366538464  0.7308421963523078  0.7180363035246153
  0.2774808676092309  0.7308421963523078  0.7180363035246153
  0.2552157541445439  0.6665891285130399  0.7543744885364303
  0.2107083186156588  0.6665897610702054  0.7543734737227950
  0.1884620354749982  0.7051147472483836  0.7543752369097029
  0.2774768664303828  0.7051147472483836  0.7543752369097029
  0.2552145333771972  0.6921741166932824  0.8270522415643333
  0.2774688933200001  0.6793819872338461  0.7907150713661539
  0.3664741514184617  0.5767530668692307  0.7180363035246153
  0.3442197914756587  0.5895451963286671  0.7543734737227950
  0.2997123960491594  0.5895445637715014  0.7543744885364303
  0.3887272270045439  0.5895445637715014  0.7543744885364303
  0.3664701502396137  0.5510256177653067  0.7543752369097029
  0.3219735083349982  0.6280701825068451  0.7543752369097029
  0.3219655352246156  0.6023374224923077  0.7907150713661539
  0.3887260062371972  0.6151295519517440  0.8270522415643333
  0.2997111752818125  0.6151295519517440  0.8270522415643333
  0.3442186108106981  0.6151289193945784  0.8270532563779687
  0.3219775095138461  0.6537976316107693  0.7180363035246153
  0.3664956985646157  0.7308421963523078  0.7180363035246153
  0.3887379805264281  0.6665897610702054  0.7543734737227950
  0.2997231495710434  0.6665897610702054  0.7543734737227950
  0.3442305850999287  0.6665891285130399  0.7543744885364303
  0.2997219689060825  0.6921734841361168  0.8270532563779687
  0.3442293643325817  0.6921741166932824  0.8270522415643333
  0.3887367998614673  0.6921734841361168  0.8270532563779687
  0.3664837242753848  0.6793819872338461  0.7907150713661539
  0.3664916973857674  0.7051147472483836  0.7543752369097029
  0.2329467030903828  0.5766099733883837  0.8270540047512412
  0.2329387299800001  0.5508772133738461  0.8633938392076923
  0.2774569190307694  0.6279217781153846  0.8633938392076923
  0.2774648921411522  0.6536545381299221  0.8270540047512412
  0.3219615340457676  0.5766099733883837  0.8270540047512412
  0.3219535609353846  0.5508772133738461  0.8633938392076923
  0.3664717499861539  0.6279217781153846  0.8633938392076923
  0.3442173900433510  0.6407139075748207  0.8997310094058719
  0.2996992009925818  0.5636693428332824  0.8997310094058719
  0.3442066365214672  0.5636687102761168  0.8997320242195073
  0.3664677488073061  0.6021943290114605  0.8997327725927796
  0.3887248255722363  0.6407132750176551  0.8997320242195073
  0.3887140319479662  0.5636693428332824  0.8997310094058719
  0.3219751080815385  0.7049663428569231  0.8633938392076923
  0.3219830811919214  0.7306991028714606  0.8270540047512412
  0.3664797230965369  0.6536545381299221  0.8270540047512412
  0.2552265076664278  0.7436343258117438  0.7543734737227950
  0.2107191122399285  0.7436336932545784  0.7543744885364303
  0.3219950554811519  0.7821593119899219  0.7543752369097029
  0.3887487741506980  0.7436336932545784  0.7543744885364303
  0.3442413386218126  0.7436343258117438  0.7543734737227950
  0.2997339431953133  0.7436336932545784  0.7543744885364303
  0.2997446967171972  0.8206788905532825  0.7543734737227950
  0.3219990566600001  0.8078867610938463  0.7180363035246153
  0.3442521322460826  0.8206782579961167  0.7543744885364303
  0.3887595276725819  0.8206788905532825  0.7543734737227950
  0.3887475533833510  0.7692186814348209  0.8270522415643333
  0.3219870823707693  0.7564265519753846  0.7907150713661539
  0.3442401579568519  0.7692180488776552  0.8270532563779687
  0.3665132445319212  0.8592038767314605  0.7543752369097029
  0.4109803661800000  0.6023374224923077  0.7907150713661539
  0.4554849811949982  0.5510256177653067  0.7543752369097029
  0.4332346224310434  0.5895451963286671  0.7543734737227950
  0.4109883392903829  0.6280701825068451  0.7543752369097029
  0.4554889823738463  0.5767530668692307  0.7180363035246153
  0.5445038133292313  0.5767530668692307  0.7180363035246153
  0.5222494533864283  0.5895451963286671  0.7543734737227950
  0.4999951971353848  0.6023374224923077  0.7907150713661539
  0.4777420579599286  0.5895445637715014  0.7543744885364303
  0.5444998121503828  0.5510256177653067  0.7543752369097029
  0.5000031702457673  0.6280701825068451  0.7543752369097029
  0.4109683918907692  0.5508772133738461  0.8633938392076923
  0.4109763650011521  0.5766099733883837  0.8270540047512412
  0.4332334417660825  0.6151289193945784  0.8270532563779687
  0.4554865809415385  0.6279217781153846  0.8633938392076923
  0.4999911959565367  0.5766099733883837  0.8270540047512412
  0.5222482727214671  0.6151289193945784  0.8270532563779687
  0.4777408371925818  0.6151295519517440  0.8270522415643333
  0.5445014118969232  0.6279217781153846  0.8633938392076923
  0.4109923404692307  0.6537976316107693  0.7180363035246153
  0.4332454160553131  0.6665891285130399  0.7543744885364303
  0.4555065283411521  0.7051147472483836  0.7543752369097029
  0.4555105295200002  0.7308421963523078  0.7180363035246153
  0.5222602470106980  0.6665891285130399  0.7543744885364303
  0.5000071714246155  0.6537976316107693  0.7180363035246153
  0.4777528114818128  0.6665897610702054  0.7543734737227950
  0.4777636051060825  0.7436336932545784  0.7543744885364303
  0.4332441952879666  0.6921741166932824  0.8270522415643333
  0.4109979121473061  0.7306991028714606  0.8270540047512412
  0.4554945540519214  0.6536545381299221  0.8270540047512412
  0.4554985552307694  0.6793819872338461  0.7907150713661539
  0.4109899390369232  0.7049663428569231  0.8633938392076923
  0.4777516308168517  0.6921734841361168  0.8270532563779687
  0.5222590262433511  0.6921741166932824  0.8270522415643333
  0.5000127431026906  0.7306991028714606  0.8270540047512412
  0.5000047699923077  0.7049663428569231  0.8633938392076923
  0.5890100280907693  0.6023374224923077  0.7907150713661539
  0.5667568889153133  0.5895445637715014  0.7543744885364303
  0.6112642843418129  0.5895451963286671  0.7543734737227950
  0.5890180012011524  0.6280701825068451  0.7543752369097029
  0.6335186442846156  0.5767530668692307  0.7180363035246153
  0.6780248590461538  0.6023374224923077  0.7907150713661539
  0.6557717198706979  0.5895445637715014  0.7543744885364303
  0.6780328321565368  0.6280701825068451  0.7543752369097029
  0.6335146431057675  0.5510256177653067  0.7543752369097029
  0.5889980538015388  0.5508772133738461  0.8633938392076923
  0.5890060269119213  0.5766099733883837  0.8270540047512412
  0.5667556681479669  0.6151295519517440  0.8270522415643333
  0.6112631036768519  0.6151289193945784  0.8270532563779687
  0.6780208578673060  0.5766099733883837  0.8270540047512412
  0.6780128847569232  0.5508772133738461  0.8633938392076923
  0.6557704991033514  0.6151295519517440  0.8270522415643333
  0.6335162428523079  0.6279217781153846  0.8633938392076923
  0.6112750779660826  0.6665891285130399  0.7543744885364303
  0.5890220023800005  0.6537976316107693  0.7180363035246153
  0.5667676424371973  0.6665897610702054  0.7543734737227950
  0.5445213592965367  0.7051147472483836  0.7543752369097029
  0.5445253604753849  0.7308421963523078  0.7180363035246153
  0.5667784360614674  0.7436336932545784  0.7543744885364303
  0.6780368333353848  0.6537976316107693  0.7180363035246153
  0.6557824733925823  0.6665897610702054  0.7543734737227950
  0.6335361902519216  0.7051147472483836  0.7543752369097029
  0.6335401914307697  0.7308421963523078  0.7180363035246153
  0.5445133861861540  0.6793819872338461  0.7907150713661539
  0.5667664617722363  0.6921734841361168  0.8270532563779687
  0.5445093850073059  0.6536545381299221  0.8270540047512412
  0.5890275740580752  0.7306991028714606  0.8270540047512412
  0.5890196009476925  0.7049663428569231  0.8633938392076923
  0.6112738571987358  0.6921741166932824  0.8270522415643333
  0.6335282171415385  0.6793819872338461  0.7907150713661539
  0.6780424050134597  0.7306991028714606  0.8270540047512412
  0.6557812927276211  0.6921734841361168  0.8270532563779687
  0.4554825797626905  0.6021943290114605  0.8997327725927796
  0.4332214674768515  0.5636687102761168  0.8997320242195073
  0.4554746066523076  0.5764615689969230  0.9360726070492309
  0.5222362984322362  0.5636687102761168  0.8997320242195073
  0.4777288629033511  0.5636693428332824  0.8997310094058719
  0.5444894376076924  0.5764615689969230  0.9360726070492309
  0.4332322209987358  0.6407139075748207  0.8997310094058719
  0.4109859378580752  0.6792388937529991  0.8997327725927796
  0.4332430146230058  0.7177578397591936  0.8997320242195073
  0.4777396565276211  0.6407132750176551  0.8997320242195073
  0.5222470519541204  0.6407139075748207  0.8997310094058719
  0.5000007688134597  0.6792388937529991  0.8997327725927796
  0.4777504100495050  0.7177584723163594  0.8997310094058719
  0.5222578455783903  0.7177578397591936  0.8997320242195073
  0.6112511293876209  0.5636687102761168  0.8997320242195073
  0.5667436938587359  0.5636693428332824  0.8997310094058719
  0.5667544874830056  0.6407132750176551  0.8997320242195073
  0.5444974107180752  0.6021943290114605  0.8997327725927796
  0.6112618829095051  0.6407139075748207  0.8997310094058719
  0.6557585248141204  0.5636693428332824  0.8997310094058719
  0.6335122416734600  0.6021943290114605  0.8997327725927796
  0.5667652410048896  0.7177584723163594  0.8997310094058719
  0.5890155997688444  0.6792388937529991  0.8997327725927796
  0.4332669632014671  0.8206782579961167  0.7543744885364303
  0.4110098864365366  0.7821593119899219  0.7543752369097029
  0.4332561695771972  0.7436343258117438  0.7543734737227950
  0.4110138876153846  0.8078867610938463  0.7180363035246153
  0.4777743586279666  0.8206788905532825  0.7543734737227950
  0.5000287185707694  0.8078867610938463  0.7180363035246153
  0.5222710005325820  0.7436343258117438  0.7543734737227950
  0.5222817941568515  0.8206782579961167  0.7543744885364303
  0.5000247173919213  0.7821593119899219  0.7543752369097029
  0.4110019133261540  0.7564265519753846  0.7907150713661539
  0.4555201023769233  0.8334711167169230  0.7907150713661539
  0.4332549889122364  0.7692180488776552  0.8270532563779687
  0.4555161011980750  0.8077436676129991  0.8270540047512412
  0.5000167442815386  0.7564265519753846  0.7907150713661539
  0.4777623843387355  0.7692186814348209  0.8270522415643333
  0.5222698198676210  0.7692180488776552  0.8270532563779687
  0.4555320766661540  0.8849313258353847  0.7180363035246153
  0.4555280754873062  0.8592038767314605  0.7543752369097029
  0.5890395483473059  0.7821593119899219  0.7543752369097029
  0.6112858314879666  0.7436343258117438  0.7543734737227950
  0.5890435495261541  0.8078867610938463  0.7180363035246153
  0.5667891895833512  0.8206788905532825  0.7543734737227950
  0.6780543793026909  0.7821593119899219  0.7543752369097029
  0.6557932670168518  0.7436336932545784  0.7543744885364303
  0.6780583804815389  0.8078867610938463  0.7180363035246153
  0.6558040205387362  0.8206788905532825  0.7543734737227950
  0.6112966251122365  0.8206782579961167  0.7543744885364303
  0.5667772152941203  0.7692186814348209  0.8270522415643333
  0.5445349333323078  0.8334711167169230  0.7907150713661539
  0.5890315752369232  0.7564265519753846  0.7907150713661539
  0.6112846508230058  0.7692180488776552  0.8270532563779687
  0.5445309321534598  0.8077436676129991  0.8270540047512412
  0.6780464061923077  0.7564265519753846  0.7907150713661539
  0.6557920462495050  0.7692186814348209  0.8270522415643333
  0.5445469076215388  0.8849313258353847  0.7180363035246153
  0.5445429064426905  0.8592038767314605  0.7543752369097029
  0.6335577373980751  0.8592038767314605  0.7543752369097029
  0.4333040667341204  0.9494751622855900  0.4636584023566411
  0.4778115022630057  0.9494745297284244  0.4636594171702765
  0.5668263332183905  0.9494745297284244  0.4636594171702765
  0.5223188976895050  0.9494751622855900  0.4636584023566411
  0.7670788159873059  0.5774844670053065  0.1729450941773952
  0.7003210617968519  0.6160034130115013  0.1729443458041227
  0.7670708428769233  0.5517517069907693  0.2092849286338462
  0.7448164829341207  0.5645438364502056  0.2456220988320259
  0.7003090875076210  0.5645432038930398  0.2456231136456612
  0.7225582255042289  0.5516086135099221  0.3183026298604721
  0.7448153022691595  0.5901275595161168  0.3183018814871996
  0.7225701997934600  0.6030688226283837  0.2456238620189336
  0.7670764145549984  0.6286531782514604  0.3183026298604721
  0.7448272765583902  0.6415877686345782  0.2456231136456612
  0.7893239184630058  0.5645432038930398  0.2456231136456612
  0.7893358927522365  0.6160034130115013  0.1729443458041227
  0.8115890319276927  0.6287962717323076  0.2092849286338462
  0.8338313138895053  0.5645438364502056  0.2456220988320259
  0.8115770576384618  0.5773360626138461  0.2819636964753847
  0.8115730564596138  0.5516086135099221  0.3183026298604721
  0.8338301332245444  0.5901275595161168  0.3183018814871996
  0.7893226976956591  0.5901281920732824  0.3183008666735642
  0.8115850307488444  0.6030688226283837  0.2456238620189336
  0.8560912455103830  0.6286531782514604  0.3183026298604721
  0.7448392508476209  0.6930479777530398  0.1729443458041227
  0.7225821740826908  0.6545290317468452  0.1729450941773952
  0.7448380300802739  0.7186329659332824  0.2456220988320259
  0.7670804157338462  0.6543806273553846  0.2819636964753847
  0.7448260557910437  0.6671727568148209  0.3183008666735642
  0.7670883888442290  0.6801133873699220  0.2456238620189336
  0.7225797726503831  0.7056977429929989  0.3183026298604721
  0.7893346719848897  0.6415884011917440  0.2456220988320259
  0.8338421075137750  0.6415877686345782  0.2456231136456612
  0.7893454656091594  0.7186323333761168  0.2456231136456612
  0.7893334913199288  0.6671721242576552  0.3183018814871996
  0.8115946036057676  0.7056977429929989  0.3183026298604721
  0.8338408867464285  0.6671727568148209  0.3183008666735642
  0.8560952466892310  0.6543806273553846  0.2819636964753847
  0.7670644402657675  0.5771929691329990  0.3909813977020105
  0.7448140815018126  0.6157125476963594  0.3909796345151026
  0.7670684414446155  0.6029204182369230  0.3546424643169231
  0.7225558240719212  0.6027773247560759  0.4636601655435490
  0.7448021072125817  0.5642523385778978  0.4636584023566411
  0.7670564671553850  0.5514602091184616  0.4273212321584617
  0.7893215170306981  0.6157119151391938  0.3909806493287382
  0.8338289124571974  0.6157125476963594  0.3909796345151026
  0.8560792712211522  0.5771929691329990  0.3909813977020105
  0.8560832724000000  0.6029204182369230  0.3546424643169231
  0.8560712981107694  0.5514602091184616  0.4273212321584617
  0.8338169381679666  0.5642523385778978  0.4636584023566411
  0.7893095427414674  0.5642517060207322  0.4636594171702765
  0.7225677983611519  0.6542375338745373  0.3909813977020105
  0.7448248751260830  0.6927564798807322  0.3909806493287382
  0.7448129008368518  0.6412962707622705  0.4636594171702765
  0.7448236543587358  0.7183414680609748  0.4636584023566411
  0.7670780143015387  0.7055493386015385  0.4273212321584617
  0.8115826293165367  0.6542375338745373  0.3909813977020105
  0.8338397060814673  0.6927564798807322  0.3909806493287382
  0.8561008183673061  0.7312820986160758  0.3909813977020105
  0.8338277317922363  0.6412962707622705  0.4636594171702765
  0.8560888440780754  0.6798218894976145  0.4636601655435490
  0.8560928452569235  0.7055493386015385  0.4273212321584617
  0.8338384853141203  0.7183414680609748  0.4636584023566411
  0.7448488237045441  0.7956768981176551  0.2456231136456612
  0.7003413881756591  0.7956775306748208  0.2456220988320259
  0.7225917469396137  0.7571579521114606  0.2456238620189336
  0.7448368494153133  0.7442166889991937  0.3183018814871996
  0.7448476029371970  0.8212618862978979  0.3183008666735642
  0.8338516803706980  0.7442166889991937  0.3183018814871996
  0.7226013197965367  0.8597868724760760  0.3183026298604721
  0.7670899885907694  0.7570095477199998  0.3546424643169231
  0.7448356286479665  0.7698016771794363  0.3909796345151026
  0.7225893455073058  0.8083266633576143  0.3909813977020105
  0.7448464222722366  0.8468456093638091  0.3909806493287382
  0.7003389867433512  0.8468462419209747  0.3909796345151026
  0.7225773712180753  0.7568664542391528  0.4636601655435490
  0.7670955602688441  0.8339110189806914  0.4636601655435490
  0.8338504596033508  0.7698016771794363  0.3909796345151026
  0.8116041764626903  0.8083266633576143  0.3909813977020105
  0.8115922021734598  0.7568664542391528  0.4636601655435490
  0.7670995614476930  0.8596384680846154  0.4273212321584617
  0.7448452015048896  0.8724305975440516  0.4636584023566411
  0.7003378060783904  0.8724299649868857  0.4636594171702765
  0.7448009265476211  0.5898360616438090  0.5363381850118150
  0.7670660400123080  0.6540891294830770  0.5000000000000000
  0.7225438497826907  0.5513171156376144  0.5363389333850876
  0.7670500645442292  0.5769014712606914  0.6090177012266259
  0.7670540657230773  0.6026289203646155  0.5726787678415385
  0.7002923103537748  0.6154204172668859  0.6090169528533533
  0.7225534226396136  0.6539460360022298  0.6090177012266259
  0.8560808709676924  0.6540891294830770  0.5000000000000000
  0.8338157575030056  0.5898360616438090  0.5363381850118150
  0.8560768697888447  0.6283616803791529  0.5363389333850876
  0.8115586807380752  0.5513171156376144  0.5363389333850876
  0.8560648954996137  0.5769014712606914  0.6090177012266259
  0.8560688966784616  0.6026289203646155  0.5726787678415385
  0.8783219722645438  0.6154204172668859  0.6090169528533533
  0.7893071413091596  0.6154204172668859  0.6090169528533533
  0.8338145367356586  0.6154210498240515  0.6090159380397180
  0.8115682535949982  0.6539460360022298  0.6090177012266259
  0.7448116800695048  0.6668812589425133  0.5363371701981796
  0.7225653969288444  0.7054062451206912  0.5363389333850876
  0.7448224736937750  0.7439251911268859  0.5363381850118150
  0.7225574238184618  0.6796734851061537  0.5726787678415385
  0.7448104994045438  0.6924649820084244  0.6090169528533533
  0.7670716116903828  0.7309906007437681  0.6090177012266259
  0.7670756128692308  0.7567180498476922  0.5726787678415385
  0.8338265110248896  0.6668812589425133  0.5363371701981796
  0.8115802278842289  0.7054062451206912  0.5363389333850876
  0.8338373046491595  0.7439251911268859  0.5363381850118150
  0.8338253303599288  0.6924649820084244  0.6090169528533533
  0.8560864426457675  0.7309906007437681  0.6090177012266259
  0.8560904438246155  0.7567180498476922  0.5726787678415385
  0.7447877314910436  0.5639608407055900  0.6816947058812564
  0.7670420914338464  0.5511687112461539  0.6453575356830770
  0.7002803360645441  0.5639602081484244  0.6816957206948917
  0.7225454495292311  0.6282132759876922  0.6453575356830770
  0.7447985251153133  0.6410047728899629  0.6816957206948917
  0.7002910895864281  0.6410054054471286  0.6816947058812564
  0.7225334752400001  0.5767530668692307  0.7180363035246153
  0.7447865508260827  0.5895445637715014  0.7543744885364303
  0.7002791152971974  0.5895451963286671  0.7543734737227950
  0.7225414483503828  0.6024858268837683  0.6816964690681643
  0.7892951670199289  0.5639602081484244  0.6816957206948917
  0.8560569223892311  0.5511687112461539  0.6453575356830770
  0.8783099979753133  0.5639602081484244  0.6816957206948917
  0.8338025624464280  0.5639608407055900  0.6816947058812564
  0.8115602804846156  0.6282132759876922  0.6453575356830770
  0.8338133560706982  0.6410047728899629  0.6816957206948917
  0.8783207514971975  0.6410054054471286  0.6816947058812564
  0.7893059205418129  0.6410054054471286  0.6816947058812564
  0.8115483061953849  0.5767530668692307  0.7180363035246153
  0.8338013817814675  0.5895445637715014  0.7543744885364303
  0.7892939462525822  0.5895451963286671  0.7543734737227950
  0.8115562793057676  0.6024858268837683  0.6816964690681643
  0.7670596374011520  0.6795303916253066  0.6816964690681643
  0.7670636385800007  0.7052578407292307  0.6453575356830770
  0.7448092786371974  0.7180499701886670  0.6816947058812564
  0.7003018832106982  0.7180493376315014  0.6816957206948917
  0.7225629954965367  0.7565749563668452  0.6816964690681643
  0.7002899089214671  0.6665891285130399  0.7543744885364303
  0.7670516642907693  0.6537976316107693  0.7180363035246153
  0.7447973043479666  0.6665897610702054  0.7543734737227950
  0.7225550223861542  0.7308421963523078  0.7180363035246153
  0.7003006624433511  0.7436343258117438  0.7543734737227950
  0.7448080979722366  0.7436336932545784  0.7543744885364303
  0.8560744683565366  0.6795303916253066  0.6816964690681643
  0.8560784695353850  0.7052578407292307  0.6453575356830770
  0.8115778264519214  0.7565749563668452  0.6816964690681643
  0.7893167141660826  0.7180493376315014  0.6816957206948917
  0.8338241095925819  0.7180499701886670  0.6816947058812564
  0.7893047398768519  0.6665891285130399  0.7543744885364303
  0.8560664952461541  0.6537976316107693  0.7180363035246153
  0.8338121353033514  0.6665897610702054  0.7543734737227950
  0.8115698533415385  0.7308421963523078  0.7180363035246153
  0.7893154933987359  0.7436343258117438  0.7543734737227950
  0.7670875871584619  0.8081782589661540  0.5000000000000000
  0.7448332272156591  0.8209703884255900  0.5363371701981796
  0.7225869440749985  0.8594953746037681  0.5363389333850876
  0.7225749697857675  0.8080351654853067  0.6090177012266259
  0.7448212529264280  0.7695101793071285  0.6090159380397180
  0.7225789709646157  0.8337626145892310  0.5726787678415385
  0.7003246110218129  0.8465547440486669  0.6090159380397180
  0.7448320465506979  0.8465541114915014  0.6090169528533533
  0.7893406627445442  0.8209697558684246  0.5363381850118150
  0.7893286884553130  0.7695095467499629  0.6090169528533533
  0.8115898007411522  0.8080351654853067  0.6090177012266259
  0.8338360838818127  0.7695101793071285  0.6090159380397180
  0.7225909452538464  0.8852228237076923  0.5000000000000000
  0.7003365853110434  0.8980149531671285  0.5363371701981796
  0.7225669966753849  0.7823024054707691  0.6453575356830770
  0.7003126367325820  0.7950945349302057  0.6816947058812564
  0.7448200722614673  0.7950939023730396  0.6816957206948917
  0.7003114560676210  0.8206782579961167  0.7543744885364303
  0.7003234303568517  0.8721384671145782  0.6816957206948917
  0.8115818276307697  0.7823024054707691  0.6453575356830770
  0.7893274676879668  0.7950945349302057  0.6816947058812564
  0.8783387494183903  0.5645432038930398  0.2456231136456612
  0.8783375286510434  0.5901281920732824  0.3183008666735642
  0.9005878874149983  0.5516086135099221  0.3183026298604721
  0.8783363479860828  0.6157119151391938  0.3909806493287382
  0.9228437434125821  0.6157125476963594  0.3909796345151026
  0.9228317691233512  0.5642523385778978  0.4636584023566411
  0.9005894871615386  0.6285047738600000  0.4273212321584617
  0.8783243736968519  0.5642517060207322  0.4636594171702765
  0.8783351272187359  0.6412969033194363  0.4636584023566411
  0.9005854859826907  0.6027773247560759  0.4636601655435490
  0.9450861290661542  0.5514602091184616  0.4273212321584617
  0.9228425627476211  0.6412962707622705  0.4636594171702765
  0.8783483222753136  0.6671721242576552  0.3183018814871996
  0.8783471015079666  0.6927571124378977  0.3909796345151026
  0.9005974602719210  0.6542375338745373  0.3909813977020105
  0.8783459208430058  0.7183408355038090  0.4636594171702765
  0.9005735116934600  0.5513171156376144  0.5363389333850876
  0.8783231529295047  0.5898366942009746  0.5363371701981796
  0.9005775128723079  0.5770445647415385  0.5000000000000000
  0.9228305884583904  0.5898360616438090  0.5363381850118150
  0.9228293676910435  0.6154210498240515  0.6090159380397180
  0.9005950588396139  0.7054062451206912  0.5363389333850876
  0.9228413419802743  0.6668812589425133  0.5363371701981796
  0.8783339465537748  0.6668806263853476  0.5363381850118150
  0.9005751114400004  0.6282132759876922  0.6453575356830770
  0.9005711102611523  0.6024858268837683  0.6816964690681643
  0.9005830845503828  0.6539460360022298  0.6090177012266259
  0.7670476631119213  0.6280701825068451  0.7543752369097029
  0.7225294740611521  0.5510256177653067  0.7543752369097029
  0.7670396900015386  0.6023374224923077  0.7907150713661539
  0.7670356888226906  0.5766099733883837  0.8270540047512412
  0.7447853300587357  0.6151295519517440  0.8270522415643333
  0.7002779346322364  0.6151289193945784  0.8270532563779687
  0.7002659603430057  0.5636687102761168  0.8997320242195073
  0.7670277157123080  0.5508772133738461  0.8633938392076923
  0.7225310738076924  0.6279217781153846  0.8633938392076923
  0.8560624940673061  0.6280701825068451  0.7543752369097029
  0.8115443050165368  0.5510256177653067  0.7543752369097029
  0.7892927655876212  0.6151289193945784  0.8270532563779687
  0.7447961236830056  0.6921734841361168  0.8270532563779687
  0.7225430480969233  0.6793819872338461  0.7907150713661539
  0.7002886881541204  0.6921741166932824  0.8270522415643333
  0.7225510212073060  0.7051147472483836  0.7543752369097029
  0.7225390469180752  0.6536545381299221  0.8270540047512412
  0.8115658521626905  0.7051147472483836  0.7543752369097029
  0.3219655680969230  0.2950336571430768  0.1366061607923074
  0.3442078500587358  0.2307812218609745  0.1729433309904872
  0.2107179243448897  0.4619149160855901  0.1729433309904872
  0.2329722842876929  0.4491227866261538  0.1366061607923074
  0.3442306179722361  0.3592853631638091  0.1002655779625840
  0.3664917302580752  0.3978109818991529  0.1002663263358568
  0.2774689261923080  0.3720782218846154  0.1366061607923074
  0.2997112081541204  0.3078257866025131  0.1729433309904872
  0.3442293972048896  0.3848703513440516  0.1729433309904872
  0.3664837571476928  0.3720782218846154  0.1366061607923074
  0.2997339760676212  0.4363299279053475  0.1002655779625840
  0.3219871152430770  0.4491227866261538  0.1366061607923074
  0.3442413714941203  0.4363305604625132  0.1002645631489489
  0.2774904733384621  0.5261673513676922  0.1366061607923074
  0.2997327553002743  0.4619149160855901  0.1729433309904872
  0.2997447295895048  0.5133751252040517  0.1002645631489489
  0.3442521651183904  0.5133744926468862  0.1002655779625840
  0.3219950883534599  0.4748555466406913  0.1002663263358568
  0.4332226810141201  0.2307812218609745  0.1729433309904872
  0.3887260391095049  0.3078257866025131  0.1729433309904872
  0.4109803990523078  0.2950336571430768  0.1366061607923074
  0.4332346553033512  0.2822414309794362  0.1002645631489489
  0.4777408700648896  0.3078257866025131  0.1729433309904872
  0.4777420908322359  0.2822407984222705  0.1002655779625840
  0.5222375119695045  0.2307812218609745  0.1729433309904872
  0.5222494862587356  0.2822414309794362  0.1002645631489489
  0.4999952300076925  0.2950336571430768  0.1366061607923074
  0.6112523429248888  0.2307812218609745  0.1729433309904872
  0.5667569217876210  0.2822407984222705  0.1002655779625840
  0.5890100609630773  0.2950336571430768  0.1366061607923074
  0.5667557010202744  0.3078257866025131  0.1729433309904872
  0.4555105623923081  0.4235384310030770  0.0639273929507692
  0.4777528443541201  0.3592859957209747  0.1002645631489489
  0.4332454489276211  0.3592853631638091  0.1002655779625840
  0.3887380133987359  0.3592859957209747  0.1002645631489489
  0.4332442281602744  0.3848703513440516  0.1729433309904872
  0.4109883721626905  0.3207664171576144  0.1002663263358568
  0.4554985881030772  0.3720782218846154  0.1366061607923074
  0.5000032031180751  0.3207664171576144  0.1002663263358568
  0.4555065612134601  0.3978109818991529  0.1002663263358568
  0.3887488070230056  0.4363299279053475  0.1002655779625840
  0.3887595605448895  0.5133751252040517  0.1002645631489489
  0.4110139204876925  0.5005829957446154  0.0639273929507692
  0.4110099193088442  0.4748555466406913  0.1002663263358568
  0.4332562024495049  0.4363305604625132  0.1002645631489489
  0.4332669960737748  0.5133744926468862  0.1002655779625840
  0.4777743915002742  0.5133751252040517  0.1002645631489489
  0.4777636379783902  0.4363299279053475  0.1002655779625840
  0.3887475862556588  0.4619149160855901  0.1729433309904872
  0.3665053042938462  0.5261673513676922  0.1366061607923074
  0.4110019461984620  0.4491227866261538  0.1366061607923074
  0.4555201352492313  0.5261673513676922  0.1366061607923074
  0.4777624172110432  0.4619149160855901  0.1729433309904872
  0.5445213921688444  0.3978109818991529  0.1002663263358568
  0.5222602798830057  0.3592853631638091  0.1002655779625840
  0.5445134190584615  0.3720782218846154  0.1366061607923074
  0.5222590591156588  0.3848703513440516  0.1729433309904872
  0.5445253933476925  0.4235384310030770  0.0639273929507692
  0.5667676753095049  0.3592859957209747  0.1002645631489489
  0.6112751108383901  0.3592853631638091  0.1002655779625840
  0.5890180340734595  0.3207664171576144  0.1002663263358568
  0.6112738900710436  0.3848703513440516  0.1729433309904872
  0.5000247502642289  0.4748555466406913  0.1002663263358568
  0.5000287514430769  0.5005829957446154  0.0639273929507692
  0.5222818270291595  0.5133744926468862  0.1002655779625840
  0.5222710334048893  0.4363305604625132  0.1002645631489489
  0.5667784689337749  0.4363299279053475  0.1002655779625840
  0.5667892224556585  0.5133751252040517  0.1002645631489489
  0.5890395812196136  0.4748555466406913  0.1002663263358568
  0.5890435823984617  0.5005829957446154  0.0639273929507692
  0.5000167771538464  0.4491227866261538  0.1366061607923074
  0.5445349662046156  0.5261673513676922  0.1366061607923074
  0.5667772481664285  0.4619149160855901  0.1729433309904872
  0.5890316081092307  0.4491227866261538  0.1366061607923074
  0.6780248919184616  0.2950336571430768  0.1366061607923074
  0.6557705319756587  0.3078257866025131  0.1729433309904872
  0.6335362231242287  0.3978109818991529  0.1002663263358568
  0.6335282500138463  0.3720782218846154  0.1366061607923074
  0.6557825062648897  0.3592859957209747  0.1002645631489489
  0.7002887210264279  0.3848703513440516  0.1729433309904872
  0.7225430809692306  0.3720782218846154  0.1366061607923074
  0.6112858643602741  0.4363305604625132  0.1002645631489489
  0.6557920791218128  0.4619149160855901  0.1729433309904872
  0.6557932998891594  0.4363299279053475  0.1002655779625840
  0.7003006953156589  0.4363305604625132  0.1002645631489489
  0.6780464390646155  0.4491227866261538  0.1366061607923074
  0.6112966579845442  0.5133744926468862  0.1002655779625840
  0.6335497971599999  0.5261673513676922  0.1366061607923074
  0.6780544121749984  0.4748555466406913  0.1002663263358568
  0.7225646281153847  0.5261673513676922  0.1366061607923074
  0.7003114889399290  0.5133744926468862  0.1002655779625840
  0.7447853629310435  0.3078257866025131  0.1729433309904872
  0.7893035519818127  0.3848703513440516  0.1729433309904872
  0.7670612700200007  0.4491227866261538  0.1366061607923074
  0.7448069100771971  0.4619149160855901  0.1729433309904872
  0.2107394714910434  0.6160040455686669  0.1729433309904872
  0.2552361133956587  0.5389594808271284  0.1729433309904872
  0.2774984464488443  0.5519001113822298  0.1002663263358568
  0.2552576605418128  0.6930486103102055  0.1729433309904872
  0.3442629186402744  0.5904196899455901  0.1002645631489489
  0.2997555232137747  0.5904190573884244  0.1002655779625840
  0.3887703541691594  0.5904190573884244  0.1002655779625840
  0.2997543024464281  0.6160040455686669  0.1729433309904872
  0.3220086623892313  0.6032119161092308  0.1366061607923074
  0.3442509443510437  0.5389594808271284  0.1729433309904872
  0.3665132774042291  0.5519001113822298  0.1002663263358568
  0.3887691334018127  0.6160040455686669  0.1729433309904872
  0.3220166354996140  0.6289446761237683  0.1002663263358568
  0.3442737122645441  0.6674636221299629  0.1002655779625840
  0.3665268514400003  0.6802564808507693  0.1366061607923074
  0.3887811076910436  0.6674642546871286  0.1002645631489489
  0.4332777495956585  0.5904196899455901  0.1002645631489489
  0.4555321095384618  0.5776275604861540  0.0639273929507692
  0.4777851851245439  0.5904190573884244  0.1002655779625840
  0.4332657753064280  0.5389594808271284  0.1729433309904872
  0.4110234933446156  0.6032119161092308  0.1366061607923074
  0.4555281083596133  0.5519001113822298  0.1002663263358568
  0.4777839643571978  0.6160040455686669  0.1729433309904872
  0.5000383243000005  0.6032119161092308  0.1366061607923074
  0.4332873224525819  0.6930486103102055  0.1729433309904872
  0.4332885432199287  0.6674636221299629  0.1002655779625840
  0.4555416823953850  0.6802564808507693  0.1366061607923074
  0.4555496555057674  0.7059892408653067  0.1002663263358568
  0.4777959386464274  0.6674642546871286  0.1002645631489489
  0.5000462974103830  0.6289446761237683  0.1002663263358568
  0.3887906805479670  0.7700931750517440  0.1729433309904872
  0.4110450404907693  0.7573010455923076  0.1366061607923074
  0.4778055115033515  0.7700931750517440  0.1729433309904872
  0.5445469404938461  0.5776275604861540  0.0639273929507692
  0.6113074115064282  0.5904196899455901  0.1002645631489489
  0.5222925805510434  0.5904196899455901  0.1002645631489489
  0.5445429393149985  0.5519001113822298  0.1002663263358568
  0.5222806062618129  0.5389594808271284  0.1729433309904872
  0.5667987953125821  0.6160040455686669  0.1729433309904872
  0.5668000160799287  0.5904190573884244  0.1002655779625840
  0.5890531552553848  0.6032119161092308  0.1366061607923074
  0.6112954372171973  0.5389594808271284  0.1729433309904872
  0.5223033741753131  0.6674636221299629  0.1002655779625840
  0.5668107696018126  0.6674642546871286  0.1002645631489489
  0.5890611283657677  0.6289446761237683  0.1002663263358568
  0.5445644864611517  0.7059892408653067  0.1002663263358568
  0.5445565133507693  0.6802564808507693  0.1366061607923074
  0.5223021534079666  0.6930486103102055  0.1729433309904872
  0.5000598714461537  0.7573010455923076  0.1366061607923074
  0.5668203424587358  0.7700931750517440  0.1729433309904872
  0.5890747024015385  0.7573010455923076  0.1366061607923074
  0.6558148470353135  0.5904190573884244  0.1002655779625840
  0.6335577702703833  0.5519001113822298  0.1002663263358568
  0.6558136262679665  0.6160040455686669  0.1729433309904872
  0.6780679862107692  0.6032119161092308  0.1366061607923074
  0.7225726012257676  0.5519001113822298  0.1002663263358568
  0.7003102681725820  0.5389594808271284  0.1729433309904872
  0.7003222424618125  0.5904196899455901  0.1002645631489489
  0.6780759593211525  0.6289446761237683  0.1002663263358568
  0.7893250991279663  0.5389594808271284  0.1729433309904872
  0.7448284572233508  0.6160040455686669  0.1729433309904872
  0.6558256005571974  0.6674642546871286  0.1002645631489489
  0.6335713443061545  0.6802564808507693  0.1366061607923074
  0.6113182051306979  0.6674636221299629  0.1002655779625840
  0.6113169843633509  0.6930486103102055  0.1729433309904872
  0.7003318153187357  0.6930486103102055  0.1729433309904872
  0.6558351734141206  0.7700931750517440  0.1729433309904872
  0.1439741976138462  0.7055493386015385  0.4273212321584617
  0.0772016486202741  0.6412969033194363  0.4636584023566411
  0.1217078633818127  0.6668812589425133  0.5363371701981796
  0.1217186570060826  0.7439251911268859  0.5363381850118150
  0.2329866271369231  0.7567180498476922  0.5726787678415385
  0.0994615802411522  0.7054062451206912  0.5363389333850876
  0.1662140781433510  0.6924656145655900  0.6090159380397180
  0.1217198376710433  0.7183414680609748  0.4636584023566411
  0.2329986014261540  0.8081782589661540  0.5000000000000000
  0.1439797692919214  0.7824508098622297  0.5363389333850876
  0.2107322671941203  0.7695101793071285  0.6090159380397180
  0.2107442414833510  0.8209703884255900  0.5363371701981796
  0.3220230052384617  0.9108071793307692  0.5726787678415385
  0.0994344614169233  0.4744156443769231  0.4273212321584617
  0.1439406761784617  0.5000000000000000  0.5000000000000000
  0.0771681271848895  0.4357475647178978  0.5363371701981796
  0.0771789208091594  0.5127914969022705  0.5363381850118150
  0.1884468909400002  0.5255843556230769  0.5726787678415385
  0.1439526504676925  0.5514602091184616  0.4273212321584617
  0.0771801014741204  0.4872077738363594  0.4636584023566411
  0.0771908950983902  0.5642517060207322  0.4636594171702765
  0.2329650799907693  0.6026289203646155  0.5726787678415385
  0.0994400330949982  0.5513171156376144  0.5363389333850876
  0.1661925309971973  0.5383764850825132  0.6090159380397180
  0.1439646247569232  0.6029204182369230  0.3546424643169231
  0.1217090841491595  0.6412962707622705  0.4636594171702765
  0.2329770542800002  0.6540891294830770  0.5000000000000000
  0.0994520073842291  0.6027773247560759  0.4636601655435490
  0.1662045052864280  0.5898366942009746  0.5363371701981796
  0.1439765990461538  0.6543806273553846  0.2819636964753847
  0.1217102648141202  0.6157125476963594  0.3909796345151026
  0.1217210584383903  0.6927564798807322  0.3909806493287382
  0.2329890285692307  0.7055493386015385  0.4273212321584617
  0.0994639816734598  0.6542375338745373  0.3909813977020105
  0.2107226943371972  0.6668812589425133  0.5363371701981796
  0.2107334879614671  0.7439251911268859  0.5363381850118150
  0.3220014580923077  0.7567180498476922  0.5726787678415385
  0.1884764111965363  0.7054062451206912  0.5363389333850876
  0.1217222391033511  0.6671727568148209  0.3183008666735642
  0.2330010028584616  0.7570095477199998  0.3546424643169231
  0.2107346686264280  0.7183414680609748  0.4636584023566411
  0.2107454622506980  0.7953854002453475  0.4636594171702765
  0.3220134323815387  0.8081782589661540  0.5000000000000000
  0.1884883854857675  0.7568664542391528  0.4636601655435490
  0.2997470981495050  0.7695101793071285  0.6090159380397180
  0.2107466429156586  0.7698016771794363  0.3909796345151026
  0.3220254066707693  0.8596384680846154  0.4273212321584617
  0.1885003597749983  0.8083266633576143  0.3909813977020105
  0.2552636513014672  0.8724299649868857  0.4636594171702765
  0.2330065745365366  0.8339110189806914  0.4636601655435490
  0.2997590724387356  0.8209703884255900  0.5363371701981796
  0.4110378361938462  0.9108071793307692  0.5726787678415385
  0.2775127892980749  0.8594953746037681  0.5363389333850876
  0.0771705286171969  0.3845788534717439  0.3909796345151026
  0.0771813222414672  0.4616227856561167  0.3909806493287382
  0.1884492923723078  0.4744156443769231  0.4273212321584617
  0.2329555071338462  0.5000000000000000  0.5000000000000000
  0.0994304602380753  0.4486881952729990  0.4636601655435490
  0.1661829581402743  0.4357475647178978  0.5363371701981796
  0.1661937517645440  0.5127914969022705  0.5363381850118150
  0.2106891729018126  0.4613319203409747  0.6090159380397180
  0.0771932965306979  0.5130829947745783  0.3183018814871996
  0.1661949324295051  0.4872077738363594  0.4636584023566411
  0.1662057260537750  0.5642517060207322  0.4636594171702765
  0.2774736961846154  0.5770445647415385  0.5000000000000000
  0.1884548640503828  0.5513171156376144  0.5363389333850876
  0.1884732409507693  0.5773360626138461  0.2819636964753847
  0.0994544088165367  0.5516086135099221  0.3183026298604721
  0.2107239151045442  0.6412962707622705  0.4636594171702765
  0.3219918852353846  0.6540891294830770  0.5000000000000000
  0.1884668383396137  0.6027773247560759  0.4636601655435490
  0.2552193362418124  0.5898366942009746  0.5363371701981796
  0.1884852152399999  0.6287962717323076  0.2092849286338462
  0.2329914300015385  0.6543806273553846  0.2819636964753847
  0.1662188810079664  0.5901281920732824  0.3183008666735642
  0.2107250957695047  0.6157125476963594  0.3909796345151026
  0.2107358893937749  0.6927564798807322  0.3909806493287382
  0.3220038595246154  0.7055493386015385  0.4273212321584617
  0.1884788126288444  0.6542375338745373  0.3909813977020105
  0.2997375252925817  0.6668812589425133  0.5363371701981796
  0.2997483189168517  0.7439251911268859  0.5363381850118150
  0.2774912421519211  0.7054062451206912  0.5363389333850876
  0.3442437400541203  0.6924656145655900  0.6090159380397180
  0.2330034042907692  0.7058408364738461  0.2092849286338462
  0.2107370700587358  0.6671727568148209  0.3183008666735642
  0.2107478636830057  0.7442166889991937  0.3183018814871996
  0.3220158338138463  0.7570095477199998  0.3546424643169231
  0.1884907869180752  0.7056977429929989  0.3183026298604721
  0.2997494995818125  0.7183414680609748  0.4636584023566411
  0.2997602932060826  0.7953854002453475  0.4636594171702765
  0.4110282633369232  0.8081782589661540  0.5000000000000000
  0.2775032164411523  0.7568664542391528  0.4636601655435490
  0.3887619291048898  0.7695101793071285  0.6090159380397180
  0.2107490443479663  0.7186329659332824  0.2456220988320259
  0.2552660527337749  0.8212612537407321  0.3183018814871996
  0.3665340228646154  0.8340541124615384  0.3546424643169231
  0.2997614738710432  0.7698016771794363  0.3909796345151026
  0.4110402376261539  0.8596384680846154  0.4273212321584617
  0.2775151907303828  0.8083266633576143  0.3909813977020105
  0.3442784822568518  0.8724299649868857  0.4636594171702765
  0.3887739033941203  0.8209703884255900  0.5363371701981796
  0.5000526671492312  0.9108071793307692  0.5726787678415385
  0.3665276202534599  0.8594953746037681  0.5363389333850876
  0.2107131214802741  0.5642523385778978  0.4636584023566411
  0.1439717961815386  0.7567180498476922  0.5726787678415385
  0.0549258452230771  0.5000000000000000  0.5000000000000000
  0.0549378195123079  0.5514602091184616  0.4273212321584617
  0.1439502490353848  0.6026289203646155  0.5726787678415385
  0.0771777000418126  0.5383764850825132  0.6090159380397180
  0.1439622233246155  0.6540891294830770  0.5000000000000000
  0.0771896743310433  0.5898366942009746  0.5363371701981796
  0.1216791448110433  0.3589944978486670  0.3183008666735642
  0.1661853595725817  0.3845788534717439  0.3909796345151026
  0.1661961531968516  0.4616227856561167  0.3909806493287382
  0.1439390764319214  0.4231038396499220  0.3909813977020105
  0.2106915743341203  0.4101632090948208  0.4636584023566411
  0.2107023679583901  0.4872071412791936  0.4636594171702765
  0.3219703380892309  0.5000000000000000  0.5000000000000000
  0.4332765689306979  0.6160034130115013  0.1729443458041227
  0.5445445390615387  0.6287962717323076  0.2092849286338462
  0.4110194921657674  0.5774844670053065  0.1729450941773952
  0.5222782048295049  0.5901281920732824  0.3183008666735642
  0.5222889984537749  0.6671721242576552  0.3183018814871996
  0.6335569685846154  0.6799649829784614  0.3546424643169231
  0.6112906343525818  0.6412969033194363  0.4636584023566411
  0.7225693981076925  0.7311336942246155  0.5000000000000000
  0.6557968491141205  0.6668812589425133  0.5363371701981796
  0.7003030638756588  0.6924656145655900  0.6090159380397180
  0.5222901791187359  0.6415884011917440  0.2456220988320259
  0.5223009727430058  0.7186323333761168  0.2456231136456612
  0.6335689428738466  0.7314251920969232  0.2819636964753847
  0.5000438959780752  0.6801133873699220  0.2456238620189336
  0.6113026086418127  0.6927571124378977  0.3909796345151026
  0.7225813723969231  0.7825939033430769  0.4273212321584617
  0.5890563255011521  0.7312820986160758  0.3909813977020105
  0.6558088234033510  0.7183414680609748  0.4636584023566411
  0.6335625402626905  0.7568664542391528  0.4636601655435490
  0.7003150381648897  0.7439258236840517  0.5363371701981796
  0.7003258317891594  0.8209697558684246  0.5363381850118150
  0.5223129470322365  0.7700925424945783  0.1729443458041227
  0.6335809171630775  0.7828854012153845  0.2092849286338462
  0.5000558702673059  0.7315735964883835  0.1729450941773952
  0.6780871319246156  0.8084697568384616  0.2819636964753847
  0.7225933466861540  0.8340541124615384  0.3546424643169231
  0.7003270124541200  0.7953860328025131  0.4636584023566411
  0.3887368327337750  0.3848697187868859  0.1729443458041227
  0.4332322538710434  0.3334101422255901  0.2456220988320259
  0.5445110176261541  0.4232469331307693  0.2819636964753847
  0.5222446833941199  0.3845788534717439  0.3909796345151026
  0.5222554770183905  0.4616227856561167  0.3909806493287382
  0.6335234471492310  0.4744156443769231  0.4273212321584617
  0.5667508981556587  0.4101632090948208  0.4636584023566411
  0.5445046150149983  0.4486881952729990  0.4636601655435490
  0.7225358766723079  0.5255843556230769  0.5726787678415385
  0.5890108297765370  0.4742725508960760  0.5363389333850876
  0.5445229919153849  0.4747071422492308  0.2092849286338462
  0.4777504429218128  0.4104547069671287  0.2456220988320259
  0.5222566576833513  0.4360390625902055  0.3183008666735642
  0.5222674513076212  0.5130829947745783  0.3183018814871996
  0.6335354214384618  0.5258758534953845  0.3546424643169231
  0.5000103745426904  0.4745640487683837  0.3183026298604721
  0.6112798808306978  0.5642517060207322  0.4636594171702765
  0.7225478509615388  0.5770445647415385  0.5000000000000000
  0.5890228040657672  0.5257327600145376  0.4636601655435490
  0.6557753019679664  0.5127921294594363  0.5363371701981796
  0.7002815167295051  0.5383764850825132  0.6090159380397180
  0.4555161340703828  0.5004399022637682  0.1729450941773952
  0.5222686319725822  0.4874992717086670  0.2456220988320259
  0.5222794255968517  0.5645432038930398  0.2456231136456612
  0.6335473957276927  0.5773360626138461  0.2819636964753847
  0.5000223488319213  0.5260242578868450  0.2456238620189336
  0.6112810614956586  0.5386679829548209  0.3909796345151026
  0.6112918551199289  0.6157119151391938  0.3909806493287382
  0.7225598252507697  0.6285047738600000  0.4273212321584617
  0.5890347783549982  0.5771929691329990  0.3909813977020105
  0.7002934910187356  0.5898366942009746  0.5363371701981796
  0.7003042846430058  0.6668806263853476  0.5363381850118150
  0.8115722547738463  0.6796734851061537  0.5726787678415385
  0.6780472078780754  0.6283616803791529  0.5363389333850876
  0.7447997057802741  0.6154210498240515  0.6090159380397180
  0.5222913998860826  0.6160034130115013  0.1729443458041227
  0.6335593700169232  0.6287962717323076  0.2092849286338462
  0.5000343231211520  0.5774844670053065  0.1729450941773952
  0.6112930357848897  0.5901281920732824  0.3183008666735642
  0.6113038294091596  0.6671721242576552  0.3183018814871996
  0.7225717995400002  0.6799649829784614  0.3546424643169231
  0.5890467526442290  0.6286531782514604  0.3183026298604721
  0.7003054653079666  0.6412969033194363  0.4636584023566411
  0.7003162589322369  0.7183408355038090  0.4636594171702765
  0.8115842290630773  0.7311336942246155  0.5000000000000000
  0.6780591821673061  0.6798218894976145  0.4636601655435490
  0.7893178948310435  0.6924656145655900  0.6090159380397180
  0.6113050100741206  0.6415884011917440  0.2456220988320259
  0.6113158036983901  0.7186323333761168  0.2456231136456612
  0.7225837738292309  0.7314251920969232  0.2819636964753847
  0.5890587269334597  0.6801133873699220  0.2456238620189336
  0.7003174395971975  0.6927571124378977  0.3909796345151026
  0.7003282332214674  0.7698010446222706  0.3909806493287382
  0.8115962033523082  0.7825939033430769  0.4273212321584617
  0.6780711564565368  0.7312820986160758  0.3909813977020105
  0.7448344479830059  0.7953854002453475  0.4636594171702765
  0.7893298691202740  0.7439258236840517  0.5363371701981796
  0.7670835859796138  0.7824508098622297  0.5363389333850876
  0.6113277779876211  0.7700925424945783  0.1729443458041227
  0.5890707012226905  0.7315735964883835  0.1729450941773952
  0.7003294138864280  0.7442173215563593  0.3183008666735642
  0.7003402075106980  0.8212612537407321  0.3183018814871996
  0.7893418434095050  0.7953860328025131  0.4636584023566411
  0.5222470848264281  0.3334101422255901  0.2456220988320259
  0.5222578784506980  0.4104540744099628  0.2456231136456612
  0.6335258485815386  0.4232469331307693  0.2819636964753847
  0.5000008016857674  0.3719351284037682  0.2456238620189336
  0.6112595143495049  0.3845788534717439  0.3909796345151026
  0.6112703079737752  0.4616227856561167  0.3909806493287382
  0.7225382781046158  0.4744156443769231  0.4273212321584617
  0.5890132312088442  0.4231038396499220  0.3909813977020105
  0.6557765227353134  0.4872071412791936  0.4636594171702765
  0.6780256607319213  0.4742725508960760  0.5363389333850876
  0.5222698527399290  0.4619142835284245  0.1729443458041227
  0.6335378228707695  0.4747071422492308  0.2092849286338462
  0.6112714886387358  0.4360390625902055  0.3183008666735642
  0.7225502523938463  0.5258758534953845  0.3546424643169231
  0.5890252054980754  0.4745640487683837  0.3183026298604721
  0.8115626819169232  0.5770445647415385  0.5000000000000000
  0.6780376350211522  0.5257327600145376  0.4636601655435490
  0.7447901329233512  0.5127921294594363  0.5363371701981796
  0.7892963476848894  0.5383764850825132  0.6090159380397180
  0.6112834629279668  0.4874992717086670  0.2456220988320259
  0.6112942565522365  0.5645432038930398  0.2456231136456612
  0.7225622266830770  0.5773360626138461  0.2819636964753847
  0.7002958924510434  0.5386679829548209  0.3909796345151026
  0.7003066860753138  0.6157119151391938  0.3909806493287382
  0.8115746562061542  0.6285047738600000  0.4273212321584617
  0.6780496093103827  0.5771929691329990  0.3909813977020105
  0.7893083219741204  0.5898366942009746  0.5363371701981796
  0.7893191155983903  0.6668806263853476  0.5363381850118150
  0.9005870857292309  0.6796734851061537  0.5726787678415385
  0.7670620388334597  0.6283616803791529  0.5363389333850876
  0.6113062308414674  0.6160034130115013  0.1729443458041227
  0.5890491540765368  0.5774844670053065  0.1729450941773952
  0.7003078667402740  0.5901281920732824  0.3183008666735642
  0.7003186603645442  0.6671721242576552  0.3183018814871996
  0.8115866304953847  0.6799649829784614  0.3546424643169231
  0.6780615835996135  0.6286531782514604  0.3183026298604721
  0.7893202962633513  0.6412969033194363  0.4636584023566411
  0.7893310898876212  0.7183408355038090  0.4636594171702765
  0.7670740131226906  0.6798218894976145  0.4636601655435490
  0.8783327257864280  0.6924656145655900  0.6090159380397180
  0.7670923900230772  0.7058408364738461  0.2092849286338462
  0.7003198410295050  0.6415884011917440  0.2456220988320259
  0.7003306346537751  0.7186323333761168  0.2456231136456612
  0.8115986047846157  0.7314251920969232  0.2819636964753847
  0.6780735578888445  0.6801133873699220  0.2456238620189336
  0.7893322705525818  0.6927571124378977  0.3909796345151026
  0.7893430641768522  0.7698010446222706  0.3909806493287382
  0.7670859874119214  0.7312820986160758  0.3909813977020105
  0.8338492789383902  0.7953854002453475  0.4636594171702765
  0.8783447000756590  0.7439258236840517  0.5363371701981796
  0.8560984169349986  0.7824508098622297  0.5363389333850876
  0.6780855321780752  0.7315735964883835  0.1729450941773952
  0.7893442448418125  0.7442173215563593  0.3183008666735642
  0.7670979617011523  0.7827423077345372  0.3183026298604721
  0.5667616917799286  0.4872071412791936  0.4636594171702765
  0.6557657291110432  0.4101632090948208  0.4636584023566411
  0.5000127759749984  0.4233953375222298  0.1729450941773952
  0.6112822822630057  0.5130829947745783  0.3183018814871996
  0.7002947117860828  0.5642517060207322  0.4636594171702765
  0.5890371797873059  0.5260242578868450  0.2456238620189336
  0.2329515059549983  0.4742725508960760  0.5363389333850876
  0.1884636680938463  0.4747071422492308  0.2092849286338462
  0.1661973338618127  0.4360390625902055  0.3183008666735642
  0.1662081274860824  0.5130829947745783  0.3183018814871996
  0.1439510507211521  0.4745640487683837  0.3183026298604721
  0.2552205570091595  0.5642517060207322  0.4636594171702765
  0.2329634802442291  0.5257327600145376  0.4636601655435490
  0.4109947419015387  0.6026289203646155  0.5726787678415385
  0.1662093081510433  0.4874992717086670  0.2456220988320259
  0.1662201017753132  0.5645432038930398  0.2456231136456612
  0.1439630250103829  0.5260242578868450  0.2456238620189336
  0.2107155229125817  0.5130836273317440  0.3183008666735642
  0.2552217376741202  0.5386679829548209  0.3909796345151026
  0.2552325312983902  0.6157119151391938  0.3909806493287382
  0.3665005014292310  0.6285047738600000  0.4273212321584617
  0.2329754545334598  0.5771929691329990  0.3909813977020105
  0.2997387460599285  0.6412962707622705  0.4636594171702765
  0.2552337119633512  0.5901281920732824  0.3183008666735642
  0.2552445055876208  0.6671721242576552  0.3183018814871996
  0.3665124757184617  0.6799649829784614  0.3546424643169231
  0.2329874288226906  0.6286531782514604  0.3183026298604721
  0.4110186904800002  0.7055493386015385  0.4273212321584617
  0.3442569351106979  0.7183408355038090  0.4636594171702765
  0.3219998583457676  0.6798218894976145  0.4636601655435490
  0.3665060731073059  0.7054062451206912  0.5363389333850876
  0.4332585710095048  0.6924656145655900  0.6090159380397180
  0.2552564798768516  0.7186323333761168  0.2456231136456612
  0.3665244500076926  0.7314251920969232  0.2819636964753847
  0.2329994031119213  0.6801133873699220  0.2456238620189336
  0.3442581157756587  0.6927571124378977  0.3909796345151026
  0.3442689093999286  0.7698010446222706  0.3909806493287382
  0.3220118326349983  0.7312820986160758  0.3909813977020105
  0.3887643305371972  0.7183414680609748  0.4636584023566411
  0.3887751241614670  0.7953854002453475  0.4636594171702765
  0.4332705452987358  0.7439258236840517  0.5363371701981796
  0.4110242621580751  0.7824508098622297  0.5363389333850876
  0.2997638753033511  0.7186329659332824  0.2456220988320259
  0.4110426390584618  0.8084697568384616  0.2819636964753847
  0.3442700900648895  0.7442173215563593  0.3183008666735642
  0.3442808836891593  0.8212612537407321  0.3183018814871996
  0.3220238069242289  0.7827423077345372  0.3183026298604721
  0.3887763048264279  0.7698016771794363  0.3909796345151026
  0.4332825195879664  0.7953860328025131  0.4636584023566411
  0.5445612833430772  0.8852228237076923  0.5000000000000000
  0.4110362364473060  0.8339110189806914  0.4636601655435490
  0.4777887343495049  0.8209703884255900  0.5363371701981796
  0.4777995279737748  0.8980143206099629  0.5363381850118150
  0.1884476926257676  0.3975194840268452  0.3183026298604721
  0.2552001905279665  0.3845788534717439  0.3909796345151026
  0.2552109841522364  0.4616227856561167  0.3909806493287382
  0.2329539073873060  0.4231038396499220  0.3909813977020105
  0.4109851690446156  0.5000000000000000  0.5000000000000000
  0.3219663369103830  0.4742725508960760  0.5363389333850876
  0.2329658816765367  0.4745640487683837  0.3183026298604721
  0.4109971433338463  0.5514602091184616  0.4273212321584617
  0.2774720964380750  0.5001484043914605  0.3909813977020105
  0.3442353879645443  0.5642517060207322  0.4636594171702765
  0.3219783111996137  0.5257327600145376  0.4636601655435490
  0.3219966881000000  0.5517517069907693  0.2092849286338462
  0.2997411474922365  0.5901275595161168  0.3183018814871996
  0.4110091176230770  0.6029204182369230  0.3546424643169231
  0.3442365686295049  0.5386679829548209  0.3909796345151026
  0.3442473622537749  0.6157119151391938  0.3909806493287382
  0.4555153323846156  0.6285047738600000  0.4273212321584617
  0.3219902854888445  0.5771929691329990  0.3909813977020105
  0.3887427833910435  0.5642523385778978  0.4636584023566411
  0.4332489981525819  0.5898366942009746  0.5363371701981796
  0.3442485429187357  0.5901281920732824  0.3183008666735642
  0.3442593365430056  0.6671721242576552  0.3183018814871996
  0.4555273066738463  0.6799649829784614  0.3546424643169231
  0.3220022597780752  0.6286531782514604  0.3183026298604721
  0.5000335214353848  0.7055493386015385  0.4273212321584617
  0.4777779808276211  0.7439251911268859  0.5363381850118150
  0.3442713108322364  0.7186323333761168  0.2456231136456612
  0.4555392809630772  0.7314251920969232  0.2819636964753847
  0.4332729467310435  0.6927571124378977  0.3909796345151026
  0.4110266635903829  0.7312820986160758  0.3909813977020105
  0.5890579252476924  0.8081782589661540  0.5000000000000000
  0.4555328783519214  0.7568664542391528  0.4636601655435490
  0.5222961698783903  0.8209697558684246  0.5363381850118150
  0.5000390931134597  0.7824508098622297  0.5363389333850876
  0.5667915910156591  0.7695101793071285  0.6090159380397180
  0.5000574700138465  0.8084697568384616  0.2819636964753847
  0.5445636847753845  0.8340541124615384  0.3546424643169231
  0.4778019294060827  0.8468456093638091  0.3909806493287382
  0.5222973505433514  0.7953860328025131  0.4636584023566411
  0.5223081441676213  0.8724299649868857  0.4636594171702765
  0.6335761142984621  0.8852228237076923  0.5000000000000000
  0.5000510674026907  0.8339110189806914  0.4636601655435490
  0.5668035653048896  0.8209703884255900  0.5363371701981796
  0.2552025919602742  0.3334101422255901  0.2456220988320259
  0.3664813557153848  0.4232469331307693  0.2819636964753847
  0.2997088067218128  0.3589944978486670  0.3183008666735642
  0.2997196003460825  0.4360384300330398  0.3183018814871996
  0.2774625235811522  0.3975194840268452  0.3183026298604721
  0.3442150214833510  0.3845788534717439  0.3909796345151026
  0.3022037893274366  0.1006114500237756  0.4081215912093026
  0.3664252865252633  0.0863552671085693  0.3738626990856652
  0.4109328706639324  0.0892403299768550  0.3759084332069007
  0.3416314615931575  0.0777743020367815  0.4465188685545248
  0.3416377125118108  0.1006078261177206  0.4081275168546022
  0.3912139502189583  0.0777782487271294  0.4465116609284391
  0.3912186202828214  0.1006114500237756  0.4081215912093026
  0.4554401174806480  0.0863552671085693  0.3738626990856652
  0.4357272364766674  0.0750270944006987  0.3354428233677642
  0.4554413038397286  0.0635619430524612  0.4060519299294759
  0.4751611596610408  0.0750234704946437  0.3354487490130639
  0.4999477016193168  0.0892403299768550  0.3759084332069007
  0.4306462925485421  0.0777743020367815  0.4465188685545248
  0.4109349227389197  0.0664455607640996  0.4080972651896335
  0.4306525434671951  0.1006078261177206  0.4081275168546022
  0.4802287811743432  0.0777782487271294  0.4465116609284391
  0.4802334512382057  0.1006114500237756  0.4081215912093026
  0.5196611235039270  0.0777743020367815  0.4465188685545248
  0.5196673744225800  0.1006078261177206  0.4081275168546022
  0.4999497536943042  0.0664455607640996  0.4080972651896335
  0.5247420674320521  0.0750270944006987  0.3354428233677642
  0.5444549484360327  0.0863552671085693  0.3738626990856652
  0.5641759906164255  0.0750234704946437  0.3354487490130639
  0.5889625325747012  0.0892403299768550  0.3759084332069007
  0.5692436121297280  0.0777782487271294  0.4465116609284391
  0.5444561347951129  0.0635619430524612  0.4060519299294759
  0.5692482821935904  0.1006114500237756  0.4081215912093026
  0.6086759544593118  0.0777743020367815  0.4465188685545248
  0.5889645846496889  0.0664455607640996  0.4080972651896335
  0.6086822053779644  0.1006078261177206  0.4081275168546022
  0.3219178566904974  0.0891462986755383  0.4787306977710143
  0.3466980297997445  0.0747355965283910  0.5534791268923797
  0.3664122801808548  0.0633644764814704  0.5212659688899777
  0.3861319529841180  0.0747319726223358  0.5534850525376792
  0.3664263065450730  0.0920299163871765  0.4807760330311719
  0.4554411375004577  0.0920299163871765  0.4807760330311719
  0.4109326876458818  0.0891462986755383  0.4787306977710143
  0.4306405691779644  0.0491476169992591  0.4808062846961408
  0.4109195269975713  0.0604794136131847  0.5192202347687421
  0.4554271111362399  0.0633644764814704  0.5212659688899777
  0.4357128607551290  0.0747355965283910  0.5534791268923797
  0.3416233367902721  0.1003163282454129  0.6261638203792175
  0.3664109108037249  0.0860637692362616  0.5918990026102805
  0.3219036639870094  0.0889488321045473  0.5939447367315162
  0.4554269281181899  0.0632704451801535  0.6240882334540911
  0.4109205470173811  0.0661540628917919  0.6261335687142489
  0.4554257417591093  0.0860637692362616  0.5918990026102805
  0.4109184949423937  0.0889488321045473  0.5939447367315162
  0.4306381677456571  0.1003163282454129  0.6261638203792175
  0.3912042445612832  0.1003199521514679  0.6261578947339180
  0.4306319168270039  0.0774828041644738  0.6645551720791402
  0.4554267617789195  0.0917384185148688  0.6988123365557871
  0.4999475186012665  0.0891462986755383  0.4787306977710143
  0.5196554001333487  0.0491476169992591  0.4808062846961408
  0.4802214769489752  0.0491512409053139  0.4808003590508411
  0.4999343579529554  0.0604794136131847  0.5192202347687421
  0.5247276917105135  0.0747355965283910  0.5534791268923797
  0.5247230216466505  0.0519023952317449  0.5918691966115160
  0.4751467839395026  0.0747319726223358  0.5534850525376792
  0.4751405330208500  0.0518984485413969  0.5918764042376018
  0.5444405727144945  0.0860637692362616  0.5918990026102805
  0.5692363079043600  0.0491512409053139  0.4808003590508411
  0.5889623495566512  0.0891462986755383  0.4787306977710143
  0.5444559684558424  0.0920299163871765  0.4807760330311719
  0.5444419420916242  0.0633644764814704  0.5212659688899777
  0.5641616148948874  0.0747319726223358  0.5534850525376792
  0.4999353779727655  0.0661540628917919  0.6261335687142489
  0.4802190755166674  0.1003199521514679  0.6261578947339180
  0.5196529987010413  0.1003163282454129  0.6261638203792175
  0.4999333258977786  0.0889488321045473  0.5939447367315162
  0.4802144054528045  0.0774867508548217  0.6645479644530545
  0.5444417590735747  0.0632704451801535  0.6240882334540911
  0.5889481568531629  0.0889488321045473  0.5939447367315162
  0.5692339064720522  0.1003199521514679  0.6261578947339180
  0.5692292364081892  0.0774867508548217  0.6645479644530545
  0.6086678296564261  0.1003163282454129  0.6261638203792175
  0.5889502089281503  0.0661540628917919  0.6261335687142489
  0.4999331428797282  0.0888548008032306  0.6967670012956295
  0.5196467477823887  0.0774828041644738  0.6645551720791402
  0.5444415927343043  0.0917384185148688  0.6988123365557871
  0.1439099249439318  0.2433294594599320  0.3759084332069007
  0.0994132830393169  0.3203740242014705  0.3759084332069007
  0.1242029787881892  0.2833275873286676  0.3738328930869007
  0.1242076488520521  0.3061607886253140  0.3354428233677642
  0.1241956745628212  0.2547005795068525  0.4081215912093026
  0.1439085555668018  0.2660287522147229  0.4465414669272036
  0.0994153351143040  0.2975792549887149  0.4080972651896335
  0.1191267049239270  0.3089079962613968  0.4465188685545248
  0.1438965812775714  0.2145685430962616  0.5192202347687421
  0.1191209815533489  0.2802813112238745  0.4808062846961408
  0.1191147306346963  0.2574477871429353  0.5191976363960632
  0.1439097419258820  0.2432354281586153  0.4787306977710143
  0.0994131000212662  0.3202799929001537  0.4787306977710143
  0.0993999393729558  0.2916131078378000  0.5192202347687421
  0.1439075235116243  0.2944981707060857  0.5212659688899777
  0.1439061541344943  0.3171974634608769  0.5918990026102805
  0.1241886030666508  0.2830360894563602  0.5918691966115160
  0.1439095755866116  0.2717034014933303  0.5534548008727104
  0.1241932731305139  0.3058692907530063  0.5534791268923797
  0.1242149530774201  0.3347877964471294  0.3011541252453623
  0.1191386792131577  0.3603682053798583  0.3738401007129863
  0.0797063368835739  0.3603721520702060  0.3738328930869007
  0.0994273094035347  0.3490394641071766  0.3354184973480949
  0.1191569044210411  0.4346619385792591  0.2627699811715254
  0.1191506535023885  0.4118284144983200  0.3011613328714479
  0.0994370485997282  0.4232004111370768  0.3333731620879373
  0.0994238879514173  0.3945335260747231  0.3738626990856652
  0.1191449301318104  0.3832017294607977  0.3354487490130639
  0.1242411702874367  0.5117101272268526  0.2627640555262256
  0.0746420373085425  0.4374127701213970  0.3738401007129863
  0.0746482882271949  0.4602462942023361  0.3354487490130639
  0.1242245259343431  0.4374167168117449  0.3738328930869007
  0.0994358622406476  0.4459937351931846  0.3011839312441267
  0.1242291959982058  0.4602499181083910  0.3354428233677642
  0.1242365002235737  0.4888769259302064  0.3011541252453623
  0.0994468044747013  0.5259233628030090  0.3032296653653622
  0.0994488565496884  0.5031285935902533  0.3354184973480949
  0.1191664772779642  0.5372908589438746  0.3354487490130639
  0.0797325540935905  0.5372944828499295  0.3354428233677642
  0.0797278840297277  0.5144612815532833  0.3738328930869007
  0.1191602263593115  0.5144573348629353  0.3738401007129863
  0.0994454350975711  0.5486226555578001  0.3738626990856652
  0.0549164581166511  0.3973245576416920  0.4787306977710143
  0.0549152717575711  0.4201178816978001  0.4465414669272036
  0.0746300630193117  0.3859525610029351  0.4465188685545248
  0.0746363139379642  0.4087860850838747  0.4081275168546022
  0.0994228558962397  0.4230029445660858  0.4485872010484391
  0.0994119136621863  0.3430733169562615  0.4465414669272036
  0.1242125516451124  0.3859565076932831  0.4465116609284391
  0.0994250743104978  0.3717402020186151  0.4060519299294759
  0.1242172217089750  0.4087897089899295  0.4081215912093026
  0.1191329558425798  0.3317415203423359  0.4081275168546022
  0.0746243396487333  0.3573258759654128  0.4808062846961408
  0.0746180887300807  0.3344923518844739  0.5191976363960632
  0.0796919611620352  0.3600806541978988  0.5918691966115160
  0.0549162917773809  0.4257925309764073  0.5534548008727104
  0.1242005773558817  0.3344962985748219  0.5191904287699777
  0.1242052474197444  0.3573294998714681  0.4808003590508411
  0.1191425286995026  0.4343704407069515  0.4808062846961408
  0.0994249079712269  0.4002081753533304  0.4807760330311719
  0.0797086055151288  0.4343740646130063  0.4808003590508411
  0.0994108816070087  0.3715427354476243  0.5212659688899777
  0.0797039354512659  0.4115408633163603  0.5191904287699777
  0.1191362777808502  0.4115369166260122  0.5191976363960632
  0.0994129336819965  0.3487479662348687  0.5534548008727104
  0.0796966312258981  0.3829138554945449  0.5534791268923797
  0.0994226728781896  0.4229089132647689  0.5514094656125528
  0.1191305544102718  0.3829102315884895  0.5534850525376792
  0.0994095122298788  0.3942420282024153  0.5918990026102805
  0.1191243034916193  0.3600767075075508  0.5918764042376018
  0.0549402403558423  0.5287129492133305  0.4080972651896335
  0.0549284324058821  0.4487847667601537  0.4060519299294759
  0.0746516101654654  0.5400416904860122  0.4465188685545248
  0.0549262139916243  0.5000475093076244  0.4485872010484391
  0.0994348301854705  0.4744631536845474  0.3759084332069007
  0.0994368822604579  0.4516683844717920  0.4080972651896335
  0.0994466214566513  0.5258293315016921  0.4060519299294759
  0.0797205798043598  0.4858342737314679  0.4081215912093026
  0.1191545029887333  0.4858306498254130  0.4081275168546022
  0.0797159097404967  0.4630010724348218  0.4465116609284391
  0.0994346471674205  0.4743691223832306  0.4787306977710143
  0.1242340987912659  0.5400456371763603  0.4465116609284391
  0.1191482520700810  0.4629971257444738  0.4465188685545248
  0.0994334608083403  0.4971624464393385  0.4465414669272036
  0.0549142397023935  0.4485873001891628  0.5212659688899777
  0.0549282660666114  0.4772527400948689  0.4807760330311719
  0.1242221245020352  0.4885854280578987  0.5191904287699777
  0.0746396358762347  0.4885814813675508  0.5191976363960632
  0.0994214865191094  0.4457022373208769  0.5192202347687421
  0.0549260309735742  0.4999534780063076  0.5514094656125528
  0.1242148202766675  0.4599584202360833  0.5534791268923797
  0.0746276615870037  0.4371212722490891  0.5918764042376018
  0.0746339125056566  0.4599547963300284  0.5534850525376792
  0.1242101502128045  0.4371252189394371  0.5918691966115160
  0.0549128703252633  0.4712865929439539  0.5918990026102805
  0.0549248446144940  0.5227468020624155  0.5192202347687421
  0.0746458867948872  0.5114150054484899  0.4808062846961408
  0.1242267945658983  0.5114186293545449  0.4808003590508411
  0.0994324287531626  0.5256318649307012  0.5212659688899777
  0.0994344808281501  0.5028370957179458  0.5534548008727104
  0.0797181783720522  0.5370029849776219  0.5534791268923797
  0.0797135083081892  0.5141697836809755  0.5918691966115160
  0.1191521015564258  0.5369993610715669  0.5534850525376792
  0.1191458506377730  0.5141658369906276  0.5918764042376018
  0.0994310593760328  0.5483311576854925  0.5918990026102805
  0.2526468301348872  0.2035282443546438  0.2627699811715254
  0.2526348558456565  0.1520680352361821  0.3354487490130639
  0.1686996206928048  0.2062830225871293  0.3738328930869007
  0.2081319630223888  0.2062790758967815  0.3738401007129863
  0.2329138136652634  0.1633998318501076  0.3738626990856652
  0.2329257879544943  0.2148600409685691  0.3011839312441267
  0.2526405792162346  0.1806947202737046  0.3011613328714479
  0.2577144516481891  0.2062830225871293  0.3738328930869007
  0.2329269743135743  0.1920667169124613  0.3333731620879373
  0.2526525535054656  0.2321549293921661  0.2284825650299094
  0.2329377622437248  0.2663202500870308  0.2285051634025883
  0.2081559116008500  0.3091994941337045  0.2284825650299094
  0.2329509228920359  0.2949871351493845  0.1880156264048604
  0.1439218992331627  0.2947896685783937  0.3032296653653622
  0.1687115949820357  0.2577432317055910  0.3011541252453623
  0.1884291460498788  0.2919046057101077  0.3011839312441267
  0.2081501882302719  0.2805728090961822  0.2627699811715254
  0.2081439373116191  0.2577392850152430  0.3011613328714479
  0.2329367301885475  0.2947896685783937  0.3032296653653622
  0.2329507565527657  0.3234551084841000  0.2627397295065566
  0.2329389486028050  0.2435269260309228  0.2606943942463990
  0.1636415720364254  0.3061571647192590  0.3354487490130639
  0.1439205298560325  0.3174889613331846  0.3738626990856652
  0.1439239513081502  0.2719948993656380  0.3354184973480949
  0.1636353211177730  0.2833236406383199  0.3738401007129863
  0.1884171717606481  0.2404443965916460  0.3738626990856652
  0.1687042907566675  0.2291162238837754  0.3354428233677642
  0.1884303324089592  0.2691112816539997  0.3333731620879373
  0.2329353608114171  0.3174889613331846  0.3738626990856652
  0.2132178097435738  0.2833275873286676  0.3738328930869007
  0.2081382139410414  0.2291125999777207  0.3354487490130639
  0.2132224798074367  0.3061607886253140  0.3354428233677642
  0.2526501520731578  0.2833236406383199  0.3738401007129863
  0.2329387822635348  0.2719948993656380  0.3354184973480949
  0.2526564029918104  0.3061571647192590  0.3354487490130639
  0.3022277379058982  0.2035318682606984  0.2627640555262256
  0.3219419882870090  0.1921607482137782  0.2305508975238238
  0.3219440403619966  0.1693659790010228  0.2627397295065566
  0.3664492351037250  0.1892756853454922  0.2285051634025883
  0.3861702772841180  0.1779438887315667  0.1900912133299869
  0.3664504214628049  0.1664823612893844  0.2606943942463990
  0.3861640263654652  0.1551103646506275  0.2284825650299094
  0.3861520520762347  0.1036501555321660  0.3011613328714479
  0.3861583029948868  0.1264836796131052  0.2627699811715254
  0.3664372608144942  0.1378154762270307  0.3011839312441267
  0.3022110935528045  0.1292384578455907  0.3738328930869007
  0.3219320660727654  0.1179057698825611  0.3354184973480949
  0.3664384471735744  0.1150221521709229  0.3333731620879373
  0.3416434358823887  0.1292345111552429  0.3738401007129863
  0.3219406189098787  0.2148600409685691  0.3011839312441267
  0.3022230678420353  0.1806986669640526  0.3011541252453623
  0.3416616610902722  0.2035282443546438  0.2627699811715254
  0.3416554101716194  0.1806947202737046  0.3011613328714479
  0.3219300139977784  0.1407005390953165  0.3032296653653622
  0.3219418052689591  0.1920667169124613  0.3333731620879373
  0.3022157636166674  0.1520716591422371  0.3354428233677642
  0.3467292826035739  0.2062830225871293  0.3738328930869007
  0.3664502551235349  0.1949503346240994  0.3354184973480949
  0.3416496868010410  0.1520680352361821  0.3354487490130639
  0.2774354241681501  0.1949503346240994  0.3354184973480949
  0.2971467939777733  0.2062790758967815  0.3738401007129863
  0.3219286446206482  0.1633998318501076  0.3738626990856652
  0.3861616249331577  0.2062790758967815  0.3738401007129863
  0.2774571376535742  0.3205714907724613  0.2606943942463990
  0.2577384002266507  0.3092034408240524  0.2284753574038238
  0.2774453463823937  0.2692053129553166  0.2305508975238238
  0.2774473984573810  0.2464105437425614  0.2627397295065566
  0.2971707425562348  0.3091994941337045  0.2284825650299094
  0.2774593727466118  0.2978707528610226  0.1900609616650181
  0.3022397121951290  0.2549920773791600  0.1900852876846872
  0.3022350421312661  0.2321588760825141  0.2284753574038238
  0.3219525931991096  0.2663202500870308  0.2285051634025883
  0.3219560146512271  0.2208261881194840  0.1900609616650181
  0.3664622294127658  0.2464105437425614  0.2627397295065566
  0.3664623957520358  0.2179425704078459  0.1880156264048604
  0.3416736353795027  0.2549884534731053  0.1900912133299869
  0.3416673844608499  0.2321549293921661  0.2284825650299094
  0.3219537795581898  0.2435269260309228  0.2606943942463990
  0.3664601773377785  0.2692053129553166  0.2305508975238238
  0.3219657538474205  0.2949871351493845  0.1880156264048604
  0.3219655875081500  0.3234551084841000  0.2627397295065566
  0.3664719686089590  0.3205714907724613  0.2606943942463990
  0.3664742037019963  0.2978707528610226  0.1900609616650181
  0.3467532311820353  0.3092034408240524  0.2284753574038238
  0.2577264259374202  0.2577432317055910  0.3011541252453623
  0.2971650191856564  0.2805728090961822  0.2627699811715254
  0.2577310960012829  0.2805764330022369  0.2627640555262256
  0.2774439770052636  0.2919046057101077  0.3011839312441267
  0.2971587682670038  0.2577392850152430  0.3011613328714479
  0.2774333720931626  0.2177451038368551  0.3032296653653622
  0.2774451633643435  0.2691112816539997  0.3333731620879373
  0.3022326406989581  0.2833275873286676  0.3738328930869007
  0.2577191217120520  0.2291162238837754  0.3354428233677642
  0.2971530448964259  0.2291125999777207  0.3354487490130639
  0.3219501917668019  0.3174889613331846  0.3738626990856652
  0.3022373107628212  0.3061607886253140  0.3354428233677642
  0.2774320027160326  0.2404443965916460  0.3738626990856652
  0.3219515611439318  0.2947896685783937  0.3032296653653622
  0.3664588079606479  0.2919046057101077  0.3011839312441267
  0.3664482030485474  0.2177451038368551  0.3032296653653622
  0.3467459269566675  0.2805764330022369  0.2627640555262256
  0.3467412568928046  0.2577432317055910  0.3011541252453623
  0.3664599943197283  0.2691112816539997  0.3333731620879373
  0.3219536132189193  0.2719948993656380  0.3354184973480949
  0.3467339526674368  0.2291162238837754  0.3354428233677642
  0.3664468336714174  0.2404443965916460  0.3738626990856652
  0.3416712339471951  0.3061571647192590  0.3354487490130639
  0.3861678758518103  0.2291125999777207  0.3354487490130639
  0.3416649830285424  0.2833236406383199  0.3738401007129863
  0.1884051974714174  0.1889841874731845  0.4465414669272036
  0.2081199887331579  0.1548188667783198  0.4465188685545248
  0.2081262396518105  0.1776523908592592  0.4081275168546022
  0.2329150000243438  0.1406065077939998  0.4060519299294759
  0.2577071474228211  0.1776560147653140  0.4081215912093026
  0.2577024773589584  0.1548228134686678  0.4465116609284391
  0.1884063838304976  0.1661908634170767  0.4787306977710143
  0.1636176234579642  0.2032367464823361  0.4808062846961408
  0.2131985312289753  0.2032403703883909  0.4808003590508411
  0.2576951731335904  0.1261958056468523  0.4808003590508411
  0.2329148336850732  0.1690744811287151  0.4807760330311719
  0.2526324544133488  0.2032367464823361  0.4808062846961408
  0.2774094235147014  0.1148246855999319  0.4485872010484391
  0.2329127816100861  0.1918692503414705  0.4485872010484391
  0.2774092404966512  0.1147306542986150  0.5514094656125528
  0.2329008073208554  0.1404090412230090  0.5212659688899777
  0.2774080541375712  0.1375239783547230  0.5192202347687421
  0.1686852449712661  0.2059915247148218  0.5918691966115160
  0.2081175873008504  0.2059875780244738  0.5918764042376018
  0.1884062174912271  0.1946588367517920  0.5534548008727104
  0.1884041654162398  0.2174536059645474  0.5212659688899777
  0.2131865569397448  0.1517801612699294  0.5534791268923797
  0.2131938611651122  0.1804071690917447  0.5191904287699777
  0.2328994379437250  0.1631083339777999  0.5918990026102805
  0.2329114122329559  0.2145685430962616  0.5192202347687421
  0.2329125985920359  0.1917752190401536  0.5514094656125528
  0.2577000759266507  0.2059915247148218  0.5918691966115160
  0.2526262034946964  0.1804032224013967  0.5191976363960632
  0.2526204801241180  0.1517765373638742  0.5534850525376792
  0.1636295977471949  0.2546969556007976  0.4081275168546022
  0.1636233468285423  0.2318634315198584  0.4465188685545248
  0.1884183581197285  0.2176510725355382  0.4060519299294759
  0.2132058354543433  0.2318673782102064  0.4465116609284391
  0.2329247558993168  0.2433294594599320  0.3759084332069007
  0.2526381777839269  0.2318634315198584  0.4465188685545248
  0.1439217162151129  0.2946956372770765  0.4060519299294759
  0.1884161397054703  0.2689138150830089  0.4485872010484391
  0.1687091935497275  0.3089119429517450  0.4465116609284391
  0.1687138636135906  0.3317451442483909  0.4081215912093026
  0.1884281139947012  0.3203740242014705  0.3759084332069007
  0.1884301660696885  0.2975792549887149  0.4080972651896335
  0.2329365471704977  0.2946956372770765  0.4060519299294759
  0.2577286945689754  0.3317451442483909  0.4081215912093026
  0.2081477867979639  0.3317415203423359  0.4081275168546022
  0.2577240245051125  0.3089119429517450  0.4465116609284391
  0.1884147703283404  0.2916131078378000  0.5192202347687421
  0.1686972192604968  0.2574517338332833  0.5191904287699777
  0.1439215498758423  0.3231636106117918  0.4807760330311719
  0.1687018893243599  0.2802849351299295  0.4808003590508411
  0.1884181917804578  0.2461190458702535  0.4807760330311719
  0.2081295615900808  0.2574477871429353  0.5191976363960632
  0.2081358125087336  0.2802813112238745  0.4808062846961408
  0.2329223544670090  0.2944981707060857  0.5212659688899777
  0.2329245728812666  0.2432354281586153  0.4787306977710143
  0.2577120502158814  0.2574517338332833  0.5191904287699777
  0.2577167202797443  0.2802849351299295  0.4808003590508411
  0.1884159566874205  0.2688197837816922  0.5514094656125528
  0.1636209453962348  0.2830321427660122  0.5918764042376018
  0.1636271963148874  0.3058656668469511  0.5534850525376792
  0.1884027960391097  0.2401528987193385  0.5918990026102805
  0.1686899150351290  0.2288247260114677  0.5534791268923797
  0.2081238382195027  0.2288211021054128  0.5534850525376792
  0.2132034340220356  0.2830360894563602  0.5918691966115160
  0.2577047459905138  0.2288247260114677  0.5534791268923797
  0.2526420272702717  0.3058656668469511  0.5534850525376792
  0.2774200284268017  0.1889841874731845  0.4465414669272036
  0.2774212147858819  0.1661908634170767  0.4787306977710143
  0.2774213978039323  0.1662848947183934  0.3759084332069007
  0.2971410706071952  0.1776523908592592  0.4081275168546022
  0.2774234498789194  0.1434901255056380  0.4080972651896335
  0.3219166703314173  0.1119396227316462  0.4465414669272036
  0.3664382808343040  0.1434901255056380  0.4080972651896335
  0.3219298309797284  0.1406065077939998  0.4060519299294759
  0.3664362287593169  0.1662848947183934  0.3759084332069007
  0.3861559015625800  0.1776523908592592  0.4081275168546022
  0.3467219783782056  0.1776560147653140  0.4081215912093026
  0.3467173083143429  0.1548228134686678  0.4465116609284391
  0.3664360457412666  0.1661908634170767  0.4787306977710143
  0.3861496506439270  0.1548188667783198  0.4465188685545248
  0.3664348593821867  0.1889841874731845  0.4465414669272036
  0.3664242544700861  0.1148246855999319  0.4485872010484391
  0.3467100040889750  0.1261958056468523  0.4808003590508411
  0.3219156382762397  0.1404090412230090  0.5212659688899777
  0.3861439272733488  0.1261921817407975  0.4808062846961408
  0.2971290963179641  0.1261921817407975  0.4808062846961408
  0.3664228850929556  0.1375239783547230  0.5192202347687421
  0.3467053340251121  0.1033626043502063  0.5191904287699777
  0.3861376763546963  0.1033586576598583  0.5191976363960632
  0.2971228453993115  0.1033586576598583  0.5191976363960632
  0.3664240714520358  0.1147306542986150  0.5514094656125528
  0.3022013878951289  0.1517801612699294  0.5534791268923797
  0.3219176903512270  0.1176142720102534  0.5534548008727104
  0.3416353110795028  0.1517765373638742  0.5534850525376792
  0.3021967178312662  0.1289469599732832  0.5918691966115160
  0.3416290601608500  0.1289430132829352  0.5918764042376018
  0.3219142688991093  0.1631083339777999  0.5918990026102805
  0.3416410344500809  0.1804032224013967  0.5191976363960632
  0.3416472853687331  0.2032367464823361  0.4808062846961408
  0.3022086921204969  0.1804071690917447  0.5191904287699777
  0.3664338273270089  0.2174536059645474  0.5212659688899777
  0.3219262431883405  0.2145685430962616  0.5192202347687421
  0.2774189963716244  0.2174536059645474  0.5212659688899777
  0.3861472492116192  0.2059875780244738  0.5918764042376018
  0.3467149068820352  0.2059915247148218  0.5918691966115160
  0.2971324182562347  0.2059875780244738  0.5918764042376018
  0.3664358794019962  0.1946588367517920  0.5534548008727104
  0.2774210484466115  0.1946588367517920  0.5534548008727104
  0.3219274295474204  0.1917752190401536  0.5514094656125528
  0.3219416389296886  0.2205346902471763  0.4080972651896335
  0.2774331890751128  0.2176510725355382  0.4060519299294759
  0.3664480200304976  0.2176510725355382  0.4060519299294759
  0.3022253364735903  0.2547005795068525  0.4081215912093026
  0.3219395868547015  0.2433294594599320  0.3759084332069007
  0.3416530087393116  0.2318634315198584  0.4465188685545248
  0.3416592596579645  0.2546969556007976  0.4081275168546022
  0.3022206664097276  0.2318673782102064  0.4465116609284391
  0.2774309706608553  0.2689138150830089  0.4485872010484391
  0.3219382174775714  0.2660287522147229  0.4465414669272036
  0.3664458016162399  0.2689138150830089  0.4485872010484391
  0.2774449970250733  0.2975792549887149  0.4080972651896335
  0.2774429449500860  0.3203740242014705  0.3759084332069007
  0.2971626177533489  0.3317415203423359  0.4081275168546022
  0.2971563668346961  0.3089079962613968  0.4465188685545248
  0.3219513781258823  0.2946956372770765  0.4060519299294759
  0.3664577759054707  0.3203740242014705  0.3759084332069007
  0.3861711977900809  0.3089079962613968  0.4465188685545248
  0.3664598279804578  0.2975792549887149  0.4080972651896335
  0.3467435255243597  0.3317451442483909  0.4081215912093026
  0.3467388554604968  0.3089119429517450  0.4465116609284391
  0.3219394038366511  0.2432354281586153  0.4787306977710143
  0.2774296012837249  0.2916131078378000  0.5192202347687421
  0.2971443925454656  0.2574477871429353  0.5191976363960632
  0.2774330227358424  0.2461190458702535  0.4807760330311719
  0.3219371854223934  0.2944981707060857  0.5212659688899777
  0.2971506434641182  0.2802813112238745  0.4808062846961408
  0.2774427619320358  0.3202799929001537  0.4787306977710143
  0.3219512117866116  0.3231636106117918  0.4807760330311719
  0.3467268811712662  0.2574517338332833  0.5191904287699777
  0.3664478536912269  0.2461190458702535  0.4807760330311719
  0.3861654744195025  0.2802813112238745  0.4808062846961408
  0.3664444322391097  0.2916131078378000  0.5192202347687421
  0.3664575928874204  0.3202799929001537  0.4787306977710143
  0.3861592235008500  0.2574477871429353  0.5191976363960632
  0.3467315512351288  0.2802849351299295  0.4808003590508411
  0.2971386691748873  0.2288211021054128  0.5534850525376792
  0.2774176269944942  0.2401528987193385  0.5918990026102805
  0.2774307876428051  0.2688197837816922  0.5514094656125528
  0.3022229350412830  0.3058692907530063  0.5534791268923797
  0.3022182649774201  0.2830360894563602  0.5918691966115160
  0.3219358160452634  0.3171974634608769  0.5918990026102805
  0.3219392374973807  0.2717034014933303  0.5534548008727104
  0.3664324579498786  0.2401528987193385  0.5918990026102805
  0.3416506073070039  0.2830321427660122  0.5918764042376018
  0.3416568582256567  0.3058656668469511  0.5534850525376792
  0.3467195769458981  0.2288247260114677  0.5534791268923797
  0.3861535001302721  0.2288211021054128  0.5534850525376792
  0.3664456185981896  0.2688197837816922  0.5514094656125528
  0.1439444784344943  0.4204093795701078  0.2285051634025883
  0.1884411203391097  0.3433648148285692  0.2285051634025883
  0.1636592696962349  0.3862440588752430  0.2284825650299094
  0.1439456647935743  0.3976160555139999  0.2606943942463990
  0.1884541146481502  0.4004996732256381  0.2627397295065566
  0.1884520625731628  0.4232944424383936  0.2305508975238238
  0.1884542809874205  0.3720316998909229  0.1880156264048604
  0.2329487044777784  0.3462498776968551  0.2305508975238238
  0.2526741006516193  0.3862440588752430  0.2284825650299094
  0.2132417583220355  0.3862480055655910  0.2284753574038238
  0.2329604957489589  0.3976160555139999  0.2606943942463990
  0.2329593093898789  0.4204093795701078  0.2285051634025883
  0.2132464283858983  0.4090812068622371  0.1900852876846872
  0.1636472954070040  0.3347838497567814  0.3011613328714479
  0.1687331421281892  0.4118323611886680  0.3011541252453623
  0.1687378121920519  0.4346655624853141  0.2627640555262256
  0.1884400882839321  0.3718342333199320  0.3032296653653622
  0.1439325041452635  0.3689491704516461  0.3011839312441267
  0.1439336905043437  0.3461558463955383  0.3333731620879373
  0.1439454984543039  0.4260840288487150  0.3354184973480949
  0.1687258379028213  0.3832053533668525  0.3354428233677642
  0.1884421403589194  0.3490394641071766  0.3354184973480949
  0.1687211678389584  0.3603721520702060  0.3738328930869007
  0.1884387189068020  0.3945335260747231  0.3738626990856652
  0.2526621263623885  0.3347838497567814  0.3011613328714479
  0.2132344540966674  0.3576209977437755  0.2627640555262256
  0.2081717353764257  0.4346619385792591  0.2627699811715254
  0.2526683772810411  0.3576173738377207  0.2627699811715254
  0.2132297840328047  0.3347877964471294  0.3011541252453623
  0.2081654844577733  0.4118284144983200  0.3011613328714479
  0.2329473351006481  0.3689491704516461  0.3011839312441267
  0.2081597610871948  0.3832017294607977  0.3354487490130639
  0.2329485214597282  0.3461558463955383  0.3333731620879373
  0.2329603294096884  0.4260840288487150  0.3354184973480949
  0.2081535101685425  0.3603682053798583  0.3738401007129863
  0.1884518795551128  0.4232004111370768  0.3333731620879373
  0.1687497864812830  0.4861257716037757  0.1900852876846872
  0.1884758281335743  0.5261208293739998  0.1880156264048604
  0.1884660889373810  0.4519598823440997  0.1900609616650181
  0.2329842779881501  0.5290044470856381  0.1900609616650181
  0.2329724700381897  0.4490762646324613  0.1880156264048604
  0.2081837096656564  0.4861221476977207  0.1900912133299869
  0.2132633054681893  0.5403371350486680  0.2284753574038238
  0.1687451164174201  0.4632925703071294  0.2284753574038238
  0.1439574727435348  0.4775442379671766  0.2627397295065566
  0.1439554206685475  0.5003390071799320  0.2305508975238238
  0.1636808168423886  0.5403331883583200  0.2284825650299094
  0.1636750934718103  0.5117065033207977  0.2627699811715254
  0.1884626674852634  0.4974539443116464  0.2285051634025883
  0.1884638538443436  0.4746606202555383  0.2606943942463990
  0.2081774587470041  0.4632886236167814  0.2284825650299094
  0.2329702516239320  0.5003390071799320  0.2305508975238238
  0.2329723036989195  0.4775442379671766  0.2627397295065566
  0.2526899244271950  0.5117065033207977  0.2627699811715254
  0.2526956477977734  0.5403331883583200  0.2284825650299094
  0.1439420770021861  0.4715780908162617  0.3738626990856652
  0.1439434463793169  0.4488787980614705  0.3032296653653622
  0.1636631191825796  0.4602462942023361  0.3354487490130639
  0.1636568682639269  0.4374127701213970  0.3738401007129863
  0.1636688425531577  0.4888729792398584  0.3011613328714479
  0.1884506931960327  0.4459937351931846  0.3011839312441267
  0.2132393568897276  0.4374167168117449  0.3738328930869007
  0.2329582773347017  0.4488787980614705  0.3032296653653622
  0.2526779501379641  0.4602462942023361  0.3354487490130639
  0.2329569079575710  0.4715780908162617  0.3738626990856652
  0.2132440269535906  0.4602499181083910  0.3354428233677642
  0.2526716992193115  0.4374127701213970  0.3738401007129863
  0.1439552376504974  0.5002449758786152  0.3333731620879373
  0.1439540512914170  0.5230382999347231  0.3011839312441267
  0.1687427149851123  0.5144612815532833  0.3738328930869007
  0.1884616354300860  0.5259233628030090  0.3032296653653622
  0.2329700686058821  0.5002449758786152  0.3333731620879373
  0.3022492850520521  0.3576209977437755  0.2627640555262256
  0.2971769934748870  0.3320330182146438  0.1900912133299869
  0.2577526431474366  0.4346655624853141  0.2627640555262256
  0.2577430702905135  0.3320366421206986  0.1900852876846872
  0.2774689456035347  0.4004996732256381  0.2627397295065566
  0.2774668935285476  0.4232944424383936  0.2305508975238238
  0.2774559512944941  0.3433648148285692  0.2285051634025883
  0.3022612593412827  0.4090812068622371  0.1900852876846872
  0.3022565892774198  0.3862480055655910  0.2284753574038238
  0.3219635354331630  0.3462498776968551  0.2305508975238238
  0.3219741403452633  0.4204093795701078  0.2285051634025883
  0.3219753267043434  0.3976160555139999  0.2606943942463990
  0.3219775617973810  0.3749153176025611  0.1900609616650181
  0.3416889316070039  0.3862440588752430  0.2284825650299094
  0.3416951825256564  0.4090775829561822  0.1900912133299869
  0.3467579012458982  0.3320366421206986  0.1900852876846872
  0.3664837765589193  0.4004996732256381  0.2627397295065566
  0.3664839428981897  0.3720316998909229  0.1880156264048604
  0.3664817244839322  0.4232944424383936  0.2305508975238238
  0.3664707822498788  0.3433648148285692  0.2285051634025883
  0.3467674741028213  0.4346655624853141  0.2627640555262256
  0.2971865663318105  0.4346619385792591  0.2627699811715254
  0.2971803154131577  0.4118284144983200  0.3011613328714479
  0.2774549192393167  0.3718342333199320  0.3032296653653622
  0.2577479730835739  0.4118323611886680  0.3011541252453623
  0.3022446149881894  0.3347877964471294  0.3011541252453623
  0.3219621660560327  0.3689491704516461  0.3011839312441267
  0.3416769573177730  0.3347838497567814  0.3011613328714479
  0.3664697501947015  0.3718342333199320  0.3032296653653622
  0.3467628040389584  0.4118323611886680  0.3011541252453623
  0.3416832082364257  0.3576173738377207  0.2627699811715254
  0.2774667105104976  0.4232004111370768  0.3333731620879373
  0.2577406688582060  0.3832053533668525  0.3354428233677642
  0.2774569713143040  0.3490394641071766  0.3354184973480949
  0.2577359987943430  0.3603721520702060  0.3738328930869007
  0.2774535498621866  0.3945335260747231  0.3738626990856652
  0.2971745920425796  0.3832017294607977  0.3354487490130639
  0.2971683411239273  0.3603682053798583  0.3738401007129863
  0.3219633524151128  0.3461558463955383  0.3333731620879373
  0.3219751603650731  0.4260840288487150  0.3354184973480949
  0.3467508297497278  0.3603721520702060  0.3738328930869007
  0.3467554998135904  0.3832053533668525  0.3354428233677642
  0.3664683808175712  0.3945335260747231  0.3738626990856652
  0.3664815414658820  0.4232004111370768  0.3333731620879373
  0.3664718022696886  0.3490394641071766  0.3354184973480949
  0.2774809198927655  0.4519598823440997  0.1900609616650181
  0.2774786847997279  0.4746606202555383  0.2606943942463990
  0.2577599473728046  0.4632925703071294  0.2284753574038238
  0.2971922897023885  0.4632886236167814  0.2284825650299094
  0.2971985406210410  0.4861221476977207  0.1900912133299869
  0.2577646174366678  0.4861257716037757  0.1900852876846872
  0.2774774984406482  0.4974539443116464  0.2285051634025883
  0.2774906590889588  0.5261208293739998  0.1880156264048604
  0.3022708321982064  0.5117101272268526  0.2627640555262256
  0.3022781364235739  0.5403371350486680  0.2284753574038238
  0.3219873009935744  0.4490762646324613  0.1880156264048604
  0.3664957508481503  0.4519598823440997  0.1900609616650181
  0.3467747783281894  0.4632925703071294  0.2284753574038238
  0.3467794483920523  0.4861257716037757  0.1900852876846872
  0.3417104787531579  0.5403331883583200  0.2284825650299094
  0.3219991089435348  0.5290044470856381  0.1900609616650181
  0.3665054900443434  0.5261208293739998  0.1880156264048604
  0.3022661621343432  0.4888769259302064  0.3011541252453623
  0.3417047553825797  0.5117065033207977  0.2627699811715254
  0.3219731082900861  0.4488787980614705  0.3032296653653622
  0.3664803551068017  0.4459937351931846  0.3011839312441267
  0.3416985044639271  0.4888729792398584  0.3011613328714479
  0.2774655241514173  0.4459937351931846  0.3011839312441267
  0.3219848995612669  0.5002449758786152  0.3333731620879373
  0.2774785184604577  0.5031285935902533  0.3354184973480949
  0.3664933494158422  0.5031285935902533  0.3354184973480949
  0.3416865301746961  0.4374127701213970  0.3738401007129863
  0.3022588579089750  0.4602499181083910  0.3354428233677642
  0.3416927810933491  0.4602462942023361  0.3354487490130639
  0.3022541878451124  0.4374167168117449  0.3738328930869007
  0.3219717389129558  0.4715780908162617  0.3738626990856652
  0.2774764663854707  0.5259233628030090  0.3032296653653622
  0.2774750970083403  0.5486226555578001  0.3738626990856652
  0.2577575459404968  0.5144612815532833  0.3738328930869007
  0.2577622160043599  0.5372944828499295  0.3354428233677642
  0.2971961391887335  0.5372908589438746  0.3354487490130639
  0.2971898882700809  0.5144573348629353  0.3738401007129863
  0.3219837132021866  0.5230382999347231  0.3011839312441267
  0.3467723768958816  0.5144612815532833  0.3738328930869007
  0.3467770469597445  0.5372944828499295  0.3354428233677642
  0.3664899279637252  0.5486226555578001  0.3738626990856652
  0.3664912973408552  0.5259233628030090  0.3032296653653622
  0.1439312890720357  0.3973245576416920  0.4787306977710143
  0.1439301027129559  0.4201178816978001  0.4465414669272036
  0.1439194978008552  0.3459583798245475  0.4485872010484391
  0.1636511448933489  0.4087860850838747  0.4081275168546022
  0.1636448939746962  0.3859525610029351  0.4465188685545248
  0.1439335241650732  0.3746238197302535  0.4080972651896335
  0.1439314720900861  0.3974185889430089  0.3759084332069007
  0.1884397389266117  0.4002081753533304  0.4807760330311719
  0.1884399052658822  0.3717402020186151  0.4060519299294759
  0.2329463030454706  0.3974185889430089  0.3759084332069007
  0.2132320526643597  0.4087897089899295  0.4081215912093026
  0.2329483551204579  0.3746238197302535  0.4080972651896335
  0.2526659758487335  0.4087860850838747  0.4081275168546022
  0.2132273826004970  0.3859565076932831  0.4465116609284391
  0.2526597249300808  0.3859525610029351  0.4465188685545248
  0.2329449336683405  0.4201178816978001  0.4465414669272036
  0.2329343287562400  0.3459583798245475  0.4485872010484391
  0.2329461200274205  0.3973245576416920  0.4787306977710143
  0.2329580943166513  0.4487847667601537  0.4060519299294759
  0.1884496611408553  0.4744631536845474  0.3759084332069007
  0.1884517132158424  0.4516683844717920  0.4080972651896335
  0.1439432633612666  0.4487847667601537  0.4060519299294759
  0.2081693339441181  0.4858306498254130  0.4081275168546022
  0.1439430970219961  0.4772527400948689  0.4807760330311719
  0.1687307406958815  0.4630010724348218  0.4465116609284391
  0.1884494781228050  0.4743691223832306  0.4787306977710143
  0.1884376868516245  0.4230029445660858  0.4485872010484391
  0.2081630830254655  0.4629971257444738  0.4465188685545248
  0.2329579279773809  0.4772527400948689  0.4807760330311719
  0.1636664411208498  0.5400416904860122  0.4465188685545248
  0.1439550713112272  0.5287129492133305  0.4080972651896335
  0.1439410449470090  0.5000475093076244  0.4485872010484391
  0.1687354107597442  0.4858342737314679  0.4081215912093026
  0.1884482917637250  0.4971624464393385  0.4465414669272036
  0.1884614524120358  0.5258293315016921  0.4060519299294759
  0.2329558759023937  0.5000475093076244  0.4485872010484391
  0.2132489297466507  0.5400456371763603  0.4465116609284391
  0.2526812720762348  0.5400416904860122  0.4465188685545248
  0.2329699022666117  0.5287129492133305  0.4080972651896335
  0.1687187664066507  0.4115408633163603  0.5191904287699777
  0.1636391706041181  0.3573258759654128  0.4808062846961408
  0.1687234364705135  0.4343740646130063  0.4808003590508411
  0.1884257125623937  0.3715427354476243  0.5212659688899777
  0.1636329196854653  0.3344923518844739  0.5191976363960632
  0.1439181284237250  0.3686576725793383  0.5192202347687421
  0.1439311227327657  0.4257925309764073  0.5534548008727104
  0.1439193147828052  0.3458643485232306  0.5514094656125528
  0.1687114621812829  0.3829138554945449  0.5534791268923797
  0.1636424925423887  0.4371212722490891  0.5918764042376018
  0.1884277646373808  0.3487479662348687  0.5534548008727104
  0.1884243431852635  0.3942420282024153  0.5918990026102805
  0.2132154083112660  0.3344962985748219  0.5191904287699777
  0.2526540015595026  0.3573258759654128  0.4808062846961408
  0.2081573596548873  0.4343704407069515  0.4808062846961408
  0.2526477506408500  0.3344923518844739  0.5191976363960632
  0.2329329593791096  0.3686576725793383  0.5192202347687421
  0.2081453853656564  0.3829102315884895  0.5534850525376792
  0.2329341457381895  0.3458643485232306  0.5514094656125528
  0.2526573234977733  0.4371212722490891  0.5918764042376018
  0.1884472597085475  0.5256318649307012  0.5212659688899777
  0.1636544668316195  0.4885814813675508  0.5191976363960632
  0.1439396755698788  0.5227468020624155  0.5192202347687421
  0.1636607177502719  0.5114150054484899  0.4808062846961408
  0.1439290706577781  0.4485873001891628  0.5212659688899777
  0.1439408619289590  0.4999534780063076  0.5514094656125528
  0.1884493117835347  0.5028370957179458  0.5534548008727104
  0.1687330093274368  0.5370029849776219  0.5534791268923797
  0.1636487434610411  0.4599547963300284  0.5534850525376792
  0.1687283392635737  0.5141697836809755  0.5918691966115160
  0.1884458903314173  0.5483311576854925  0.5918990026102805
  0.1439277012806479  0.4712865929439539  0.5918990026102805
  0.2526692977870038  0.4885814813675508  0.5191976363960632
  0.2132369554574200  0.4885854280578987  0.5191904287699777
  0.2526755487056565  0.5114150054484899  0.4808062846961408
  0.2132416255212827  0.5114186293545449  0.4808003590508411
  0.2329545065252630  0.5227468020624155  0.5192202347687421
  0.2329556928843433  0.4999534780063076  0.5514094656125528
  0.2526635744164257  0.4599547963300284  0.5534850525376792
  0.2081669325118103  0.5369993610715669  0.5534850525376792
  0.2132249811681892  0.4371252189394371  0.5918691966115160
  0.2329425322360328  0.4712865929439539  0.5918990026102805
  0.2081606815931576  0.5141658369906276  0.5918764042376018
  0.3219491597116243  0.3459583798245475  0.4485872010484391
  0.3022422135558815  0.3859565076932831  0.4465116609284391
  0.2774415755729558  0.3430733169562615  0.4465414669272036
  0.2774547362212667  0.3717402020186151  0.4060519299294759
  0.3219609509828050  0.3973245576416920  0.4787306977710143
  0.3219631860758425  0.3746238197302535  0.4080972651896335
  0.3664695671766515  0.3717402020186151  0.4060519299294759
  0.3664564065283402  0.3430733169562615  0.4465414669272036
  0.3416745558854653  0.3859525610029351  0.4465188685545248
  0.2774665441712270  0.4516683844717920  0.4080972651896335
  0.3219611340008552  0.3974185889430089  0.3759084332069007
  0.3219729252720356  0.4487847667601537  0.4060519299294759
  0.3022468836197442  0.4087897089899295  0.4081215912093026
  0.3416808068041182  0.4087860850838747  0.4081275168546022
  0.3219597646237252  0.4201178816978001  0.4465414669272036
  0.3664673487623940  0.4230029445660858  0.4485872010484391
  0.2774525178070091  0.4230029445660858  0.4485872010484391
  0.2774545698819960  0.4002081753533304  0.4807760330311719
  0.3664694008373808  0.4002081753533304  0.4807760330311719
  0.2774644920962397  0.4744631536845474  0.3759084332069007
  0.2774762833674205  0.5258293315016921  0.4060519299294759
  0.2577502417151289  0.4858342737314679  0.4081215912093026
  0.2971841648995027  0.4858306498254130  0.4081275168546022
  0.2971779139808500  0.4629971257444738  0.4465188685545248
  0.3022637607020352  0.5400456371763603  0.4465116609284391
  0.2577455716512659  0.4630010724348218  0.4465116609284391
  0.2774631227191099  0.4971624464393385  0.4465414669272036
  0.2774643090781898  0.4743691223832306  0.4787306977710143
  0.3467650726705134  0.4858342737314679  0.4081215912093026
  0.3664813751266117  0.4516683844717920  0.4080972651896335
  0.3219847332219966  0.5287129492133305  0.4080972651896335
  0.3664793230516246  0.4744631536845474  0.3759084332069007
  0.3664911143228050  0.5258293315016921  0.4060519299294759
  0.3467604026066509  0.4630010724348218  0.4465116609284391
  0.3664779536744943  0.4971624464393385  0.4465414669272036
  0.3416961030316194  0.5400416904860122  0.4465188685545248
  0.3219707068577782  0.5000475093076244  0.4485872010484391
  0.3664791400335746  0.4743691223832306  0.4787306977710143
  0.3219727589327655  0.4772527400948689  0.4807760330311719
  0.3022349093305135  0.3573294998714681  0.4808003590508411
  0.2971721906102722  0.4343704407069515  0.4808062846961408
  0.2577382674258983  0.4343740646130063  0.4808003590508411
  0.3022302392666504  0.3344962985748219  0.5191904287699777
  0.2577335973620350  0.4115408633163603  0.5191904287699777
  0.2971659396916195  0.4115369166260122  0.5191976363960632
  0.2774405435177782  0.3715427354476243  0.5212659688899777
  0.2774523347889590  0.4229089132647689  0.5514094656125528
  0.2774425955927656  0.3487479662348687  0.5534548008727104
  0.2971539654023886  0.3600767075075508  0.5918764042376018
  0.2577216230728048  0.3600806541978988  0.5918691966115160
  0.2971602163210409  0.3829102315884895  0.5534850525376792
  0.2577262931366677  0.3829138554945449  0.5534791268923797
  0.2774391741406479  0.3942420282024153  0.5918990026102805
  0.3219477903344941  0.3686576725793383  0.5192202347687421
  0.3664553744731632  0.3715427354476243  0.5212659688899777
  0.3416625815962349  0.3344923518844739  0.5191976363960632
  0.3416688325148870  0.3573258759654128  0.4808062846961408
  0.3467484283174198  0.4115408633163603  0.5191904287699777
  0.3664671657443435  0.4229089132647689  0.5514094656125528
  0.3219489766935743  0.3458643485232306  0.5514094656125528
  0.3664574265481503  0.3487479662348687  0.5534548008727104
  0.3219607846435348  0.4257925309764073  0.5534548008727104
  0.3467364540281893  0.3600806541978988  0.5918691966115160
  0.3664540050960320  0.3942420282024153  0.5918990026102805
  0.3467411240920520  0.3829138554945449  0.5534791268923797
  0.3861687963577729  0.3600767075075508  0.5918764042376018
  0.3664659793852636  0.4457022373208769  0.5192202347687421
  0.3467530983812832  0.4343740646130063  0.4808003590508411
  0.3219587325685473  0.4485873001891628  0.5212659688899777
  0.2774511484298789  0.4457022373208769  0.5192202347687421
  0.3022517864128047  0.4885854280578987  0.5191904287699777
  0.3416784053718104  0.4599547963300284  0.5534850525376792
  0.3022444821874368  0.4599584202360833  0.5534791268923797
  0.3022398121235738  0.4371252189394371  0.5918691966115160
  0.3219573631914173  0.4712865929439539  0.5918990026102805
  0.3416721544531578  0.4371212722490891  0.5918764042376018
  0.2774641427389193  0.5028370957179458  0.5534548008727104
  0.3416903796610414  0.5114150054484899  0.4808062846961408
  0.3022564564766675  0.5114186293545449  0.4808003590508411
  0.2774620906639322  0.5256318649307012  0.5212659688899777
  0.3664789736943042  0.5028370957179458  0.5534548008727104
  0.2577478402828212  0.5370029849776219  0.5534791268923797
  0.3467626712382060  0.5370029849776219  0.5534791268923797
  0.2971817634671949  0.5369993610715669  0.5534850525376792
  0.3467580011743432  0.5141697836809755  0.5918691966115160
  0.3664755522421865  0.5483311576854925  0.5918990026102805
  0.2971755125485422  0.5141658369906276  0.5918764042376018
  0.2774607212868020  0.5483311576854925  0.5918990026102805
  0.2577431702189584  0.5141697836809755  0.5918691966115160
  0.4357511850551291  0.1779475126376217  0.1900852876846872
  0.3912425688612828  0.2035318682606984  0.2627640555262256
  0.4109588713173809  0.1693659790010228  0.2627397295065566
  0.4109568192423936  0.1921607482137782  0.2305508975238238
  0.4357392107658986  0.1264873035191602  0.2627640555262256
  0.4357465149912662  0.1551143113409757  0.2284753574038238
  0.4306764920456567  0.2035282443546438  0.2627699811715254
  0.4751851082395027  0.1779438887315667  0.1900912133299869
  0.4751788573208501  0.1551103646506275  0.2284825650299094
  0.4554640660591098  0.1892756853454922  0.2285051634025883
  0.4999716501977783  0.1921607482137782  0.2305508975238238
  0.4999737022727660  0.1693659790010228  0.2627397295065566
  0.4554652524181896  0.1664823612893844  0.2606943942463990
  0.4802573998166675  0.2035318682606984  0.2627640555262256
  0.4109468970281498  0.1179057698825611  0.3354184973480949
  0.4357345407020355  0.1036541022225140  0.3011541252453623
  0.3912259245081892  0.1292384578455907  0.3738328930869007
  0.4306582668377730  0.1292345111552429  0.3738401007129863
  0.4109448449531625  0.1407005390953165  0.3032296653653622
  0.4306645177564258  0.1520680352361821  0.3354487490130639
  0.3912305945720519  0.1520716591422371  0.3354428233677642
  0.3912378987974202  0.1806986669640526  0.3011541252453623
  0.4306702411270037  0.1806947202737046  0.3011613328714479
  0.4109434755760326  0.1633998318501076  0.3738626990856652
  0.4109566362243436  0.1920667169124613  0.3333731620879373
  0.4802454255274365  0.1520716591422371  0.3354428233677642
  0.4999617279835347  0.1179057698825611  0.3354184973480949
  0.4554532781289591  0.1150221521709229  0.3333731620879373
  0.4554520917698789  0.1378154762270307  0.3011839312441267
  0.4751668830316196  0.1036501555321660  0.3011613328714479
  0.4999596759085473  0.1407005390953165  0.3032296653653622
  0.4802407554635736  0.1292384578455907  0.3738328930869007
  0.4999583065314172  0.1633998318501076  0.3738626990856652
  0.4554510597147017  0.1662848947183934  0.3759084332069007
  0.4802527297528046  0.1806986669640526  0.3011541252453623
  0.4999714671797278  0.1920667169124613  0.3333731620879373
  0.4554650860789191  0.1949503346240994  0.3354184973480949
  0.4751764558885423  0.2062790758967815  0.3738401007129863
  0.4357441135589582  0.2062830225871293  0.3738328930869007
  0.4109686105135743  0.2435269260309228  0.2606943942463990
  0.4306822154162346  0.2321549293921661  0.2284825650299094
  0.3912498730866506  0.2321588760825141  0.2284753574038238
  0.4109708456066118  0.2208261881194840  0.1900609616650181
  0.4306884663348872  0.2549884534731053  0.1900912133299869
  0.3912545431505137  0.2549920773791600  0.1900852876846872
  0.3861798501410412  0.2805728090961822  0.2627699811715254
  0.4109805848028052  0.2949871351493845  0.1880156264048604
  0.4109804184635348  0.3234551084841000  0.2627397295065566
  0.4109674241544942  0.2663202500870308  0.2285051634025883
  0.3861855735116195  0.3091994941337045  0.2284825650299094
  0.4554772267074205  0.2179425704078459  0.1880156264048604
  0.4802693741058984  0.2549920773791600  0.1900852876846872
  0.4554770603681504  0.2464105437425614  0.2627397295065566
  0.4802647040420355  0.2321588760825141  0.2284753574038238
  0.4554750082931632  0.2692053129553166  0.2305508975238238
  0.4751946810964258  0.2805728090961822  0.2627699811715254
  0.4357607579120520  0.2805764330022369  0.2627640555262256
  0.4554890346573809  0.2978707528610226  0.1900609616650181
  0.4752004044670037  0.3091994941337045  0.2284825650299094
  0.4554867995643432  0.3205714907724613  0.2606943942463990
  0.4357680621374200  0.3092034408240524  0.2284753574038238
  0.4109544178100858  0.2433294594599320  0.3759084332069007
  0.4554616646268017  0.2404443965916460  0.3738626990856652
  0.4357487836228211  0.2291162238837754  0.3354428233677642
  0.4109554498652634  0.2148600409685691  0.3011839312441267
  0.4357560878481896  0.2577432317055910  0.3011541252453623
  0.3861735992223884  0.2577392850152430  0.3011613328714479
  0.4109684441743041  0.2719948993656380  0.3354184973480949
  0.4306798139839269  0.2833236406383199  0.3738401007129863
  0.3912474716543431  0.2833275873286676  0.3738328930869007
  0.3912521417182060  0.3061607886253140  0.3354428233677642
  0.4306860649025795  0.3061571647192590  0.3354487490130639
  0.4109663920993166  0.2947896685783937  0.3032296653653622
  0.4109650227221867  0.3174889613331846  0.3738626990856652
  0.4554748252751132  0.2691112816539997  0.3333731620879373
  0.4554630340039322  0.2177451038368551  0.3032296653653622
  0.4999702808206481  0.2148600409685691  0.3011839312441267
  0.4999692487654709  0.2433294594599320  0.3759084332069007
  0.4751884301777733  0.2577392850152430  0.3011613328714479
  0.4751827068071954  0.2291125999777207  0.3354487490130639
  0.4802623026097277  0.2833275873286676  0.3738328930869007
  0.4554736389160325  0.2919046057101077  0.3011839312441267
  0.4999812230547014  0.2947896685783937  0.3032296653653622
  0.4554726068608550  0.3203740242014705  0.3759084332069007
  0.4999798536775709  0.3174889613331846  0.3738626990856652
  0.4802669726735906  0.3061607886253140  0.3354428233677642
  0.5641936882762348  0.1551103646506275  0.2284825650299094
  0.5247613459466506  0.1551143113409757  0.2284753574038238
  0.5641999391948874  0.1779438887315667  0.1900912133299869
  0.6137808469658983  0.1779475126376217  0.1900852876846872
  0.5247660160105135  0.1779475126376217  0.1900852876846872
  0.5444788970144941  0.1892756853454922  0.2285051634025883
  0.5444920576628053  0.2179425704078459  0.1880156264048604
  0.5641879649056565  0.1264836796131052  0.2627699811715254
  0.6137688726766678  0.1264873035191602  0.2627640555262256
  0.5247540417212830  0.1264873035191602  0.2627640555262256
  0.5444800833735743  0.1664823612893844  0.2606943942463990
  0.5889885332281504  0.1693659790010228  0.2627397295065566
  0.5692722307720522  0.2035318682606984  0.2627640555262256
  0.6087061539564257  0.2035282443546438  0.2627699811715254
  0.5196913230010409  0.2035282443546438  0.2627699811715254
  0.5889864811531630  0.1921607482137782  0.2305508975238238
  0.5247493716574196  0.1036541022225140  0.3011541252453623
  0.5196793487118100  0.1520680352361821  0.3354487490130639
  0.5641817139870039  0.1036501555321660  0.3011613328714479
  0.5196730977931583  0.1292345111552429  0.3738401007129863
  0.5444669227252632  0.1378154762270307  0.3011839312441267
  0.5444681090843438  0.1150221521709229  0.3333731620879373
  0.5692555864189585  0.1292384578455907  0.3738328930869007
  0.5692602564828213  0.1520716591422371  0.3354428233677642
  0.5889745068639322  0.1407005390953165  0.3032296653653622
  0.5889765589389194  0.1179057698825611  0.3354184973480949
  0.6086879287485427  0.1292345111552429  0.3738401007129863
  0.6137642026128045  0.1036541022225140  0.3011541252453623
  0.6086941796671949  0.1520680352361821  0.3354487490130639
  0.5444799170343039  0.1949503346240994  0.3354184973480949
  0.5444658906700861  0.1662848947183934  0.3759084332069007
  0.5247589445143429  0.2062830225871293  0.3738328930869007
  0.5196850720823883  0.1806947202737046  0.3011613328714479
  0.5444778649593166  0.2177451038368551  0.3032296653653622
  0.5641912868439272  0.2062790758967815  0.3738401007129863
  0.5889731374868020  0.1633998318501076  0.3738626990856652
  0.5692675607081894  0.1806986669640526  0.3011541252453623
  0.6086999030377731  0.1806947202737046  0.3011613328714479
  0.5889862981351126  0.1920667169124613  0.3333731620879373
  0.5889851117760324  0.2148600409685691  0.3011839312441267
  0.4999856765619965  0.2208261881194840  0.1900609616650181
  0.4999834414689588  0.2435269260309228  0.2606943942463990
  0.4999822551098790  0.2663202500870308  0.2285051634025883
  0.5444898392485479  0.2692053129553166  0.2305508975238238
  0.5197032972902719  0.2549884534731053  0.1900912133299869
  0.5196970463716193  0.2321549293921661  0.2284825650299094
  0.4999954157581897  0.2949871351493845  0.1880156264048604
  0.5247828930928047  0.3092034408240524  0.2284753574038238
  0.5445038656127658  0.2978707528610226  0.1900609616650181
  0.5445016305197284  0.3205714907724613  0.2606943942463990
  0.5692795349974198  0.2321588760825141  0.2284753574038238
  0.6087118773270040  0.2321549293921661  0.2284825650299094
  0.5890005075173809  0.2208261881194840  0.1900609616650181
  0.6087181282456562  0.2549884534731053  0.1900912133299869
  0.5889982724243435  0.2435269260309228  0.2606943942463990
  0.5692842050612827  0.2549920773791600  0.1900852876846872
  0.5889970860652634  0.2663202500870308  0.2285051634025883
  0.5890102467135745  0.2949871351493845  0.1880156264048604
  0.5642152354223885  0.3091994941337045  0.2284825650299094
  0.6137977240481890  0.3092034408240524  0.2284753574038238
  0.5444884698714173  0.2919046057101077  0.3011839312441267
  0.5247709188035742  0.2577432317055910  0.3011541252453623
  0.4999952494189197  0.3234551084841000  0.2627397295065566
  0.5444918913235353  0.2464105437425614  0.2627397295065566
  0.5247755888674367  0.2805764330022369  0.2627640555262256
  0.5444896562304975  0.2691112816539997  0.3333731620879373
  0.5247636145782062  0.2291162238837754  0.3354428233677642
  0.4999832751296888  0.2719948993656380  0.3354184973480949
  0.5641975377625796  0.2291125999777207  0.3354487490130639
  0.5197008958579642  0.3061571647192590  0.3354487490130639
  0.5444874378162402  0.3203740242014705  0.3759084332069007
  0.5444764955821865  0.2404443965916460  0.3738626990856652
  0.5196946449393116  0.2833236406383199  0.3738401007129863
  0.5642095120518101  0.2805728090961822  0.2627699811715254
  0.6137904198228215  0.2805764330022369  0.2627640555262256
  0.5890100803743045  0.3234551084841000  0.2627397295065566
  0.5889960540100858  0.2947896685783937  0.3032296653653622
  0.5642032611331576  0.2577392850152430  0.3011613328714479
  0.6137857497589586  0.2577432317055910  0.3011541252453623
  0.5889981060850731  0.2719948993656380  0.3354184973480949
  0.5692818036289750  0.3061607886253140  0.3354428233677642
  0.6137784455335910  0.2291162238837754  0.3354428233677642
  0.5889946846329557  0.3174889613331846  0.3738626990856652
  0.6087094758946964  0.2833236406383199  0.3738401007129863
  0.5692771335651121  0.2833275873286676  0.3738328930869007
  0.5889840797208553  0.2433294594599320  0.3759084332069007
  0.6087157268133490  0.3061571647192590  0.3354487490130639
  0.4357248350443597  0.1261958056468523  0.4808003590508411
  0.4357321392697275  0.1548228134686678  0.4465116609284391
  0.4306621163241180  0.2032367464823361  0.4808062846961408
  0.3912281931397442  0.2032403703883909  0.4808003590508411
  0.4109315012868021  0.1119396227316462  0.4465414669272036
  0.4109424435208554  0.1918692503414705  0.4485872010484391
  0.4109444955958425  0.1690744811287151  0.4807760330311719
  0.4109446619351129  0.1406065077939998  0.4060519299294759
  0.4357368093335906  0.1776560147653140  0.4081215912093026
  0.4554390854254704  0.1148246855999319  0.4485872010484391
  0.4554496903375712  0.1889841874731845  0.4465414669272036
  0.4751707325179644  0.1776523908592592  0.4081275168546022
  0.4554531117896886  0.1434901255056380  0.4080972651896335
  0.4751644815993114  0.1548188667783198  0.4465188685545248
  0.4554508766966514  0.1661908634170767  0.4787306977710143
  0.4751587582287335  0.1261921817407975  0.4808062846961408
  0.4802430240951288  0.2032403703883909  0.4808003590508411
  0.4999463322421867  0.1119396227316462  0.4465414669272036
  0.4306501420348872  0.1517765373638742  0.5534850525376792
  0.4306438911162346  0.1289430132829352  0.5918764042376018
  0.3912115487866508  0.1289469599732832  0.5918691966115160
  0.4109304692316245  0.1404090412230090  0.5212659688899777
  0.4109325213066118  0.1176142720102534  0.5534548008727104
  0.4357201649804968  0.1033626043502063  0.5191904287699777
  0.4554389024074209  0.1147306542986150  0.5514094656125528
  0.4554377160483403  0.1375239783547230  0.5192202347687421
  0.4802263797420350  0.1289469599732832  0.5918691966115160
  0.4999473522619960  0.1176142720102534  0.5534548008727104
  0.4999453001870091  0.1404090412230090  0.5212659688899777
  0.4751525073100805  0.1033586576598583  0.5191976363960632
  0.3912162188505137  0.1517801612699294  0.5534791268923797
  0.4109290998544941  0.1631083339777999  0.5918990026102805
  0.4109410741437248  0.2145685430962616  0.5192202347687421
  0.3912235230758813  0.1804071690917447  0.5191904287699777
  0.4306558654054653  0.1804032224013967  0.5191976363960632
  0.4109422605028052  0.1917752190401536  0.5514094656125528
  0.4357297378374200  0.2059915247148218  0.5918691966115160
  0.4554507103573809  0.1946588367517920  0.5534548008727104
  0.4751620801670037  0.2059875780244738  0.5918764042376018
  0.4802310498058983  0.1517801612699294  0.5534791268923797
  0.4999559050991099  0.2145685430962616  0.5192202347687421
  0.4802383540312659  0.1804071690917447  0.5191904287699777
  0.4999570914581896  0.1917752190401536  0.5514094656125528
  0.4999439308098790  0.1631083339777999  0.5918990026102805
  0.5247516402889753  0.1776560147653140  0.4081215912093026
  0.4999594928904978  0.1406065077939998  0.4060519299294759
  0.5444679427450729  0.1434901255056380  0.4080972651896335
  0.5247469702251120  0.1548228134686678  0.4465116609284391
  0.5444645212929560  0.1889841874731845  0.4465414669272036
  0.5444539163808556  0.1148246855999319  0.4485872010484391
  0.5641735891841179  0.1261921817407975  0.4808062846961408
  0.4999572744762396  0.1918692503414705  0.4485872010484391
  0.5444657076520356  0.1661908634170767  0.4787306977710143
  0.5247396659997444  0.1261958056468523  0.4808003590508411
  0.4999593265512269  0.1690744811287151  0.4807760330311719
  0.5196769472795028  0.2032367464823361  0.4808062846961408
  0.6137618011804967  0.1548228134686678  0.4465116609284391
  0.6137544969551292  0.1261958056468523  0.4808003590508411
  0.5889611631975711  0.1119396227316462  0.4465414669272036
  0.5889743238458821  0.1406065077939998  0.4060519299294759
  0.5641793125546962  0.1548188667783198  0.4465188685545248
  0.5889741575066116  0.1690744811287151  0.4807760330311719
  0.5641855634733492  0.1776523908592592  0.4081275168546022
  0.5889721054316244  0.1918692503414705  0.4485872010484391
  0.6137664712443596  0.1776560147653140  0.4081215912093026
  0.5692578550505136  0.2032403703883909  0.4808003590508411
  0.6086917782348875  0.2032367464823361  0.4808062846961408
  0.5247349959358815  0.1033626043502063  0.5191904287699777
  0.5196649729902718  0.1517765373638742  0.5534850525376792
  0.5196587220716192  0.1289430132829352  0.5918764042376018
  0.5444525470037246  0.1375239783547230  0.5192202347687421
  0.5444537333628048  0.1147306542986150  0.5514094656125528
  0.5641673382654653  0.1033586576598583  0.5191976363960632
  0.5889601311423939  0.1404090412230090  0.5212659688899777
  0.5889621832173808  0.1176142720102534  0.5534548008727104
  0.5692412106974197  0.1289469599732832  0.5918691966115160
  0.6086798039456566  0.1517765373638742  0.5534850525376792
  0.6137498268912658  0.1033626043502063  0.5191904287699777
  0.6086735530270040  0.1289430132829352  0.5918764042376018
  0.5641769111223884  0.2059875780244738  0.5918764042376018
  0.5196706963608497  0.1804032224013967  0.5191976363960632
  0.5444634892377788  0.2174536059645474  0.5212659688899777
  0.5444655413127653  0.1946588367517920  0.5534548008727104
  0.5247445687928042  0.2059915247148218  0.5918691966115160
  0.5692458807612827  0.1517801612699294  0.5534791268923797
  0.5692531849866507  0.1804071690917447  0.5191904287699777
  0.5889587617652633  0.1631083339777999  0.5918990026102805
  0.5889707360544947  0.2145685430962616  0.5192202347687421
  0.6086855273162345  0.1804032224013967  0.5191976363960632
  0.6137593997481889  0.2059915247148218  0.5918691966115160
  0.5889719224135744  0.1917752190401536  0.5514094656125528
  0.3912401674289750  0.2547005795068525  0.4081215912093026
  0.3912354973651122  0.2318673782102064  0.4465116609284391
  0.4306678396946962  0.2318634315198584  0.4465188685545248
  0.4109564698850732  0.2205346902471763  0.4080972651896335
  0.4306740906133492  0.2546969556007976  0.4081275168546022
  0.4802549983843598  0.2547005795068525  0.4081215912093026
  0.4802503283204973  0.2318673782102064  0.4465116609284391
  0.4554628509858822  0.2176510725355382  0.4060519299294759
  0.4109530484329557  0.2660287522147229  0.4465414669272036
  0.3861774487087337  0.3317415203423359  0.4081275168546022
  0.4109662090812668  0.2946956372770765  0.4060519299294759
  0.4357583564797443  0.3317451442483909  0.4081215912093026
  0.4357536864158814  0.3089119429517450  0.4465116609284391
  0.4554606325716245  0.2689138150830089  0.4485872010484391
  0.4751922796641181  0.3317415203423359  0.4081275168546022
  0.4751860287454651  0.3089079962613968  0.4465188685545248
  0.4999678793883404  0.2660287522147229  0.4465414669272036
  0.4554746589358423  0.2975792549887149  0.4080972651896335
  0.4109542347920359  0.2432354281586153  0.4787306977710143
  0.4109520163777781  0.2944981707060857  0.5212659688899777
  0.4357417121266507  0.2574517338332833  0.5191904287699777
  0.4109660427419962  0.3231636106117918  0.4807760330311719
  0.4357463821905138  0.2802849351299295  0.4808003590508411
  0.4554486582823940  0.2174536059645474  0.5212659688899777
  0.4554592631944939  0.2916131078378000  0.5192202347687421
  0.4554626846466114  0.2461190458702535  0.4807760330311719
  0.4554724238428050  0.3202799929001537  0.4787306977710143
  0.4751740544562346  0.2574477871429353  0.5191976363960632
  0.4999668473331628  0.2944981707060857  0.5212659688899777
  0.4999690657474206  0.2432354281586153  0.4787306977710143
  0.4751803053748876  0.2802813112238745  0.4808062846961408
  0.4306716891810413  0.3058656668469511  0.5534850525376792
  0.4109506470006482  0.3171974634608769  0.5918990026102805
  0.4109540684527654  0.2717034014933303  0.5534548008727104
  0.3912330959328044  0.2830360894563602  0.5918691966115160
  0.4306654382623885  0.2830321427660122  0.5918764042376018
  0.3912377659966673  0.3058692907530063  0.5534791268923797
  0.4357344079012826  0.2288247260114677  0.5534791268923797
  0.4554472889052634  0.2401528987193385  0.5918990026102805
  0.4751683310856563  0.2288211021054128  0.5534850525376792
  0.4802479268881891  0.2830360894563602  0.5918691966115160
  0.4999688994081501  0.2717034014933303  0.5534548008727104
  0.4802525969520520  0.3058692907530063  0.5534791268923797
  0.4554604495535741  0.2688197837816922  0.5514094656125528
  0.4999654779560326  0.3171974634608769  0.5918990026102805
  0.6086975016054654  0.2318634315198584  0.4465188685545248
  0.5444776819412670  0.2176510725355382  0.4060519299294759
  0.4999713008404578  0.2205346902471763  0.4080972651896335
  0.5889861317958426  0.2205346902471763  0.4080972651896335
  0.5196826706500807  0.2318634315198584  0.4465188685545248
  0.5692651592758816  0.2318673782102064  0.4465116609284391
  0.5196889215687337  0.2546969556007976  0.4081275168546022
  0.6087037525241185  0.2546969556007976  0.4081275168546022
  0.5692698293397445  0.2547005795068525  0.4081215912093026
  0.5444754635270088  0.2689138150830089  0.4485872010484391
  0.4999810400366514  0.2946956372770765  0.4060519299294759
  0.5247685173712665  0.3089119429517450  0.4465116609284391
  0.5247731874351289  0.3317451442483909  0.4081215912093026
  0.5444894898912270  0.2975792549887149  0.4080972651896335
  0.5642008597008499  0.3089079962613968  0.4465188685545248
  0.5642071106195029  0.3317415203423359  0.4081275168546022
  0.5889958709920362  0.2946956372770765  0.4060519299294759
  0.5889827103437252  0.2660287522147229  0.4465414669272036
  0.6137833483266508  0.3089119429517450  0.4465116609284391
  0.6137880183905138  0.3317451442483909  0.4081215912093026
  0.5247612131458981  0.2802849351299295  0.4808003590508411
  0.5247565430820351  0.2574517338332833  0.5191904287699777
  0.4999808736973806  0.3231636106117918  0.4807760330311719
  0.5444872547981898  0.3202799929001537  0.4787306977710143
  0.5444775156019961  0.2461190458702535  0.4807760330311719
  0.5444740941498787  0.2916131078378000  0.5192202347687421
  0.5641888854116189  0.2574477871429353  0.5191976363960632
  0.5641951363302720  0.2802813112238745  0.4808062846961408
  0.6137713740374199  0.2574517338332833  0.5191904287699777
  0.6137760441012828  0.2802849351299295  0.4808003590508411
  0.5889957046527654  0.3231636106117918  0.4807760330311719
  0.5889838967028049  0.2432354281586153  0.4787306977710143
  0.5889816782885475  0.2944981707060857  0.5212659688899777
  0.5641831620410410  0.2288211021054128  0.5534850525376792
  0.5444621198606482  0.2401528987193385  0.5918990026102805
  0.5247492388566676  0.2288247260114677  0.5534791268923797
  0.5444752805089593  0.2688197837816922  0.5514094656125528
  0.5196802692177729  0.2830321427660122  0.5918764042376018
  0.5196865201364255  0.3058656668469511  0.5534850525376792
  0.5692627578435734  0.2830360894563602  0.5918691966115160
  0.5692674279074368  0.3058692907530063  0.5534791268923797
  0.5889803089114174  0.3171974634608769  0.5918990026102805
  0.6086951001731576  0.2830321427660122  0.5918764042376018
  0.6087013510918102  0.3058656668469511  0.5534850525376792
  0.6137640698120519  0.2288247260114677  0.5534791268923797
  0.5889837303635345  0.2717034014933303  0.5534548008727104
  0.3912714202328045  0.3862480055655910  0.2284753574038238
  0.3861918244302718  0.3320330182146438  0.1900912133299869
  0.4109889713006483  0.4204093795701078  0.2285051634025883
  0.3912760902966674  0.4090812068622371  0.1900852876846872
  0.4109783663885477  0.3462498776968551  0.2305508975238238
  0.4307100134810411  0.4090775829561822  0.1900912133299869
  0.4307037625623884  0.3862440588752430  0.2284825650299094
  0.4109923927527655  0.3749153176025611  0.1900609616650181
  0.4109901576597282  0.3976160555139999  0.2606943942463990
  0.4999931973439322  0.3462498776968551  0.2305508975238238
  0.4357727322012828  0.3320366421206986  0.1900852876846872
  0.4554856132052635  0.3433648148285692  0.2285051634025883
  0.4752066553856565  0.3320330182146438  0.1900912133299869
  0.4554987738535743  0.3720316998909229  0.1880156264048604
  0.4802862511881892  0.3862480055655910  0.2284753574038238
  0.5000038022560327  0.4204093795701078  0.2285051634025883
  0.4802909212520521  0.4090812068622371  0.1900852876846872
  0.4554965554393168  0.4232944424383936  0.2305508975238238
  0.4554986075143041  0.4004996732256381  0.2627397295065566
  0.3912641160074367  0.3576209977437755  0.2627640555262256
  0.3862013972871949  0.4346619385792591  0.2627699811715254
  0.4306980391918103  0.3576173738377207  0.2627699811715254
  0.3861951463685423  0.4118284144983200  0.3011613328714479
  0.4357776349943429  0.4118323611886680  0.3011541252453623
  0.4306917882731576  0.3347838497567814  0.3011613328714479
  0.3912594459435740  0.3347877964471294  0.3011541252453623
  0.4109769970114172  0.3689491704516461  0.3011839312441267
  0.4109781833704975  0.3461558463955383  0.3333731620879373
  0.4109899913204578  0.4260840288487150  0.3354184973480949
  0.4357656607051123  0.3603721520702060  0.3738328930869007
  0.3861894229979643  0.3832017294607977  0.3354487490130639
  0.3861831720793118  0.3603682053798583  0.3738401007129863
  0.4357703307689753  0.3832053533668525  0.3354428233677642
  0.4802742768989587  0.3347877964471294  0.3011541252453623
  0.4752162282425795  0.4346619385792591  0.2627699811715254
  0.4357823050582059  0.4346655624853141  0.2627640555262256
  0.4802789469628214  0.3576209977437755  0.2627640555262256
  0.4554845811500859  0.3718342333199320  0.3032296653653622
  0.4752099773239269  0.4118284144983200  0.3011613328714479
  0.4999918279668018  0.3689491704516461  0.3011839312441267
  0.4554963724212666  0.4232004111370768  0.3333731620879373
  0.4999930143258819  0.3461558463955383  0.3333731620879373
  0.4554866332250732  0.3490394641071766  0.3354184973480949
  0.4752042539533488  0.3832017294607977  0.3354487490130639
  0.4751980030346964  0.3603682053798583  0.3738401007129863
  0.4554832117729558  0.3945335260747231  0.3738626990856652
  0.4357896092835737  0.4632925703071294  0.2284753574038238
  0.4110139398989195  0.5290044470856381  0.1900609616650181
  0.4110021319489589  0.4490762646324613  0.1880156264048604
  0.4357942793474368  0.4861257716037757  0.1900852876846872
  0.3862133715764257  0.4861221476977207  0.1900912133299869
  0.4752282025318106  0.4861221476977207  0.1900912133299869
  0.4555105818035348  0.4519598823440997  0.1900609616650181
  0.3912929673789586  0.5403371350486680  0.2284753574038238
  0.4555203209997282  0.5261208293739998  0.1880156264048604
  0.4803077983343431  0.5403371350486680  0.2284753574038238
  0.4110019656096887  0.4775442379671766  0.2627397295065566
  0.3912809930897276  0.4888769259302064  0.3011541252453623
  0.3912856631535906  0.5117101272268526  0.2627640555262256
  0.3862071206577731  0.4632886236167814  0.2284825650299094
  0.4109999135347012  0.5003390071799320  0.2305508975238238
  0.4307195863379642  0.5117065033207977  0.2627699811715254
  0.4307253097085424  0.5403331883583200  0.2284825650299094
  0.4555083467104973  0.4746606202555383  0.2606943942463990
  0.4555071603514171  0.4974539443116464  0.2285051634025883
  0.4803004941089752  0.5117101272268526  0.2627640555262256
  0.4802958240451121  0.4888769259302064  0.3011541252453623
  0.4752219516131576  0.4632886236167814  0.2284825650299094
  0.4307013611300807  0.4374127701213970  0.3738401007129863
  0.3912690188004967  0.4374167168117449  0.3738328930869007
  0.4307076120487335  0.4602462942023361  0.3354487490130639
  0.4109879392454708  0.4488787980614705  0.3032296653653622
  0.3912736888643596  0.4602499181083910  0.3354428233677642
  0.4109865698683402  0.4715780908162617  0.3738626990856652
  0.4307133354193117  0.4888729792398584  0.3011613328714479
  0.3862047192254656  0.5144573348629353  0.3738401007129863
  0.4109985441575711  0.5230382999347231  0.3011839312441267
  0.4109997305166513  0.5002449758786152  0.3333731620879373
  0.3862109701441180  0.5372908589438746  0.3354487490130639
  0.5000027702008552  0.4488787980614705  0.3032296653653622
  0.4802838497558815  0.4374167168117449  0.3738328930869007
  0.4554951860621867  0.4459937351931846  0.3011839312441267
  0.5000014008237250  0.4715780908162617  0.3738626990856652
  0.4802885198197445  0.4602499181083910  0.3354428233677642
  0.4555081803712271  0.5031285935902533  0.3354184973480949
  0.4752258010995027  0.5372908589438746  0.3354487490130639
  0.4555047589191094  0.5486226555578001  0.3738626990856652
  0.4357918779151290  0.5372944828499295  0.3354428233677642
  0.4555061282962398  0.5259233628030090  0.3032296653653622
  0.4357872078512660  0.5144612815532833  0.3738328930869007
  0.4752195501808501  0.5144573348629353  0.3738401007129863
  0.5445004441606482  0.3433648148285692  0.2285051634025883
  0.5642214863410411  0.3320330182146438  0.1900912133299869
  0.5247875631566676  0.3320366421206986  0.1900852876846872
  0.5445136048089592  0.3720316998909229  0.1880156264048604
  0.5000072237081502  0.3749153176025611  0.1900609616650181
  0.5197185935177732  0.3862440588752430  0.2284825650299094
  0.5000049886151129  0.3976160555139999  0.2606943942463990
  0.5445134384696889  0.4004996732256381  0.2627397295065566
  0.5197248444364257  0.4090775829561822  0.1900912133299869
  0.5247971360135906  0.4346655624853141  0.2627640555262256
  0.5445113863947013  0.4232944424383936  0.2305508975238238
  0.5890220546635350  0.3749153176025611  0.1900609616650181
  0.5692937779182059  0.3576209977437755  0.2627640555262256
  0.6138023941120522  0.3320366421206986  0.1900852876846872
  0.5890080282993169  0.3462498776968551  0.2305508975238238
  0.6087334244731577  0.3862440588752430  0.2284825650299094
  0.5693010821435739  0.3862480055655910  0.2284753574038238
  0.5890198195704976  0.3976160555139999  0.2606943942463990
  0.6087396753918101  0.4090775829561822  0.1900912133299869
  0.6138119669689751  0.4346655624853141  0.2627640555262256
  0.5693057522074368  0.4090812068622371  0.1900852876846872
  0.5890186332114175  0.4204093795701078  0.2285051634025883
  0.5247924659497277  0.4118323611886680  0.3011541252453623
  0.5444994121054705  0.3718342333199320  0.3032296653653622
  0.5197128701471950  0.3576173738377207  0.2627699811715254
  0.5197066192285424  0.3347838497567814  0.3011613328714479
  0.5445112033766512  0.4232004111370768  0.3333731620879373
  0.5445014641804580  0.3490394641071766  0.3354184973480949
  0.5000048222758422  0.4260840288487150  0.3354184973480949
  0.5642128339900813  0.3603682053798583  0.3738401007129863
  0.5247804916604970  0.3603721520702060  0.3738328930869007
  0.5247851617243598  0.3832053533668525  0.3354428233677642
  0.5444980427283403  0.3945335260747231  0.3738626990856652
  0.5642190849087334  0.3832017294607977  0.3354487490130639
  0.6087214501839272  0.3347838497567814  0.3011613328714479
  0.5642310591979642  0.4346619385792591  0.2627699811715254
  0.6087277011025796  0.3576173738377207  0.2627699811715254
  0.6138072969051125  0.4118323611886680  0.3011541252453623
  0.5642248082793117  0.4118284144983200  0.3011613328714479
  0.5692891078543431  0.3347877964471294  0.3011541252453623
  0.5890066589221865  0.3689491704516461  0.3011839312441267
  0.5890078452812667  0.3461558463955383  0.3333731620879373
  0.5890196532312272  0.4260840288487150  0.3354184973480949
  0.6137999926797442  0.3832053533668525  0.3354428233677642
  0.6137953226158818  0.3603721520702060  0.3738328930869007
  0.6087310230408500  0.4374127701213970  0.3738401007129863
  0.5000167965650736  0.4775442379671766  0.2627397295065566
  0.5197401406639268  0.5403331883583200  0.2284825650299094
  0.5000287708543041  0.5290044470856381  0.1900609616650181
  0.5000147444900860  0.5003390071799320  0.2305508975238238
  0.5000169629043436  0.4490762646324613  0.1880156264048604
  0.5445231776658821  0.4746606202555383  0.2606943942463990
  0.5248091103028213  0.4861257716037757  0.1900852876846872
  0.5445219913068019  0.4974539443116464  0.2285051634025883
  0.5248044402389583  0.4632925703071294  0.2284753574038238
  0.5445254127589194  0.4519598823440997  0.1900609616650181
  0.5890316275204579  0.4775442379671766  0.2627397295065566
  0.5642430334871952  0.4861221476977207  0.1900912133299869
  0.6138239412582058  0.4861257716037757  0.1900852876846872
  0.5642367825685422  0.4632886236167814  0.2284825650299094
  0.5890317938597279  0.4490762646324613  0.1880156264048604
  0.6138192711943432  0.4632925703071294  0.2284753574038238
  0.5890295754454706  0.5003390071799320  0.2305508975238238
  0.5693153250643600  0.5117101272268526  0.2627640555262256
  0.5445351519551128  0.5261208293739998  0.1880156264048604
  0.6087549716193114  0.5403331883583200  0.2284825650299094
  0.5693226292897277  0.5403371350486680  0.2284753574038238
  0.5890436018096886  0.5290044470856381  0.1900609616650181
  0.5445230113266116  0.5031285935902533  0.3354184973480949
  0.5197161920854655  0.4374127701213970  0.3738401007129863
  0.5197224430041181  0.4602462942023361  0.3354487490130639
  0.5197281663746965  0.4888729792398584  0.3011613328714479
  0.5445100170175710  0.4459937351931846  0.3011839312441267
  0.5000145614720358  0.5002449758786152  0.3333731620879373
  0.5197344172933487  0.5117065033207977  0.2627699811715254
  0.5642343811362349  0.5144573348629353  0.3738401007129863
  0.5248020388066507  0.5144612815532833  0.3738328930869007
  0.5000133751129558  0.5230382999347231  0.3011839312441267
  0.5248067088705135  0.5372944828499295  0.3354428233677642
  0.5445195898744942  0.5486226555578001  0.3738626990856652
  0.5445209592516244  0.5259233628030090  0.3032296653653622
  0.5890282060683403  0.5230382999347231  0.3011839312441267
  0.6087492482487337  0.5117065033207977  0.2627699811715254
  0.6087429973300807  0.4888729792398584  0.3011613328714479
  0.5693106550004969  0.4888769259302064  0.3011541252453623
  0.5890176011562397  0.4488787980614705  0.3032296653653622
  0.5890293924274206  0.5002449758786152  0.3333731620879373
  0.5693033507751291  0.4602499181083910  0.3354428233677642
  0.5642406320548877  0.5372908589438746  0.3354487490130639
  0.6138215398258983  0.5372944828499295  0.3354428233677642
  0.6087372739595024  0.4602462942023361  0.3354487490130639
  0.6138168697620354  0.5144612815532833  0.3738328930869007
  0.5692986807112662  0.4374167168117449  0.3738328930869007
  0.5890162317791098  0.4715780908162617  0.3738626990856652
  0.4109759649562399  0.3974185889430089  0.3759084332069007
  0.3912570445112663  0.3859565076932831  0.4465116609284391
  0.4306956377595026  0.4087860850838747  0.4081275168546022
  0.4306893868408501  0.3859525610029351  0.4465188685545248
  0.4554712374837248  0.3430733169562615  0.4465414669272036
  0.4802645712412829  0.3573294998714681  0.4808003590508411
  0.4999788216223937  0.3459583798245475  0.4485872010484391
  0.4554843981320359  0.3717402020186151  0.4060519299294759
  0.4802718754666510  0.3859565076932831  0.4465116609284391
  0.4999906128935742  0.3973245576416920  0.4787306977710143
  0.4802765455305139  0.4087897089899295  0.4081215912093026
  0.4554842317927655  0.4002081753533304  0.4807760330311719
  0.4999894265344945  0.4201178816978001  0.4465414669272036
  0.4554821797177784  0.4230029445660858  0.4485872010484391
  0.4554941540070093  0.4744631536845474  0.3759084332069007
  0.4554962060819964  0.4516683844717920  0.4080972651896335
  0.4109877562274204  0.4487847667601537  0.4060519299294759
  0.4752138268102718  0.4858306498254130  0.4081275168546022
  0.3861989958548874  0.4858306498254130  0.4081275168546022
  0.4752075758916192  0.4629971257444738  0.4465188685545248
  0.3861927449362348  0.4629971257444738  0.4465188685545248
  0.4554939709889589  0.4743691223832306  0.4787306977710143
  0.4109875898881500  0.4772527400948689  0.4807760330311719
  0.4357679293366674  0.4343740646130063  0.4808003590508411
  0.4357752335620352  0.4630010724348218  0.4465116609284391
  0.4109995641773810  0.5287129492133305  0.4080972651896335
  0.3912712874320524  0.5114186293545449  0.4808003590508411
  0.3912785916574201  0.5400456371763603  0.4465116609284391
  0.4109855378131629  0.5000475093076244  0.4485872010484391
  0.4307109339870041  0.5400416904860122  0.4465188685545248
  0.4802861183874368  0.5114186293545449  0.4808003590508411
  0.4554927846298789  0.4971624464393385  0.4465414669272036
  0.4555059452781896  0.5258293315016921  0.4060519299294759
  0.4802934226128044  0.5400456371763603  0.4465116609284391
  0.4357799036258981  0.4858342737314679  0.4081215912093026
  0.3861807706470043  0.4115369166260122  0.5191976363960632
  0.3912450702220354  0.3344962985748219  0.5191904287699777
  0.4357632592728046  0.4115408633163603  0.5191904287699777
  0.4306774125516192  0.3344923518844739  0.5191976363960632
  0.3861870215656568  0.4343704407069515  0.4808062846961408
  0.4109626212898785  0.3686576725793383  0.5192202347687421
  0.4109638076489591  0.3458643485232306  0.5514094656125528
  0.4109756155989195  0.4257925309764073  0.5534548008727104
  0.3861750472764259  0.3829102315884895  0.5534850525376792
  0.4357559550474368  0.3829138554945449  0.5534791268923797
  0.4357512849835739  0.3600806541978988  0.5918691966115160
  0.4554688360514171  0.3942420282024153  0.5918990026102805
  0.4802599011774200  0.3344962985748219  0.5191904287699777
  0.4752018525210413  0.4343704407069515  0.4808062846961408
  0.4554702054285472  0.3715427354476243  0.5212659688899777
  0.4999774522452631  0.3686576725793383  0.5192202347687421
  0.4751956016023883  0.4115369166260122  0.5191976363960632
  0.4554819966997282  0.4229089132647689  0.5514094656125528
  0.4999786386043433  0.3458643485232306  0.5514094656125528
  0.4554722575035345  0.3487479662348687  0.5534548008727104
  0.4751898782318104  0.3829102315884895  0.5534850525376792
  0.4751836273131578  0.3600767075075508  0.5918764042376018
  0.4999904465543037  0.4257925309764073  0.5534548008727104
  0.4307052106164260  0.5114150054484899  0.4808062846961408
  0.4109841684360327  0.5227468020624155  0.5192202347687421
  0.3912593131428216  0.4599584202360833  0.5534791268923797
  0.4306869854085423  0.4371212722490891  0.5918764042376018
  0.4109721941468020  0.4712865929439539  0.5918990026102805
  0.3861965944225798  0.5369993610715669  0.5534850525376792
  0.4306932363271949  0.4599547963300284  0.5534850525376792
  0.3861903435039272  0.5141658369906276  0.5918764042376018
  0.3912546430789584  0.4371252189394371  0.5918691966115160
  0.4999883944793169  0.4485873001891628  0.5212659688899777
  0.4999870251021865  0.4712865929439539  0.5918990026102805
  0.4802741440982059  0.4599584202360833  0.5534791268923797
  0.4802694740343432  0.4371252189394371  0.5918691966115160
  0.4554808103406478  0.4457022373208769  0.5192202347687421
  0.4554938046496886  0.5028370957179458  0.5534548008727104
  0.4802814483235737  0.4885854280578987  0.5191904287699777
  0.4554917525747014  0.5256318649307012  0.5212659688899777
  0.4752051744593117  0.5141658369906276  0.5918764042376018
  0.4554903831975712  0.5483311576854925  0.5918990026102805
  0.4752114253779640  0.5369993610715669  0.5534850525376792
  0.4357775021935905  0.5370029849776219  0.5534791268923797
  0.4357728321297278  0.5141697836809755  0.5918691966115160
  0.5889936525777780  0.3459583798245475  0.4485872010484391
  0.5444860684391096  0.3430733169562615  0.4465414669272036
  0.5890076789419962  0.3746238197302535  0.4080972651896335
  0.4999928479866115  0.3746238197302535  0.4080972651896335
  0.5444992290874207  0.3717402020186151  0.4060519299294759
  0.6087190487516191  0.3859525610029351  0.4465188685545248
  0.5197042177962348  0.3859525610029351  0.4465188685545248
  0.5692867064220353  0.3859565076932831  0.4465116609284391
  0.5000025871828051  0.4487847667601537  0.4060519299294759
  0.4999907959116249  0.3974185889430089  0.3759084332069007
  0.5444990627481499  0.4002081753533304  0.4807760330311719
  0.5197104687148874  0.4087860850838747  0.4081275168546022
  0.5444970106731629  0.4230029445660858  0.4485872010484391
  0.5692913764858982  0.4087897089899295  0.4081215912093026
  0.5890054438489590  0.3973245576416920  0.4787306977710143
  0.6087252996702723  0.4087860850838747  0.4081275168546022
  0.5890042574898788  0.4201178816978001  0.4465414669272036
  0.5890056268670090  0.3974185889430089  0.3759084332069007
  0.5445089849623939  0.4744631536845474  0.3759084332069007
  0.5000143951327656  0.5287129492133305  0.4080972651896335
  0.5445110370373809  0.4516683844717920  0.4080972651896335
  0.5445207762335743  0.5258293315016921  0.4060519299294759
  0.5247947345812830  0.4858342737314679  0.4081215912093026
  0.5247900645174197  0.4630010724348218  0.4465116609284391
  0.5445076155852635  0.4971624464393385  0.4465414669272036
  0.5197257649423884  0.5400416904860122  0.4465188685545248
  0.5000024208435346  0.4772527400948689  0.4807760330311719
  0.5000003687685476  0.5000475093076244  0.4485872010484391
  0.5445088019443437  0.4743691223832306  0.4787306977710143
  0.5642286577656566  0.4858306498254130  0.4081275168546022
  0.5642224068470038  0.4629971257444738  0.4465188685545248
  0.5890174181381899  0.4487847667601537  0.4060519299294759
  0.6138048954728045  0.4630010724348218  0.4465116609284391
  0.5890172517989191  0.4772527400948689  0.4807760330311719
  0.6138095655366674  0.4858342737314679  0.4081215912093026
  0.5890151997239321  0.5000475093076244  0.4485872010484391
  0.5890292260881501  0.5287129492133305  0.4080972651896335
  0.6087405958977734  0.5400416904860122  0.4465188685545248
  0.5693082535681891  0.5400456371763603  0.4465116609284391
  0.5196922435070038  0.3344923518844739  0.5191976363960632
  0.6087070744623886  0.3344923518844739  0.5191976363960632
  0.5692794021966673  0.3573294998714681  0.4808003590508411
  0.6087133253810412  0.3573258759654128  0.4808062846961408
  0.5247827602920522  0.4343740646130063  0.4808003590508411
  0.5196984944256564  0.3573258759654128  0.4808062846961408
  0.5642166834764256  0.4343704407069515  0.4808062846961408
  0.5692747321328043  0.3344962985748219  0.5191904287699777
  0.6137929211835735  0.4115408633163603  0.5191904287699777
  0.5247780902281888  0.4115408633163603  0.5191904287699777
  0.6137975912474367  0.4343740646130063  0.4808003590508411
  0.5642104325577735  0.4115369166260122  0.5191976363960632
  0.5444850363839324  0.3715427354476243  0.5212659688899777
  0.5889922832006479  0.3686576725793383  0.5192202347687421
  0.5197018163639270  0.4371212722490891  0.5918764042376018
  0.5444968276551130  0.4229089132647689  0.5514094656125528
  0.5444836670068018  0.3942420282024153  0.5918990026102805
  0.5247707860028212  0.3829138554945449  0.5534791268923797
  0.5444870884589194  0.3487479662348687  0.5534548008727104
  0.5247661159389583  0.3600806541978988  0.5918691966115160
  0.5641984582685421  0.3600767075075508  0.5918764042376018
  0.5642047091871947  0.3829102315884895  0.5534850525376792
  0.5890052775096886  0.4257925309764073  0.5534548008727104
  0.5889934695597281  0.3458643485232306  0.5514094656125528
  0.6137856169582060  0.3829138554945449  0.5534791268923797
  0.6137809468943431  0.3600806541978988  0.5918691966115160
  0.4999989993914170  0.5227468020624155  0.5192202347687421
  0.5197137906531579  0.4885814813675508  0.5191976363960632
  0.5444956412960326  0.4457022373208769  0.5192202347687421
  0.5197200415718105  0.5114150054484899  0.4808062846961408
  0.5445065835300861  0.5256318649307012  0.5212659688899777
  0.5000001857504974  0.4999534780063076  0.5514094656125528
  0.5445086356050732  0.5028370957179458  0.5534548008727104
  0.5197080672825796  0.4599547963300284  0.5534850525376792
  0.5445052141529557  0.5483311576854925  0.5918990026102805
  0.5247923331489751  0.5370029849776219  0.5534791268923797
  0.5642200054146962  0.5141658369906276  0.5918764042376018
  0.5642262563333488  0.5369993610715669  0.5534850525376792
  0.5247876630851124  0.5141697836809755  0.5918691966115160
  0.5890032254347012  0.4485873001891628  0.5212659688899777
  0.6087348725271948  0.5114150054484899  0.4808062846961408
  0.5693009493428214  0.5114186293545449  0.4808003590508411
  0.5692962792789587  0.4885854280578987  0.5191904287699777
  0.6087286216085422  0.4885814813675508  0.5191976363960632
  0.5890138303468018  0.5227468020624155  0.5192202347687421
  0.5890150167058822  0.4999534780063076  0.5514094656125528
  0.5890018560575710  0.4712865929439539  0.5918990026102805
  0.6087228982379643  0.4599547963300284  0.5534850525376792
  0.6087166473193113  0.4371212722490891  0.5918764042376018
  0.5692889750535907  0.4599584202360833  0.5534791268923797
  0.6138071641043599  0.5370029849776219  0.5534791268923797
  0.6138024940404970  0.5141697836809755  0.5918691966115160
  0.5692843049897276  0.4371252189394371  0.5918691966115160
  0.0746219382164260  0.4084945872115668  0.6261638203792175
  0.0746372344439270  0.5397501926137046  0.6645551720791402
  0.0797062040828214  0.4855427758591603  0.6261578947339180
  0.0797015340189582  0.4627095745625140  0.6645479644530545
  0.2576881016374200  0.1545313155963603  0.6645479644530545
  0.2081118639302722  0.1773608929869515  0.6261638203792175
  0.2576927717012833  0.1773645168930063  0.6261578947339180
  0.2526180786918103  0.2029452486100284  0.6988425882207558
  0.2328970365114175  0.2142770452239537  0.7372565382933574
  0.1636152220256567  0.2544054577284901  0.6261638203792175
  0.1439073404935745  0.2944041394047691  0.6240882334540911
  0.1438955492223940  0.2430379615876243  0.5939447367315162
  0.0993989073177784  0.3200825263291626  0.5939447367315162
  0.1686948178281893  0.3086204450794370  0.6645479644530545
  0.1636089711070039  0.2315719336475507  0.6645551720791402
  0.1438941798452632  0.2657372543424156  0.6645777704518190
  0.1686875136028213  0.2799934372576218  0.6988366625754564
  0.1439071741543038  0.3228721127394844  0.6988123365557871
  0.1191123292023886  0.3086164983890891  0.6645551720791402
  0.2131914597328047  0.2315758803378987  0.6645479644530545
  0.2329124322527656  0.2202431923748689  0.6261335687142489
  0.1884039823981901  0.2173595746632305  0.6240882334540911
  0.2329103801777783  0.2430379615876243  0.5939447367315162
  0.2526300529810415  0.2544054577284901  0.6261638203792175
  0.2131961297966677  0.2544090816345446  0.6261578947339180
  0.2329221714489593  0.2944041394047691  0.6240882334540911
  0.2577096487835741  0.3086204450794370  0.6645479644530545
  0.1884157903481503  0.2972877571164072  0.6261335687142489
  0.1884038160589194  0.2458275479979458  0.6988123365557871
  0.2526238020623887  0.2315719336475507  0.6645551720791402
  0.2329101971597284  0.2429439302863071  0.6967670012956295
  0.2576976744943427  0.2571602359609756  0.7372267322945931
  0.2081151858685426  0.2571562892706276  0.7372339399206785
  0.2329090108006482  0.2657372543424156  0.6645777704518190
  0.1884017639839323  0.2686223172107012  0.6666235045730544
  0.2081214367871950  0.2799898133515668  0.6988425882207558
  0.1884003946068015  0.2913216099654923  0.7372565382933574
  0.2577023445582061  0.2799934372576218  0.6988366625754564
  0.2081271601577733  0.3086164983890891  0.6645551720791402
  0.2329220051096888  0.3228721127394844  0.6988123365557871
  0.1884135552551126  0.3199884950278458  0.6967670012956295
  0.2576903702689751  0.2285332281391603  0.7715154304169950
  0.2329100308204579  0.2714119036210226  0.7714911043973257
  0.2526214006300807  0.2827406448937047  0.8099127077622169
  0.2329079787454706  0.2942066728337783  0.7393022724145930
  0.2131937283643596  0.3055777928806986  0.7715154304169950
  0.2329066093683405  0.3169059655885692  0.8099353061348958
  0.2526276515487335  0.3055741689746436  0.7715213560622944
  0.0994106985889589  0.3714487041463074  0.6240882334540911
  0.1439170963685477  0.3971270910707012  0.5939447367315162
  0.1439191484435348  0.3743323218579456  0.6261335687142489
  0.1242028459874367  0.4084982111176218  0.6261578947339180
  0.1191185801210411  0.3314500224700287  0.6261638203792175
  0.1636367691718104  0.4084945872115668  0.6261638203792175
  0.1439157269914173  0.4198263838254926  0.6645777704518190
  0.1636305182531576  0.3856610631306276  0.6645551720791402
  0.1241981759235738  0.3856650098209756  0.6645479644530545
  0.0993975379406481  0.3427818190839540  0.6645777704518190
  0.1439037527021864  0.3683661747070309  0.7372565382933574
  0.1439051220793170  0.3456668819522398  0.6666235045730544
  0.1636185439639266  0.3342008540121660  0.7372339399206785
  0.1241908716982057  0.3570380019991601  0.6988366625754564
  0.1636247948825796  0.3570343780931053  0.6988425882207558
  0.1439169133504970  0.3970330597693843  0.6967670012956295
  0.0994105322496883  0.3999166774810227  0.6988123365557871
  0.1687043906851121  0.4112493654440526  0.7372267322945931
  0.1191219020593115  0.4112454187537045  0.7372339399206785
  0.0994084801747014  0.4227114466937781  0.6666235045730544
  0.1884123688960326  0.3427818190839540  0.6645777704518190
  0.2526516001271951  0.4084945872115668  0.6261638203792175
  0.2526453492085425  0.3856610631306276  0.6645551720791402
  0.2329319273239324  0.3971270910707012  0.5939447367315162
  0.2329339793989193  0.3743323218579456  0.6261335687142489
  0.2329305579468018  0.4198263838254926  0.6645777704518190
  0.2132130068789585  0.3856650098209756  0.6645479644530545
  0.2577143188474370  0.3314536463760832  0.6261578947339180
  0.2081334110764259  0.3314500224700287  0.6261638203792175
  0.2132176769428214  0.4084982111176218  0.6261578947339180
  0.2329199530347015  0.3456668819522398  0.6666235045730544
  0.2526333749193119  0.3342008540121660  0.7372339399206785
  0.2132010325897278  0.3342048007025140  0.7372267322945931
  0.2329185836575711  0.3683661747070309  0.7372565382933574
  0.2132057026535903  0.3570380019991601  0.6988366625754564
  0.2526396258379642  0.3570343780931053  0.6988425882207558
  0.2329317443058820  0.3970330597693843  0.6967670012956295
  0.1884253632050733  0.3999166774810227  0.6988123365557871
  0.2081367330146963  0.4112454187537045  0.7372339399206785
  0.2577192216404970  0.4112493654440526  0.7372267322945931
  0.1884233111300860  0.4227114466937781  0.6666235045730544
  0.1191338763485424  0.4627056278721660  0.6645551720791402
  0.1439288876397282  0.4484932688878458  0.6240882334540911
  0.0994225065389190  0.4513768865994842  0.6261335687142489
  0.0994204544639321  0.4741716558122397  0.5939447367315162
  0.1687163649743430  0.4627095745625140  0.6645479644530545
  0.1191401272671949  0.4855391519531054  0.6261638203792175
  0.1687210350382060  0.4855427758591603  0.6261578947339180
  0.0994322457351127  0.5255378336293844  0.6240882334540911
  0.1439406955896886  0.5284214513410229  0.6261335687142489
  0.1636520653993115  0.5397501926137046  0.6645551720791402
  0.1242197230697275  0.5397541393040527  0.6645479644530545
  0.1191281529779641  0.4340789428346437  0.6988425882207558
  0.1687090607489750  0.4340825667406987  0.6988366625754564
  0.1439287213004575  0.4769612422225611  0.6988123365557871
  0.0994202714458819  0.4740776245109229  0.6967670012956295
  0.1636400911100810  0.4882899834952431  0.7372339399206785
  0.1242077487804969  0.4882939301855911  0.7372267322945931
  0.0994190850868020  0.4968709485670310  0.6645777704518190
  0.1439266692254705  0.4997560114353167  0.6666235045730544
  0.1439252998483404  0.5224553041901078  0.7372565382933574
  0.1636463420287334  0.5111235075761823  0.6988425882207558
  0.1242124188443598  0.5111271314822372  0.6988366625754564
  0.2329437185951131  0.4484932688878458  0.6240882334540911
  0.1884373374943040  0.4513768865994842  0.6261335687142489
  0.2081487073039270  0.4627056278721660  0.6645551720791402
  0.2577311959297278  0.4627095745625140  0.6645479644530545
  0.1884352854193166  0.4741716558122397  0.5939447367315162
  0.2081549582225795  0.4855391519531054  0.6261638203792175
  0.2577358659935904  0.4855427758591603  0.6261578947339180
  0.2329555265450733  0.5284214513410229  0.6261335687142489
  0.1884470766904974  0.5255378336293844  0.6240882334540911
  0.2526668963546964  0.5397501926137046  0.6645551720791402
  0.2132345540251122  0.5397541393040527  0.6645479644530545
  0.1884351024012662  0.4740776245109229  0.6967670012956295
  0.1884219417529556  0.4454107394485692  0.7372565382933574
  0.2577238917043597  0.4340825667406987  0.6988366625754564
  0.2081429839333489  0.4340789428346437  0.6988425882207558
  0.2329435522558425  0.4769612422225611  0.6988123365557871
  0.2526549220654653  0.4882899834952431  0.7372339399206785
  0.2132225797358813  0.4882939301855911  0.7372267322945931
  0.2329415001808551  0.4997560114353167  0.6666235045730544
  0.1884339160421865  0.4968709485670310  0.6645777704518190
  0.2132272497997445  0.5111271314822372  0.6988366625754564
  0.2526611729841179  0.5111235075761823  0.6988425882207558
  0.2329401308037249  0.5224553041901078  0.7372565382933574
  0.1439167470112272  0.4255010331040994  0.7714911043973257
  0.2081310096441180  0.3826187337161822  0.7715213560622944
  0.2329315779666120  0.4255010331040994  0.7714911043973257
  0.2577119174151292  0.3826223576222370  0.7715154304169950
  0.1884133889158423  0.3484564683625612  0.7714911043973257
  0.2329197700166513  0.3455728506509229  0.7694457691371681
  0.1884113368408555  0.3712512375753166  0.7393022724145930
  0.1884231281120358  0.4226174153924614  0.7694457691371681
  0.1686970864597442  0.3826223576222370  0.7715154304169950
  0.2577072473512659  0.3597891563255906  0.8099055001361315
  0.2132106054466508  0.4368337210671292  0.8099055001361315
  0.2081247587254656  0.3597852096352429  0.8099127077622169
  0.2576999431258983  0.3311621485037755  0.8441941982585334
  0.2329196036773808  0.3740408239856381  0.8441698722388641
  0.1884099674637249  0.3939505303301078  0.8099353061348958
  0.2329175516023936  0.3968355931983935  0.8119810402561314
  0.2526372244056564  0.4082030893392591  0.8442001239038328
  0.2132033012212828  0.4082067132453139  0.8441941982585334
  0.2329293428735743  0.4482017710155383  0.8421245369787067
  0.2526429477762346  0.4368297743767814  0.8099127077622169
  0.1439146949362397  0.4482958023168550  0.7393022724145930
  0.1636343677395026  0.4596632984577206  0.7715213560622944
  0.1439264862074207  0.4996619801339998  0.7694457691371681
  0.1687139635420352  0.5138782858086678  0.8099055001361315
  0.1687186336058983  0.5367114871053139  0.7715154304169950
  0.2329295258916245  0.4482958023168550  0.7393022724145930
  0.2081525567902718  0.5367078631992592  0.7715213560622944
  0.2577334645612828  0.5367114871053139  0.7715154304169950
  0.2526491986948872  0.4596632984577206  0.7715213560622944
  0.1884328839870090  0.5253403670583937  0.7393022724145930
  0.2132152755105135  0.4596669223637756  0.7715154304169950
  0.2329413171628050  0.4996619801339998  0.7694457691371681
  0.1884349360619965  0.5025455978456379  0.7714911043973257
  0.2577287944974200  0.5138782858086678  0.8099055001361315
  0.2081463058716195  0.5138743391183200  0.8099127077622169
  0.2329281565144941  0.4709950950716462  0.8099353061348958
  0.2577168202081891  0.4624180766902061  0.8825842679776698
  0.2081405825010411  0.4852476540807975  0.8442001239038328
  0.1884209096977782  0.4738801579399319  0.8119810402561314
  0.2577214902720520  0.4852512779868525  0.8441941982585334
  0.2329411508235348  0.5281299534687148  0.8441698722388641
  0.2526525206331580  0.5394586947413971  0.8825914756037555
  0.1884315146098788  0.5480396598131846  0.8099353061348958
  0.2971204439670040  0.1545273689060121  0.6645551720791402
  0.3467076026566676  0.1773645168930063  0.6261578947339180
  0.3467029325928048  0.1545313155963603  0.6645479644530545
  0.3219154552581899  0.1403150099216921  0.6240882334540911
  0.2774090741573810  0.1431986276333303  0.6261335687142489
  0.2774070220823939  0.1659933968460859  0.5939447367315162
  0.2971266948856566  0.1773608929869515  0.6261638203792175
  0.2774056527052635  0.1886926896008771  0.6645777704518190
  0.3219022946098793  0.1116481248593387  0.6645777704518190
  0.3664085093714176  0.1372324804824153  0.7372565382933574
  0.3466956283674365  0.1259043077745448  0.6988366625754564
  0.2774068390643435  0.1658993655447690  0.6967670012956295
  0.3219152889189195  0.1687829832564074  0.6988123365557871
  0.3416329096471951  0.2029452486100284  0.6988425882207558
  0.3021989864628216  0.2029488725160832  0.6988366625754564
  0.4109302862135745  0.1403150099216921  0.6240882334540911
  0.4109171255652636  0.1116481248593387  0.6645777704518190
  0.3664098787485475  0.1145331877276242  0.6666235045730544
  0.3664239051127657  0.1431986276333303  0.6261335687142489
  0.3861352749223885  0.1545273689060121  0.6645551720791402
  0.4357177635481891  0.1545313155963603  0.6645479644530545
  0.3664336443089591  0.2173595746632305  0.6240882334540911
  0.3664218530377786  0.1659933968460859  0.5939447367315162
  0.4357224336120527  0.1773645168930063  0.6261578947339180
  0.3861415258410413  0.1773608929869515  0.6261638203792175
  0.3664204836606483  0.1886926896008771  0.6645777704518190
  0.4109280677993167  0.1915777524691628  0.6666235045730544
  0.3861295515518104  0.1259006838684898  0.6988425882207558
  0.3664216700197280  0.1658993655447690  0.6967670012956295
  0.4109301198743041  0.1687829832564074  0.6988123365557871
  0.4357104593228215  0.1259043077745448  0.6988366625754564
  0.4306414896839271  0.1801117245290892  0.7372339399206785
  0.3912091473543430  0.1801156712194372  0.7372267322945931
  0.4306477406025797  0.2029452486100284  0.6988425882207558
  0.3912138174182059  0.2029488725160832  0.6988366625754564
  0.4109266984221866  0.2142770452239537  0.7372565382933574
  0.2774188133535744  0.2173595746632305  0.6240882334540911
  0.3219252111331633  0.2430379615876243  0.5939447367315162
  0.2774285692285475  0.3200825263291626  0.5939447367315162
  0.2774306213035351  0.2972877571164072  0.6261335687142489
  0.3219370024043440  0.2944041394047691  0.6240882334540911
  0.3022109607520525  0.2544090816345446  0.6261578947339180
  0.3219272632081502  0.2202431923748689  0.6261335687142489
  0.3416448839364258  0.2544054577284901  0.6261638203792175
  0.3467125054497277  0.2571602359609756  0.7372267322945931
  0.2971300168239272  0.2571562892706276  0.7372339399206785
  0.2774186470143041  0.2458275479979458  0.6988123365557871
  0.3219238417560327  0.2657372543424156  0.6645777704518190
  0.2971362677425797  0.2799898133515668  0.6988425882207558
  0.2774165949393171  0.2686223172107012  0.6666235045730544
  0.3467171755135910  0.2799934372576218  0.6988366625754564
  0.2774152255621867  0.2913216099654923  0.7372565382933574
  0.2971419911131576  0.3086164983890891  0.6645551720791402
  0.2774283862104974  0.3199884950278458  0.6967670012956295
  0.3912211216435740  0.2315758803378987  0.6645479644530545
  0.4109420941635349  0.2202431923748689  0.6261335687142489
  0.4306597148918105  0.2544054577284901  0.6261638203792175
  0.4109400420885478  0.2430379615876243  0.5939447367315162
  0.3912257917074369  0.2544090816345446  0.6261578947339180
  0.3664454522589194  0.2972877571164072  0.6261335687142489
  0.4109518333597283  0.2944041394047691  0.6240882334540911
  0.3664434001839323  0.3200825263291626  0.5939447367315162
  0.3467244797389586  0.3086204450794370  0.6645479644530545
  0.4357393106943432  0.3086204450794370  0.6645479644530545
  0.3664334779696887  0.2458275479979458  0.6988123365557871
  0.4306534639731578  0.2315719336475507  0.6645551720791402
  0.4109398590704975  0.2429439302863071  0.6967670012956295
  0.4109386727114177  0.2657372543424156  0.6645777704518190
  0.4357273364051122  0.2571602359609756  0.7372267322945931
  0.3861448477793120  0.2571562892706276  0.7372339399206785
  0.3664314258947016  0.2686223172107012  0.6666235045730544
  0.3861510986979643  0.2799898133515668  0.6988425882207558
  0.4357320064689751  0.2799934372576218  0.6988366625754564
  0.3664300565175710  0.2913216099654923  0.7372565382933574
  0.4109516670204579  0.3228721127394844  0.6988123365557871
  0.3664432171658821  0.3199884950278458  0.6967670012956295
  0.3861568220685424  0.3086164983890891  0.6645551720791402
  0.3219130538258822  0.1914837211678459  0.7694457691371681
  0.2774046206500861  0.2171621080922397  0.7393022724145930
  0.3467005311604970  0.2057000268425139  0.8099055001361315
  0.4306357663133489  0.1514850394915669  0.7715213560622944
  0.4109160935100860  0.1401175433507011  0.7393022724145930
  0.3912018431289752  0.1514886633976217  0.7715154304169950
  0.4109278847812667  0.1914837211678459  0.7694457691371681
  0.3664215036804578  0.1943673388794840  0.7714911043973257
  0.4357153621158816  0.2057000268425139  0.8099055001361315
  0.3664194516054707  0.2171621080922397  0.7393022724145930
  0.4554223082716244  0.1657018989737782  0.8119810402561314
  0.4109277184419967  0.2199516945025612  0.8441698722388641
  0.3861328734900810  0.2056960801521661  0.8099127077622169
  0.3219228097008551  0.2942066728337783  0.7393022724145930
  0.3219214403237250  0.3169059655885692  0.8099353061348958
  0.3467052012243601  0.2285332281391603  0.7715154304169950
  0.3022038892558814  0.2827445915840525  0.8099055001361315
  0.3416362315854657  0.2827406448937047  0.8099127077622169
  0.2774164119212669  0.2685282859093843  0.7694457691371681
  0.3416424825041181  0.3055741689746436  0.7715213560622944
  0.2971242934533491  0.2285296042331053  0.7715213560622944
  0.3219248617758427  0.2714119036210226  0.7714911043973257
  0.3022085593197443  0.3055777928806986  0.7715154304169950
  0.3219108354116246  0.2427464637153166  0.8119810402561314
  0.3416305082148873  0.2541139598561822  0.8442001239038328
  0.3219226266828052  0.2941126415324614  0.8421245369787067
  0.2774162455819964  0.2969962592440995  0.8441698722388641
  0.2774141935070091  0.3197910284568551  0.8119810402561314
  0.3861391244087334  0.2285296042331053  0.7715213560622944
  0.4109376406562399  0.2942066728337783  0.7393022724145930
  0.4357200321797445  0.2285332281391603  0.7715154304169950
  0.3664312428766514  0.2685282859093843  0.7694457691371681
  0.3912233902751291  0.3055777928806986  0.7715154304169950
  0.4306573134595026  0.3055741689746436  0.7715213560622944
  0.4109396927312270  0.2714119036210226  0.7714911043973257
  0.4306510625408502  0.2827406448937047  0.8099127077622169
  0.3912187202112662  0.2827445915840525  0.8099055001361315
  0.4109362712791098  0.3169059655885692  0.8099353061348958
  0.3664180822283405  0.2398614008470308  0.8099353061348958
  0.4109242969898789  0.2654457564701077  0.8826140739764342
  0.4109256663670092  0.2427464637153166  0.8119810402561314
  0.4306453391702721  0.2541139598561822  0.8442001239038328
  0.3912114159858986  0.2541175837622371  0.8441941982585334
  0.4109374576381900  0.2941126415324614  0.8421245369787067
  0.3664310765373812  0.2969962592440995  0.8441698722388641
  0.4357249349728047  0.3083289472071293  0.8825842679776698
  0.3664290244623941  0.3197910284568551  0.8119810402561314
  0.5247372645674366  0.1773645168930063  0.6261578947339180
  0.4554366839931631  0.1659933968460859  0.5939447367315162
  0.4999451171689592  0.1403150099216921  0.6240882334540911
  0.4554387360681504  0.1431986276333303  0.6261335687142489
  0.4751563567964262  0.1773608929869515  0.6261638203792175
  0.5247325945035738  0.1545313155963603  0.6645479644530545
  0.4554353146160325  0.1886926896008771  0.6645777704518190
  0.4751501058777732  0.1545273689060121  0.6645551720791402
  0.4999319565206485  0.1116481248593387  0.6645777704518190
  0.4999428987547014  0.1915777524691628  0.6666235045730544
  0.4554247097039322  0.1145331877276242  0.6666235045730544
  0.5247252902782057  0.1259043077745448  0.6988366625754564
  0.4554233403268025  0.1372324804824153  0.7372565382933574
  0.4751443825071949  0.1259006838684898  0.6988425882207558
  0.4554365009751127  0.1658993655447690  0.6967670012956295
  0.4999449508296887  0.1687829832564074  0.6988123365557871
  0.4999415293775712  0.2142770452239537  0.7372565382933574
  0.4802239783097277  0.1801156712194372  0.7372267322945931
  0.5196625715579640  0.2029452486100284  0.6988425882207558
  0.4802286483735910  0.2029488725160832  0.6988366625754564
  0.5196563206393120  0.1801117245290892  0.7372339399206785
  0.5444515149485478  0.1659933968460859  0.5939447367315162
  0.6137520955228214  0.1773645168930063  0.6261578947339180
  0.5889599481243439  0.1403150099216921  0.6240882334540911
  0.5444535670235352  0.1431986276333303  0.6261335687142489
  0.5641711877518105  0.1773608929869515  0.6261638203792175
  0.6137474254589586  0.1545313155963603  0.6645479644530545
  0.5889467874760328  0.1116481248593387  0.6645777704518190
  0.5641649368331575  0.1545273689060121  0.6645551720791402
  0.5444501455714172  0.1886926896008771  0.6645777704518190
  0.5889577297100862  0.1915777524691628  0.6666235045730544
  0.5444395406593170  0.1145331877276242  0.6666235045730544
  0.5444381712821867  0.1372324804824153  0.7372565382933574
  0.6137401212335905  0.1259043077745448  0.6988366625754564
  0.5641592134625796  0.1259006838684898  0.6988425882207558
  0.5444513319304974  0.1658993655447690  0.6967670012956295
  0.5889597817850730  0.1687829832564074  0.6988123365557871
  0.6086711515946963  0.1801117245290892  0.7372339399206785
  0.5889563603329556  0.2142770452239537  0.7372565382933574
  0.5692388092651121  0.1801156712194372  0.7372267322945931
  0.5692434793289753  0.2029488725160832  0.6988366625754564
  0.6086774025133489  0.2029452486100284  0.6988425882207558
  0.4802359525989586  0.2315758803378987  0.6645479644530545
  0.4554484752643440  0.2173595746632305  0.6240882334540911
  0.4999569251189196  0.2202431923748689  0.6261335687142489
  0.5196745458471954  0.2544054577284901  0.6261638203792175
  0.4999548730439323  0.2430379615876243  0.5939447367315162
  0.4802406226628215  0.2544090816345446  0.6261578947339180
  0.4999666643151133  0.2944041394047691  0.6240882334540911
  0.4554602832143040  0.2972877571164072  0.6261335687142489
  0.4554582311393172  0.3200825263291626  0.5939447367315162
  0.5247541416497279  0.3086204450794370  0.6645479644530545
  0.5247421673604969  0.2571602359609756  0.7372267322945931
  0.5196682949285424  0.2315719336475507  0.6645551720791402
  0.4751596787346959  0.2571562892706276  0.7372339399206785
  0.4554483089250732  0.2458275479979458  0.6988123365557871
  0.4999546900258819  0.2429439302863071  0.6967670012956295
  0.4999535036668017  0.2657372543424156  0.6645777704518190
  0.4554462568500863  0.2686223172107012  0.6666235045730544
  0.4751659296533490  0.2799898133515668  0.6988425882207558
  0.4751716530239269  0.3086164983890891  0.6645551720791402
  0.5247468374243598  0.2799934372576218  0.6988366625754564
  0.4554448874729561  0.2913216099654923  0.7372565382933574
  0.4554580481212663  0.3199884950278458  0.6967670012956295
  0.4999664979758424  0.3228721127394844  0.6988123365557871
  0.6086893768025797  0.2544054577284901  0.6261638203792175
  0.5692507835543430  0.2315758803378987  0.6645479644530545
  0.5444633062197284  0.2173595746632305  0.6240882334540911
  0.5889697039993170  0.2430379615876243  0.5939447367315162
  0.5889717560743040  0.2202431923748689  0.6261335687142489
  0.5692554536182058  0.2544090816345446  0.6261578947339180
  0.5889814952704976  0.2944041394047691  0.6240882334540911
  0.5444751141696889  0.2972877571164072  0.6261335687142489
  0.5444730620947015  0.3200825263291626  0.5939447367315162
  0.5444631398804579  0.2458275479979458  0.6988123365557871
  0.6086831258839268  0.2315719336475507  0.6645551720791402
  0.5889695209812666  0.2429439302863071  0.6967670012956295
  0.6137569983158817  0.2571602359609756  0.7372267322945931
  0.5641745096900812  0.2571562892706276  0.7372339399206785
  0.5889683346221869  0.2657372543424156  0.6645777704518190
  0.5444597184283408  0.2913216099654923  0.7372565382933574
  0.5444728790766511  0.3199884950278458  0.6967670012956295
  0.6137616683797446  0.2799934372576218  0.6988366625754564
  0.5444610878054711  0.2686223172107012  0.6666235045730544
  0.5641807606087333  0.2799898133515668  0.6988425882207558
  0.5641864839793116  0.3086164983890891  0.6645551720791402
  0.5196505972687336  0.1514850394915669  0.7715213560622944
  0.4999309244654704  0.1401175433507011  0.7393022724145930
  0.4802166740843601  0.1514886633976217  0.7715154304169950
  0.4554363346358427  0.1943673388794840  0.7714911043973257
  0.5247301930712660  0.2057000268425139  0.8099055001361315
  0.4999427157366514  0.1914837211678459  0.7694457691371681
  0.4554342825608553  0.2171621080922397  0.7393022724145930
  0.4999295550883403  0.1628168361054922  0.8099353061348958
  0.4751477044454654  0.2056960801521661  0.8099127077622169
  0.4999425493973810  0.2199516945025612  0.8441698722388641
  0.4554340995428049  0.2170680767909228  0.8421245369787067
  0.6086654282241184  0.1514850394915669  0.7715213560622944
  0.5889457554208553  0.1401175433507011  0.7393022724145930
  0.5692315050397444  0.1514886633976217  0.7715154304169950
  0.5889575466920361  0.1914837211678459  0.7694457691371681
  0.5444511655912270  0.1943673388794840  0.7714911043973257
  0.5444491135162401  0.2171621080922397  0.7393022724145930
  0.6137450240266508  0.2057000268425139  0.8099055001361315
  0.5444489304981898  0.2170680767909228  0.8421245369787067
  0.5889573803527657  0.2199516945025612  0.8441698722388641
  0.5444371392270096  0.1657018989737782  0.8119810402561314
  0.5641625354008503  0.2056960801521661  0.8099127077622169
  0.4999545236866119  0.2714119036210226  0.7714911043973257
  0.4751539553641180  0.2285296042331053  0.7715213560622944
  0.4554460738320358  0.2685282859093843  0.7694457691371681
  0.5247348631351288  0.2285332281391603  0.7715154304169950
  0.4554329131837252  0.2398614008470308  0.8099353061348958
  0.5196658934962347  0.2827406448937047  0.8099127077622169
  0.4999524716116246  0.2942066728337783  0.7393022724145930
  0.4802335511666505  0.2827445915840525  0.8099055001361315
  0.4802382212305138  0.3055777928806986  0.7715154304169950
  0.4999511022344944  0.3169059655885692  0.8099353061348958
  0.5196721444148873  0.3055741689746436  0.7715213560622944
  0.4999404973223937  0.2427464637153166  0.8119810402561314
  0.4802262469412829  0.2541175837622371  0.8441941982585334
  0.5196601701256564  0.2541139598561822  0.8442001239038328
  0.4999391279452635  0.2654457564701077  0.8826140739764342
  0.4999522885935742  0.2941126415324614  0.8421245369787067
  0.4751572773023887  0.3083250005167814  0.8825914756037555
  0.4554459074927659  0.2969962592440995  0.8441698722388641
  0.4554438554177785  0.3197910284568551  0.8119810402561314
  0.5444477441391096  0.2398614008470308  0.8099353061348958
  0.6086869753702721  0.3055741689746436  0.7715213560622944
  0.6137496940905137  0.2285332281391603  0.7715154304169950
  0.5444609047874206  0.2685282859093843  0.7694457691371681
  0.5889659331898792  0.3169059655885692  0.8099353061348958
  0.5641687863195028  0.2285296042331053  0.7715213560622944
  0.5889693546419962  0.2714119036210226  0.7714911043973257
  0.5889673025670089  0.2942066728337783  0.7393022724145930
  0.5692483821220352  0.2827445915840525  0.8099055001361315
  0.6086807244516195  0.2827406448937047  0.8099127077622169
  0.5692530521858982  0.3055777928806986  0.7715154304169950
  0.6086750010810411  0.2541139598561822  0.8442001239038328
  0.5889553282777784  0.2427464637153166  0.8119810402561314
  0.5692410778966681  0.2541175837622371  0.8441941982585334
  0.5889539589006483  0.2654457564701077  0.8826140739764342
  0.5889671195489590  0.2941126415324614  0.8421245369787067
  0.5247397659281892  0.3083289472071293  0.8825842679776698
  0.5444607384481501  0.2969962592440995  0.8441698722388641
  0.6137545968835739  0.3083289472071293  0.8825842679776698
  0.5641721082577734  0.3083250005167814  0.8825914756037555
  0.5444586863731633  0.3197910284568551  0.8119810402561314
  0.2971482420318107  0.3314500224700287  0.6261638203792175
  0.3219347839900861  0.3456668819522398  0.6666235045730544
  0.2774271998514174  0.3427818190839540  0.6645777704518190
  0.3467291498028218  0.3314536463760832  0.6261578947339180
  0.3219488103543041  0.3743323218579456  0.6261335687142489
  0.2774403604997283  0.3714487041463074  0.6240882334540911
  0.3416601801639271  0.3856610631306276  0.6645551720791402
  0.3022278378343433  0.3856650098209756  0.6645479644530545
  0.3416664310825799  0.4084945872115668  0.6261638203792175
  0.3219453889021866  0.4198263838254926  0.6645777704518190
  0.3022325078982062  0.4084982111176218  0.6261578947339180
  0.2774381420854707  0.4227114466937781  0.6666235045730544
  0.3219467582793167  0.3971270910707012  0.5939447367315162
  0.3219368360650734  0.3228721127394844  0.6988123365557871
  0.3022158635451126  0.3342048007025140  0.7372267322945931
  0.3416482058746962  0.3342008540121660  0.7372339399206785
  0.3416544567933490  0.3570343780931053  0.6988425882207558
  0.3022205336089753  0.3570380019991601  0.6988366625754564
  0.3219334146129562  0.3683661747070309  0.7372565382933574
  0.2971515639700811  0.4112454187537045  0.7372339399206785
  0.3219465752612666  0.3970330597693843  0.6967670012956295
  0.2774401941604580  0.3999166774810227  0.6988123365557871
  0.4109602198575712  0.4198263838254926  0.6645777704518190
  0.3912473388535912  0.4084982111176218  0.6261578947339180
  0.3664551914551128  0.3714487041463074  0.6240882334540911
  0.4357439807582059  0.3314536463760832  0.6261578947339180
  0.4109636413096888  0.3743323218579456  0.6261335687142489
  0.4306750111193117  0.3856610631306276  0.6645551720791402
  0.4306812620379644  0.4084945872115668  0.6261638203792175
  0.4109615892347018  0.3971270910707012  0.5939447367315162
  0.3861630729871954  0.3314500224700287  0.6261638203792175
  0.3912426687897279  0.3856650098209756  0.6645479644530545
  0.3664420308068019  0.3427818190839540  0.6645777704518190
  0.3912306945004971  0.3342048007025140  0.7372267322945931
  0.4306630368300809  0.3342008540121660  0.7372339399206785
  0.4306692877487335  0.3570343780931053  0.6988425882207558
  0.4109496149454706  0.3456668819522398  0.6666235045730544
  0.3912353645643600  0.3570380019991601  0.6988366625754564
  0.4109482455683405  0.3683661747070309  0.7372565382933574
  0.4109614062166511  0.3970330597693843  0.6967670012956295
  0.3664550251158428  0.3999166774810227  0.6988123365557871
  0.4357488835512663  0.4112493654440526  0.7372267322945931
  0.3861663949254652  0.4112454187537045  0.7372339399206785
  0.3664529730408555  0.4227114466937781  0.6666235045730544
  0.3219585495504977  0.4484932688878458  0.6240882334540911
  0.2774521684496885  0.4513768865994842  0.6261335687142489
  0.3467460268851125  0.4627095745625140  0.6645479644530545
  0.2971635382593117  0.4627056278721660  0.6645551720791402
  0.2774501163747014  0.4741716558122397  0.5939447367315162
  0.2774619076458819  0.5255378336293844  0.6240882334540911
  0.2971697891779642  0.4855391519531054  0.6261638203792175
  0.3416817273100810  0.5397501926137046  0.6645551720791402
  0.3022493849804971  0.5397541393040527  0.6645479644530545
  0.3219703575004578  0.5284214513410229  0.6261335687142489
  0.3467387226597445  0.4340825667406987  0.6988366625754564
  0.3219583832112271  0.4769612422225611  0.6988123365557871
  0.2774499333566515  0.4740776245109229  0.6967670012956295
  0.2774367727083404  0.4454107394485692  0.7372565382933574
  0.2971578148887337  0.4340789428346437  0.6988425882207558
  0.3416697530208501  0.4882899834952431  0.7372339399206785
  0.2774487469975713  0.4968709485670310  0.6645777704518190
  0.3022374106912658  0.4882939301855911  0.7372267322945931
  0.3219563311362398  0.4997560114353167  0.6666235045730544
  0.3416760039395025  0.5111235075761823  0.6988425882207558
  0.3219549617591097  0.5224553041901078  0.7372565382933574
  0.3022420807551290  0.5111271314822372  0.6988366625754564
  0.3861846201333488  0.4855391519531054  0.6261638203792175
  0.4109851884558425  0.5284214513410229  0.6261335687142489
  0.3467506969489753  0.4855427758591603  0.6261578947339180
  0.3664649473300861  0.4741716558122397  0.5939447367315162
  0.4357655279043599  0.4855427758591603  0.6261578947339180
  0.3664669994050733  0.4513768865994842  0.6261335687142489
  0.3664767386012666  0.5255378336293844  0.6240882334540911
  0.4109733805058821  0.4484932688878458  0.6240882334540911
  0.4357608578404968  0.4627095745625140  0.6645479644530545
  0.3912642159358817  0.5397541393040527  0.6645479644530545
  0.3861726458441182  0.4340789428346437  0.6988425882207558
  0.3664516036637251  0.4454107394485692  0.7372565382933574
  0.4357535536151290  0.4340825667406987  0.6988366625754564
  0.3664647643120358  0.4740776245109229  0.6967670012956295
  0.4306845839762346  0.4882899834952431  0.7372339399206785
  0.3912522416466508  0.4882939301855911  0.7372267322945931
  0.4306908348948874  0.5111235075761823  0.6988425882207558
  0.4109697927144942  0.5224553041901078  0.7372565382933574
  0.3467267483705136  0.3826223576222370  0.7715154304169950
  0.3219346009720361  0.3455728506509229  0.7694457691371681
  0.2774261677962400  0.3712512375753166  0.7393022724145930
  0.2774282198712271  0.3484564683625612  0.7714911043973257
  0.2774379590674205  0.4226174153924614  0.7694457691371681
  0.2971395896808501  0.3597852096352429  0.8099127077622169
  0.2971458405995027  0.3826187337161822  0.7715213560622944
  0.3467220783066509  0.3597891563255906  0.8099055001361315
  0.3022254364020351  0.4368337210671292  0.8099055001361315
  0.3416577787316193  0.4368297743767814  0.8099127077622169
  0.2774259847781896  0.3711572062739997  0.8421245369787067
  0.2971338663102720  0.3311585245977205  0.8442001239038328
  0.3467147740812829  0.3311621485037755  0.8441941982585334
  0.3219344346327658  0.3740408239856381  0.8441698722388641
  0.3416458044423889  0.3853695652583199  0.8825914756037555
  0.3022134621128046  0.3853735119486679  0.8825842679776698
  0.2774247984191094  0.3939505303301078  0.8099353061348958
  0.3219323825577783  0.3968355931983935  0.8119810402561314
  0.3416520553610413  0.4082030893392591  0.8442001239038328
  0.3022181321766675  0.4082067132453139  0.8441941982585334
  0.3219310131806480  0.4195348859531847  0.8826140739764342
  0.4357369092620355  0.3597891563255906  0.8099055001361315
  0.3861544206362347  0.3597852096352429  0.8099127077622169
  0.3664430508266121  0.3484564683625612  0.7714911043973257
  0.4109494319274206  0.3455728506509229  0.7694457691371681
  0.3664409987516241  0.3712512375753166  0.7393022724145930
  0.3861606715548875  0.3826187337161822  0.7715213560622944
  0.4357415793258986  0.3826223576222370  0.7715154304169950
  0.4109612398773811  0.4255010331040994  0.7714911043973257
  0.3912402673574199  0.4368337210671292  0.8099055001361315
  0.4306726096870042  0.4368297743767814  0.8099127077622169
  0.3664408157335744  0.3711572062739997  0.8421245369787067
  0.3664276550852637  0.3424903212116461  0.8826140739764342
  0.4357296050366676  0.3311621485037755  0.8441941982585334
  0.3861486972656566  0.3311585245977205  0.8442001239038328
  0.4109492655881504  0.3740408239856381  0.8441698722388641
  0.4306606353977732  0.3853695652583199  0.8825914756037555
  0.3912282930681894  0.3853735119486679  0.8825842679776698
  0.3664396293744942  0.3939505303301078  0.8099353061348958
  0.4109472135131631  0.3968355931983935  0.8119810402561314
  0.4306668863164260  0.4082030893392591  0.8442001239038328
  0.4109458441360327  0.4195348859531847  0.8826140739764342
  0.3912329631320521  0.4082067132453139  0.8441941982585334
  0.3219429874698786  0.4709950950716462  0.8099353061348958
  0.3022301064658983  0.4596669223637756  0.7715154304169950
  0.3219561481181900  0.4996619801339998  0.7694457691371681
  0.2774497670173812  0.5025455978456379  0.7714911043973257
  0.2971611368270038  0.5138743391183200  0.8099127077622169
  0.3467436254528048  0.5138782858086678  0.8099055001361315
  0.2774477149423939  0.5253403670583937  0.7393022724145930
  0.2971673877456565  0.5367078631992592  0.7715213560622944
  0.2774463455652633  0.5480396598131846  0.8099353061348958
  0.3467482955166674  0.5367114871053139  0.7715154304169950
  0.3467316511635739  0.4624180766902061  0.8825842679776698
  0.2774377927281501  0.4510853887271765  0.8441698722388641
  0.2971491625377729  0.4624141299998585  0.8825914756037555
  0.3219441738289586  0.4482017710155383  0.8421245369787067
  0.2971554134564257  0.4852476540807975  0.8442001239038328
  0.2774357406531628  0.4738801579399319  0.8119810402561314
  0.3467363212274368  0.4852512779868525  0.8441941982585334
  0.2774343712760327  0.4965794506947233  0.8826140739764342
  0.3219559817789195  0.5281299534687148  0.8441698722388641
  0.2774475319243435  0.5252463357570767  0.8421245369787067
  0.3022350092589583  0.5394626414317447  0.8825842679776698
  0.3416673515885421  0.5394586947413971  0.8825914756037555
  0.4109578184252634  0.4709950950716462  0.8099353061348958
  0.4306788606056565  0.4596632984577206  0.7715213560622944
  0.4109591878023940  0.4482958023168550  0.7393022724145930
  0.3912449374212830  0.4596669223637756  0.7715154304169950
  0.4109709790735745  0.4996619801339998  0.7694457691371681
  0.3664645979727655  0.5025455978456379  0.7714911043973257
  0.3861759677823886  0.5138743391183200  0.8099127077622169
  0.4357584564081891  0.5138782858086678  0.8099055001361315
  0.3664625458977784  0.5253403670583937  0.7393022724145930
  0.3861822187010411  0.5367078631992592  0.7715213560622944
  0.4357631264720521  0.5367114871053139  0.7715154304169950
  0.3664611765206481  0.5480396598131846  0.8099353061348958
  0.3664505716085475  0.4738801579399319  0.8119810402561314
  0.3861639934931581  0.4624141299998585  0.8825914756037555
  0.3664526236835347  0.4510853887271765  0.8441698722388641
  0.4109590047843436  0.4482017710155383  0.8421245369787067
  0.4357464821189586  0.4624180766902061  0.8825842679776698
  0.3861702444118105  0.4852476540807975  0.8442001239038328
  0.4357511521828215  0.4852512779868525  0.8441941982585334
  0.3664623628797281  0.5252463357570767  0.8421245369787067
  0.3664492022314167  0.4965794506947233  0.8826140739764342
  0.4109708127343041  0.5281299534687148  0.8441698722388641
  0.3912498402143431  0.5394626414317447  0.8825842679776698
  0.4306821825439275  0.5394586947413971  0.8825914756037555
  0.5247588117135907  0.3314536463760832  0.6261578947339180
  0.4554700224104977  0.3714487041463074  0.6240882334540911
  0.4999764201900864  0.3971270910707012  0.5939447367315162
  0.4802621698089752  0.4084982111176218  0.6261578947339180
  0.4999784722650733  0.3743323218579456  0.6261335687142489
  0.4999750508129554  0.4198263838254926  0.6645777704518190
  0.5196898420746960  0.3856610631306276  0.6645551720791402
  0.5196960929933491  0.4084945872115668  0.6261638203792175
  0.4751779039425799  0.3314500224700287  0.6261638203792175
  0.4802574997451123  0.3856650098209756  0.6645479644530545
  0.4554568617621866  0.3427818190839540  0.6645777704518190
  0.4999644459008555  0.3456668819522398  0.6666235045730544
  0.4802455254558814  0.3342048007025140  0.7372267322945931
  0.5196778677854657  0.3342008540121660  0.7372339399206785
  0.5196841187041186  0.3570343780931053  0.6988425882207558
  0.4802501955197442  0.3570380019991601  0.6988366625754564
  0.4999630765237249  0.3683661747070309  0.7372565382933574
  0.4554698560712273  0.3999166774810227  0.6988123365557871
  0.4999762371720360  0.3970330597693843  0.6967670012956295
  0.4751812258808500  0.4112454187537045  0.7372339399206785
  0.4554678039962399  0.4227114466937781  0.6666235045730544
  0.5889933032204581  0.3743323218579456  0.6261335687142489
  0.5889912511454708  0.3971270910707012  0.5939447367315162
  0.6087109239487338  0.4084945872115668  0.6261638203792175
  0.5641927348979646  0.3314500224700287  0.6261638203792175
  0.5444848533658820  0.3714487041463074  0.6240882334540911
  0.6137736426689751  0.3314536463760832  0.6261578947339180
  0.5692770007643599  0.4084982111176218  0.6261578947339180
  0.5444716927175713  0.3427818190839540  0.6645777704518190
  0.5692723307004967  0.3856650098209756  0.6645479644530545
  0.5889898817683406  0.4198263838254926  0.6645777704518190
  0.6087046730300809  0.3856610631306276  0.6645551720791402
  0.5889779074791097  0.3683661747070309  0.7372565382933574
  0.5692650264751290  0.3570380019991601  0.6988366625754564
  0.5692603564112662  0.3342048007025140  0.7372267322945931
  0.6086926987408500  0.3342008540121660  0.7372339399206785
  0.5889910681274203  0.3970330597693843  0.6967670012956295
  0.5444846870266116  0.3999166774810227  0.6988123365557871
  0.6137785454620354  0.4112493654440526  0.7372267322945931
  0.5641960568362349  0.4112454187537045  0.7372339399206785
  0.5247637145066510  0.4112493654440526  0.7372267322945931
  0.5444826349516247  0.4227114466937781  0.6666235045730544
  0.4554818303604582  0.4513768865994842  0.6261335687142489
  0.5247756887958815  0.4627095745625140  0.6645479644530545
  0.4751932001700814  0.4627056278721660  0.6645551720791402
  0.4999882114612669  0.4484932688878458  0.6240882334540911
  0.4554797782854706  0.4741716558122397  0.5939447367315162
  0.4751994510887333  0.4855391519531054  0.6261638203792175
  0.5247803588597444  0.4855427758591603  0.6261578947339180
  0.4554915695566516  0.5255378336293844  0.6240882334540911
  0.5000000194112270  0.5284214513410229  0.6261335687142489
  0.4802790468912664  0.5397541393040527  0.6645479644530545
  0.5197113892208504  0.5397501926137046  0.6645551720791402
  0.4554664346191094  0.4454107394485692  0.7372565382933574
  0.4751874767995026  0.4340789428346437  0.6988425882207558
  0.5247683845705134  0.4340825667406987  0.6988366625754564
  0.4554795952674204  0.4740776245109229  0.6967670012956295
  0.4999880451219965  0.4769612422225611  0.6988123365557871
  0.5196994149316198  0.4882899834952431  0.7372339399206785
  0.4802670726020355  0.4882939301855911  0.7372267322945931
  0.4554784089083405  0.4968709485670310  0.6645777704518190
  0.5197056658502719  0.5111235075761823  0.6988425882207558
  0.4999859930470091  0.4997560114353167  0.6666235045730544
  0.4999846236698788  0.5224553041901078  0.7372565382933574
  0.4802717426658986  0.5111271314822372  0.6988366625754564
  0.5444966613158425  0.4513768865994842  0.6261335687142489
  0.5890030424166517  0.4484932688878458  0.6240882334540911
  0.5642080311254658  0.4627056278721660  0.6645551720791402
  0.6137905197512663  0.4627095745625140  0.6645479644530545
  0.5444946092408555  0.4741716558122397  0.5939447367315162
  0.5642142820441183  0.4855391519531054  0.6261638203792175
  0.6137951898151291  0.4855427758591603  0.6261578947339180
  0.5445064005120357  0.5255378336293844  0.6240882334540911
  0.5890148503666117  0.5284214513410229  0.6261335687142489
  0.5692938778466508  0.5397541393040527  0.6645479644530545
  0.6087262201762346  0.5397501926137046  0.6645551720791402
  0.5444812655744942  0.4454107394485692  0.7372565382933574
  0.5642023077548874  0.4340789428346437  0.6988425882207558
  0.6137832155258982  0.4340825667406987  0.6988366625754564
  0.5890028760773808  0.4769612422225611  0.6988123365557871
  0.5444944262228052  0.4740776245109229  0.6967670012956295
  0.6087142458870041  0.4882899834952431  0.7372339399206785
  0.5692819035574198  0.4882939301855911  0.7372267322945931
  0.5889994546252632  0.5224553041901078  0.7372565382933574
  0.5692865736212829  0.5111271314822372  0.6988366625754564
  0.5890008240023940  0.4997560114353167  0.6666235045730544
  0.6087204968056567  0.5111235075761823  0.6988425882207558
  0.5444932398637252  0.4968709485670310  0.6645777704518190
  0.4999642628828051  0.3455728506509229  0.7694457691371681
  0.4554578817819968  0.3484564683625612  0.7714911043973257
  0.4751692515916196  0.3597852096352429  0.8099127077622169
  0.4554558297070090  0.3712512375753166  0.7393022724145930
  0.4751755025102721  0.3826187337161822  0.7715213560622944
  0.4554544603298789  0.3939505303301078  0.8099353061348958
  0.4999760708327660  0.4255010331040994  0.7714911043973257
  0.4554676209781895  0.4226174153924614  0.7694457691371681
  0.5196874406423888  0.4368297743767814  0.8099127077622169
  0.4802550983128046  0.4368337210671292  0.8099055001361315
  0.4751635282210412  0.3311585245977205  0.8442001239038328
  0.4554424860406480  0.3424903212116461  0.8826140739764342
  0.5247444359920521  0.3311621485037755  0.8441941982585334
  0.4999640965435346  0.3740408239856381  0.8441698722388641
  0.4554556466889590  0.3711572062739997  0.8421245369787067
  0.5196754663531579  0.3853695652583199  0.8825914756037555
  0.4802431240235741  0.3853735119486679  0.8825842679776698
  0.4999738357397283  0.4482017710155383  0.8421245369787067
  0.4999606750914172  0.4195348859531847  0.8826140739764342
  0.4802477940874370  0.4082067132453139  0.8441941982585334
  0.5889909017881507  0.4255010331040994  0.7714911043973257
  0.5444727127373815  0.3484564683625612  0.7714911043973257
  0.5444706606623938  0.3712512375753166  0.7393022724145930
  0.5889790938381898  0.3455728506509229  0.7694457691371681
  0.5444824519335743  0.4226174153924614  0.7694457691371681
  0.6137665711728049  0.3597891563255906  0.8099055001361315
  0.5641903334656565  0.3826187337161822  0.7715213560622944
  0.6137712412366674  0.3826223576222370  0.7715154304169950
  0.5692699292681893  0.4368337210671292  0.8099055001361315
  0.5247564102812829  0.3826223576222370  0.7715154304169950
  0.5641840825470039  0.3597852096352429  0.8099127077622169
  0.5444573169960327  0.3424903212116461  0.8826140739764342
  0.5641783591764260  0.3311585245977205  0.8442001239038328
  0.6137592669474369  0.3311621485037755  0.8441941982585334
  0.5889789274989194  0.3740408239856381  0.8441698722388641
  0.6086902973085422  0.3853695652583199  0.8825914756037555
  0.5692579549789584  0.3853735119486679  0.8825842679776698
  0.5692626250428213  0.4082067132453139  0.8441941982585334
  0.6086965482271952  0.4082030893392591  0.8442001239038328
  0.5889755060468019  0.4195348859531847  0.8826140739764342
  0.5889768754239321  0.3968355931983935  0.8119810402561314
  0.6087022715977731  0.4368297743767814  0.8099127077622169
  0.4999726493806481  0.4709950950716462  0.8099353061348958
  0.4802597683766679  0.4596669223637756  0.7715154304169950
  0.5196936915610409  0.4596632984577206  0.7715213560622944
  0.4999740187577787  0.4482958023168550  0.7393022724145930
  0.4999858100289588  0.4996619801339998  0.7694457691371681
  0.4554794289281504  0.5025455978456379  0.7714911043973257
  0.5247732873635738  0.5138782858086678  0.8099055001361315
  0.5247779574274367  0.5367114871053139  0.7715154304169950
  0.4751970496564261  0.5367078631992592  0.7715213560622944
  0.4751907987377733  0.5138743391183200  0.8099127077622169
  0.4554760074760328  0.5480396598131846  0.8099353061348958
  0.4554773768531627  0.5253403670583937  0.7393022724145930
  0.5247613130743433  0.4624180766902061  0.8825842679776698
  0.4751788244485423  0.4624141299998585  0.8825914756037555
  0.4554674546389195  0.4510853887271765  0.8441698722388641
  0.5247659831382062  0.4852512779868525  0.8441941982585334
  0.4554654025639322  0.4738801579399319  0.8119810402561314
  0.4751850753671949  0.4852476540807975  0.8442001239038328
  0.4554640331868021  0.4965794506947233  0.8826140739764342
  0.4554771938351127  0.5252463357570767  0.8421245369787067
  0.4999856436896887  0.5281299534687148  0.8441698722388641
  0.5890006409843436  0.4996619801339998  0.7694457691371681
  0.5692745993320527  0.4596669223637756  0.7715154304169950
  0.5889874803360329  0.4709950950716462  0.8099353061348958
  0.5889888497131630  0.4482958023168550  0.7393022724145930
  0.6087085225164257  0.4596632984577206  0.7715213560622944
  0.5444942598835352  0.5025455978456379  0.7714911043973257
  0.6137927883828215  0.5367114871053139  0.7715154304169950
  0.5444922078085475  0.5253403670583937  0.7393022724145930
  0.6137881183189585  0.5138782858086678  0.8099055001361315
  0.5642118806118104  0.5367078631992592  0.7715213560622944
  0.5444908384314173  0.5480396598131846  0.8099353061348958
  0.5642056296931580  0.5138743391183200  0.8099127077622169
  0.5444822855943043  0.4510853887271765  0.8441698722388641
  0.5889886666951126  0.4482017710155383  0.8421245369787067
  0.5641999063225797  0.4852476540807975  0.8442001239038328
  0.5641936554039271  0.4624141299998585  0.8825914756037555
  0.5444802335193170  0.4738801579399319  0.8119810402561314
  0.6137761440297276  0.4624180766902061  0.8825842679776698
  0.6137808140935905  0.4852512779868525  0.8441941982585334
  0.5444788641421864  0.4965794506947233  0.8826140739764342
  0.5890004746450731  0.5281299534687148  0.8441698722388641
  0.5692795021251125  0.5394626414317447  0.8825842679776698
  0.6087118444546967  0.5394586947413971  0.8825914756037555
  0.5444920247904975  0.5252463357570767  0.8421245369787067
  0.2774237663639323  0.4224199488214704  0.8846598080976698
  0.3219204082685476  0.3453753840799321  0.8846598080976698
  0.3467243469382060  0.4337910688683908  0.9168729661000717
  0.3664385973193168  0.4224199488214704  0.8846598080976698
  0.3664406493943042  0.3996251796087150  0.9168486400804026
  0.4109352392239324  0.3453753840799321  0.8846598080976698
  0.4109470304951129  0.3967415618970766  0.9148033048202451
  0.3912209888428216  0.3567465041268524  0.9168729661000717
  0.3861582701225797  0.4337874449623360  0.9168788917453714
  0.4306549120271953  0.3567428802207976  0.9168788917453714
  0.3219419554147013  0.4994645135630087  0.8846598080976698
  0.3416616282179642  0.5108320097038743  0.9168788917453714
  0.3219440074896884  0.4766697443502536  0.9168486400804026
  0.3022277050335905  0.5108356336099293  0.9168729661000717
  0.4306702082546962  0.4879984856229354  0.9552702434452939
  0.3664503885904971  0.4737861266386152  0.9148033048202451
  0.4109567863700860  0.4994645135630087  0.8846598080976698
  0.4306764591733490  0.5108320097038743  0.9168788917453714
  0.3912425359889753  0.5108356336099293  0.9168729661000717
  0.4109588384450731  0.4766697443502536  0.9168486400804026
  0.4554436723997285  0.3196969971555383  0.9148033048202451
  0.4554318811285476  0.2683308193383935  0.8846598080976698
  0.5444585033551129  0.3196969971555383  0.9148033048202451
  0.5444467120839324  0.2683308193383935  0.8846598080976698
  0.4999521222543041  0.3225806148671764  0.9168486400804026
  0.4999618614504974  0.3967415618970766  0.9148033048202451
  0.4999500701793168  0.3453753840799321  0.8846598080976698
  0.4554534282747013  0.4224199488214704  0.8846598080976698
  0.4554554803496890  0.3996251796087150  0.9168486400804026
  0.4751731010779644  0.4337874449623360  0.9168788917453714
  0.4802358197982065  0.3567465041268524  0.9168729661000717
  0.5196697429825795  0.3567428802207976  0.9168788917453714
  0.5889649011347016  0.3453753840799321  0.8846598080976698
  0.5444682592300860  0.4224199488214704  0.8846598080976698
  0.5641879320333492  0.4337874449623360  0.9168788917453714
  0.5692506507535908  0.3567465041268524  0.9168729661000717
  0.5444703113050734  0.3996251796087150  0.9168486400804026
  0.5889766924058821  0.3967415618970766  0.9148033048202451
  0.6086845739379643  0.3567428802207976  0.9168788917453714
  0.5196912901287336  0.5108320097038743  0.9168788917453714
  0.4357391778935908  0.4337910688683908  0.9168729661000717
  0.4802573669443602  0.5108356336099293  0.9168729661000717
  0.5247540088489757  0.4337910688683908  0.9168729661000717
  0.4999716173254710  0.4994645135630087  0.8846598080976698
  0.4554652195458822  0.4737861266386152  0.9148033048202451
  0.4999736694004582  0.4766697443502536  0.9168486400804026
  0.4999702479483403  0.5221638063178001  0.9552928418179728
  0.4554520588975711  0.4451192415762615  0.9552928418179728
  0.5196850392100810  0.4879984856229354  0.9552702434452939
  0.4802526968804968  0.4880024323132832  0.9552630358192084
  0.4999596430362400  0.4480043044445473  0.9573385759392083
  0.4554630011316245  0.5250488691860858  0.9573385759392083
  0.6137688398043600  0.4337910688683908  0.9168729661000717
  0.5444800505012666  0.4737861266386152  0.9148033048202451
  0.5444668898529559  0.4451192415762615  0.9552928418179728
  0.5692675278358812  0.4880024323132832  0.9552630358192084
  0.5889864482808552  0.4994645135630087  0.8846598080976698
  0.5444778320870093  0.5250488691860858  0.9573385759392083
  0.6334697793914171  0.0863552671085693  0.3738626990856652
  0.6779893378193165  0.1407005390953165  0.3032296653653622
  0.6334817536806480  0.1378154762270307  0.3011839312441267
  0.6582750874382061  0.1520716591422371  0.3354428233677642
  0.6779913898943037  0.1179057698825611  0.3354184973480949
  0.6334829400397282  0.1150221521709229  0.3333731620879373
  0.6977090106225796  0.1520680352361821  0.3354487490130639
  0.6977027597039275  0.1292345111552429  0.3738401007129863
  0.6582704173743428  0.1292384578455907  0.3738328930869007
  0.6779891548012669  0.1406065077939998  0.4060519299294759
  0.7472899183935904  0.1520716591422371  0.3354428233677642
  0.7670039857566513  0.1406065077939998  0.4060519299294759
  0.6582631131489751  0.1006114500237756  0.4081215912093026
  0.6334707994112272  0.0920299163871765  0.4807760330311719
  0.6976970363333487  0.1006078261177206  0.4081275168546022
  0.7027646578466505  0.1033626043502063  0.5191904287699777
  0.6531821692208500  0.1033586576598583  0.5191976363960632
  0.6334673779591089  0.1375239783547230  0.5192202347687421
  0.6334827737004577  0.1434901255056380  0.4080972651896335
  0.7224976046558425  0.1434901255056380  0.4080972651896335
  0.7224835782916242  0.1148246855999319  0.4485872010484391
  0.7027693279105135  0.1261958056468523  0.4808003590508411
  0.7422032510948874  0.1261921817407975  0.4808062846961408
  0.7224822089144937  0.1375239783547230  0.5192202347687421
  0.6334567730470085  0.0633644764814704  0.5212659688899777
  0.6334554036698788  0.0860637692362616  0.5918990026102805
  0.6779629878085474  0.0889488321045473  0.5939447367315162
  0.6582607117166674  0.1517801612699294  0.5534791268923797
  0.6779749620977782  0.1404090412230090  0.5212659688899777
  0.6779770141727656  0.1176142720102534  0.5534548008727104
  0.6334685643181895  0.1147306542986150  0.5514094656125528
  0.6582560416528045  0.1289469599732832  0.5918691966115160
  0.6976946349010409  0.1517765373638742  0.5534850525376792
  0.6976883839823883  0.1289430132829352  0.5918764042376018
  0.6779747790797283  0.1403150099216921  0.6240882334540911
  0.6334683979789200  0.1431986276333303  0.6261335687142489
  0.6582487374274369  0.1003199521514679  0.6261578947339180
  0.7669897930531629  0.1404090412230090  0.5212659688899777
  0.7224833952735743  0.1147306542986150  0.5514094656125528
  0.7224832289343043  0.1431986276333303  0.6261335687142489
  0.6531740444179645  0.1259006838684898  0.6988425882207558
  0.6779616184314176  0.1116481248593387  0.6645777704518190
  0.6334543716147013  0.1145331877276242  0.6666235045730544
  0.6334530022375712  0.1372324804824153  0.7372565382933574
  0.6977267082823884  0.2321549293921661  0.2284825650299094
  0.6582943659528045  0.2321588760825141  0.2284753574038238
  0.6335068886181896  0.2179425704078459  0.1880156264048604
  0.6334949143289582  0.1664823612893844  0.2606943942463990
  0.6780153384727656  0.2208261881194840  0.1900609616650181
  0.6780131033797279  0.2435269260309228  0.2606943942463990
  0.6780013121085474  0.1921607482137782  0.2305508975238238
  0.7473091969081894  0.2321588760825141  0.2284753574038238
  0.6582990360166675  0.2549920773791600  0.1900852876846872
  0.6532363172964258  0.3320330182146438  0.1900912133299869
  0.6335152751160328  0.3433648148285692  0.2285051634025883
  0.6335186965681501  0.2978707528610226  0.1900609616650181
  0.6335164614751128  0.3205714907724613  0.2606943942463990
  0.6532300663777728  0.3091994941337045  0.2284825650299094
  0.6335046702039319  0.2692053129553166  0.2305508975238238
  0.6977329592010409  0.2549884534731053  0.1900912133299869
  0.6780119170206481  0.2663202500870308  0.2285051634025883
  0.6780250776689588  0.2949871351493845  0.1880156264048604
  0.7028125550035739  0.3092034408240524  0.2284753574038238
  0.7028172250674367  0.3320366421206986  0.1900852876846872
  0.7225195011593166  0.2692053129553166  0.2305508975238238
  0.7225301060714175  0.3433648148285692  0.2285051634025883
  0.7225312924304971  0.3205714907724613  0.2606943942463990
  0.7422511482518102  0.3320330182146438  0.1900912133299869
  0.7225335275235348  0.2978707528610226  0.1900609616650181
  0.7422448973331576  0.3091994941337045  0.2284825650299094
  0.7670267479760324  0.2663202500870308  0.2285051634025883
  0.6977209849118104  0.2035282443546438  0.2627699811715254
  0.6780033641835347  0.1693659790010228  0.2627397295065566
  0.6582870617274366  0.2035318682606984  0.2627640555262256
  0.6334926959147014  0.2177451038368551  0.3032296653653622
  0.6977147339931580  0.1806947202737046  0.3011613328714479
  0.6779999427314172  0.2148600409685691  0.3011839312441267
  0.6582823916635737  0.1806986669640526  0.3011541252453623
  0.6532123687179645  0.2291125999777207  0.3354487490130639
  0.6334947479896886  0.1949503346240994  0.3354184973480949
  0.6780011290904974  0.1920667169124613  0.3333731620879373
  0.7225075268700861  0.2177451038368551  0.3032296653653622
  0.7670147736868020  0.2148600409685691  0.3011839312441267
  0.7472972226189585  0.1806986669640526  0.3011541252453623
  0.7473018926828213  0.2035318682606984  0.2627640555262256
  0.7422271996733488  0.2291125999777207  0.3354487490130639
  0.7670159600458817  0.1920667169124613  0.3333731620879373
  0.7225095789450729  0.1949503346240994  0.3354184973480949
  0.7027886064251120  0.2062830225871293  0.3738328930869007
  0.7422209487546962  0.2062790758967815  0.3738401007129863
  0.7027932764889753  0.2291162238837754  0.3354428233677642
  0.6335033008268016  0.2919046057101077  0.3011839312441267
  0.6335067222789196  0.2464105437425614  0.2627397295065566
  0.6532243430071949  0.2805728090961822  0.2627699811715254
  0.6780249113296883  0.3234551084841000  0.2627397295065566
  0.6532180920885420  0.2577392850152430  0.3011613328714479
  0.6583039388097278  0.3347877964471294  0.3011541252453623
  0.6780108849654706  0.2947896685783937  0.3032296653653622
  0.6780129370404578  0.2719948993656380  0.3354184973480949
  0.6335044871858818  0.2691112816539997  0.3333731620879373
  0.6780226762366510  0.3461558463955383  0.3333731620879373
  0.6582966345843597  0.3061607886253140  0.3354428233677642
  0.6582919645204969  0.2833275873286676  0.3738328930869007
  0.6977243068500807  0.2833236406383199  0.3738401007129863
  0.6977362811393116  0.3347838497567814  0.3011613328714479
  0.7225215532343039  0.2464105437425614  0.2627397295065566
  0.7028052507782058  0.2805764330022369  0.2627640555262256
  0.7028005807143429  0.2577432317055910  0.3011541252453623
  0.7473187697651121  0.3347877964471294  0.3011541252453623
  0.7422329230439272  0.2577392850152430  0.3011613328714479
  0.7422391739625798  0.2805728090961822  0.2627699811715254
  0.7225181317821865  0.2919046057101077  0.3011839312441267
  0.7670257159208553  0.2947896685783937  0.3032296653653622
  0.7670277679958422  0.2719948993656380  0.3354184973480949
  0.7225193181412666  0.2691112816539997  0.3333731620879373
  0.7473114655397445  0.3061607886253140  0.3354428233677642
  0.7473067954758812  0.2833275873286676  0.3738328930869007
  0.6977305577687333  0.3061571647192590  0.3354487490130639
  0.7918320560228215  0.3320366421206986  0.1900852876846872
  0.7918273859589586  0.3092034408240524  0.2284753574038238
  0.7670399086243436  0.2949871351493845  0.1880156264048604
  0.8115449370268019  0.3433648148285692  0.2285051634025883
  0.7670279343351126  0.2435269260309228  0.2606943942463990
  0.8312420306287336  0.2291125999777207  0.3354487490130639
  0.8312357797100806  0.2062790758967815  0.3738401007129863
  0.7918034373804967  0.2062830225871293  0.3738328930869007
  0.7918081074443597  0.2291162238837754  0.3354428233677642
  0.7867511120946964  0.3347838497567814  0.3011613328714479
  0.7918200817335905  0.2805764330022369  0.2627640555262256
  0.7918154116697277  0.2577432317055910  0.3011541252453623
  0.7670397422850731  0.3234551084841000  0.2627397295065566
  0.8115461233858818  0.3205714907724613  0.2606943942463990
  0.8312477539993115  0.2577392850152430  0.3011613328714479
  0.8115329627375713  0.2919046057101077  0.3011839312441267
  0.8115341490966509  0.2691112816539997  0.3333731620879373
  0.7867391378054654  0.2833236406383199  0.3738401007129863
  0.7670375071920358  0.3461558463955383  0.3333731620879373
  0.8363262964951289  0.3061607886253140  0.3354428233677642
  0.8363216264312660  0.2833275873286676  0.3738328930869007
  0.7867453887241180  0.3061571647192590  0.3354487490130639
  0.8363336007204969  0.3347877964471294  0.3011541252453623
  0.8757659430500807  0.3347838497567814  0.3011613328714479
  0.8757539687608498  0.2833236406383199  0.3738401007129863
  0.8560523381474202  0.3461558463955383  0.3333731620879373
  0.8560425989512269  0.2719948993656380  0.3354184973480949
  0.8757602196795028  0.3061571647192590  0.3354487490130639
  0.8560405468762396  0.2947896685783937  0.3032296653653622
  0.7027766321358815  0.1548228134686678  0.4465116609284391
  0.6531941435100810  0.1548188667783198  0.4465188685545248
  0.6779869363870091  0.1918692503414705  0.4485872010484391
  0.6334793522483403  0.1889841874731845  0.4465414669272036
  0.6779879684421868  0.1633998318501076  0.3738626990856652
  0.6334807216254704  0.1662848947183934  0.3759084332069007
  0.6780009627512269  0.2205346902471763  0.4080972651896335
  0.6977123325608502  0.2318634315198584  0.4465188685545248
  0.6334913265375712  0.2404443965916460  0.3738626990856652
  0.6779989106762396  0.2433294594599320  0.3759084332069007
  0.6582799902312659  0.2318673782102064  0.4465116609284391
  0.7670017673423934  0.1918692503414705  0.4485872010484391
  0.7224941832037250  0.1889841874731845  0.4465414669272036
  0.7224955525808552  0.1662848947183934  0.3759084332069007
  0.7422089744654653  0.1548188667783198  0.4465188685545248
  0.7670027993975711  0.1633998318501076  0.3738626990856652
  0.7027813021997444  0.1776560147653140  0.4081215912093026
  0.7422152253841179  0.1776523908592592  0.4081275168546022
  0.7225073438520357  0.2176510725355382  0.4060519299294759
  0.7670157937066121  0.2205346902471763  0.4080972651896335
  0.7472948211866507  0.2318673782102064  0.4465116609284391
  0.7225061574929560  0.2404443965916460  0.3738626990856652
  0.7670137416316244  0.2433294594599320  0.3759084332069007
  0.6977066091902718  0.2032367464823361  0.4808062846961408
  0.6334805386074205  0.1661908634170767  0.4787306977710143
  0.6582726860058984  0.2032403703883909  0.4808003590508411
  0.6779987276581897  0.2432354281586153  0.4787306977710143
  0.6779889884619961  0.1690744811287151  0.4807760330311719
  0.6582680159420345  0.1804071690917447  0.5191904287699777
  0.6977003582716192  0.1804032224013967  0.5191976363960632
  0.6779855670098786  0.2145685430962616  0.5192202347687421
  0.6334803722681505  0.1946588367517920  0.5534548008727104
  0.6779867533689592  0.1917752190401536  0.5514094656125528
  0.6334783201931626  0.2174536059645474  0.5212659688899777
  0.7472875169612827  0.2032403703883909  0.4808003590508411
  0.7224953695628052  0.1661908634170767  0.4787306977710143
  0.7670038194173808  0.1690744811287151  0.4807760330311719
  0.7472828468974193  0.1804071690917447  0.5191904287699777
  0.7670003979652633  0.2145685430962616  0.5192202347687421
  0.7224931511485474  0.2174536059645474  0.5212659688899777
  0.7027789007674367  0.2288247260114677  0.5534791268923797
  0.7670015843243435  0.1917752190401536  0.5514094656125528
  0.7224952032235348  0.1946588367517920  0.5534548008727104
  0.6780107019474202  0.2946956372770765  0.4060519299294759
  0.6779975412991095  0.2660287522147229  0.4465414669272036
  0.6582846602951289  0.2547005795068525  0.4081215912093026
  0.6334902944823936  0.2689138150830089  0.4485872010484391
  0.6335043208466118  0.2975792549887149  0.4080972651896335
  0.6532156906562346  0.3089079962613968  0.4465188685545248
  0.6780095155883404  0.3174889613331846  0.3738626990856652
  0.6335022687716245  0.3203740242014705  0.3759084332069007
  0.6532219415748872  0.3317415203423359  0.4081275168546022
  0.6335008993944939  0.3430733169562615  0.4465414669272036
  0.6780084835331623  0.3459583798245475  0.4485872010484391
  0.7670123722544943  0.2660287522147229  0.4465414669272036
  0.7472994912505136  0.2547005795068525  0.4081215912093026
  0.6977185834795032  0.2546969556007976  0.4081275168546022
  0.7422305216116194  0.3089079962613968  0.4465188685545248
  0.7225191518019961  0.2975792549887149  0.4080972651896335
  0.7027981792820351  0.3089119429517450  0.4465116609284391
  0.7225170997270088  0.3203740242014705  0.3759084332069007
  0.7028028493458981  0.3317451442483909  0.4081215912093026
  0.7422367725302720  0.3317415203423359  0.4081275168546022
  0.7225157303498787  0.3430733169562615  0.4465414669272036
  0.6532099672856563  0.2802813112238745  0.4808062846961408
  0.6334901114643432  0.2688197837816922  0.5514094656125528
  0.6532037163670037  0.2574477871429353  0.5191976363960632
  0.6334923465573810  0.2461190458702535  0.4807760330311719
  0.6779985613189192  0.2717034014933303  0.5534548008727104
  0.6334889251052634  0.2916131078378000  0.5192202347687421
  0.6779965092439315  0.2944981707060857  0.5212659688899777
  0.6582822588628215  0.3058692907530063  0.5534791268923797
  0.6582895630881891  0.3344962985748219  0.5191904287699777
  0.6335020857535741  0.3202799929001537  0.4787306977710143
  0.6780105356081502  0.3231636106117918  0.4807760330311719
  0.6780083005151128  0.3458643485232306  0.5514094656125528
  0.7027908750566676  0.2802849351299295  0.4808003590508411
  0.7225169167089589  0.3202799929001537  0.4787306977710143
  0.7473043940435738  0.3344962985748219  0.5191904287699777
  0.7027862049928046  0.2574517338332833  0.5191904287699777
  0.6977219054177729  0.3344923518844739  0.5191976363960632
  0.7422185473223885  0.2574477871429353  0.5191976363960632
  0.7670113401993163  0.2944981707060857  0.5212659688899777
  0.7225037560606473  0.2916131078378000  0.5192202347687421
  0.7670133922743040  0.2717034014933303  0.5534548008727104
  0.7472970898182059  0.3058692907530063  0.5534791268923797
  0.7225049424197280  0.2688197837816922  0.5514094656125528
  0.7917961331551288  0.1776560147653140  0.4081215912093026
  0.7917914630912662  0.1548228134686678  0.4465116609284391
  0.8115090141591094  0.1889841874731845  0.4465414669272036
  0.8115221748074205  0.2176510725355382  0.4060519299294759
  0.7867271635162345  0.2318634315198584  0.4465188685545248
  0.7867334144348871  0.2546969556007976  0.4081275168546022
  0.8115209884483403  0.2404443965916460  0.3738626990856652
  0.8363096521420355  0.2318673782102064  0.4465116609284391
  0.8363143222058980  0.2547005795068525  0.4081215912093026
  0.8757482453902719  0.2546969556007976  0.4081275168546022
  0.8560285725870092  0.2433294594599320  0.3759084332069007
  0.7867151892270040  0.1804032224013967  0.5191976363960632
  0.8115102005181896  0.1661908634170767  0.4787306977710143
  0.7867214401456566  0.2032367464823361  0.4808062846961408
  0.8115100341789191  0.1946588367517920  0.5534548008727104
  0.8363023479166675  0.2032403703883909  0.4808003590508411
  0.7917937317228214  0.2288247260114677  0.5534791268923797
  0.8115079821039318  0.2174536059645474  0.5212659688899777
  0.8115220084681500  0.2461190458702535  0.4807760330311719
  0.8312333782777732  0.2574477871429353  0.5191976363960632
  0.8560152289206481  0.2145685430962616  0.5192202347687421
  0.8560283895689588  0.2432354281586153  0.4787306977710143
  0.8115339827573813  0.2975792549887149  0.4080972651896335
  0.7670255329028050  0.2946956372770765  0.4060519299294759
  0.8115199563931627  0.2689138150830089  0.4485872010484391
  0.8312453525670037  0.3089079962613968  0.4465188685545248
  0.7918130102374199  0.3089119429517450  0.4465116609284391
  0.7670243465437248  0.3174889613331846  0.3738626990856652
  0.8115319306823936  0.3203740242014705  0.3759084332069007
  0.8312516034856563  0.3317415203423359  0.4081275168546022
  0.7670233144885471  0.3459583798245475  0.4485872010484391
  0.8115305613052635  0.3430733169562615  0.4465414669272036
  0.7918176803012829  0.3317451442483909  0.4081215912093026
  0.9005488137127662  0.2975792549887149  0.4080972651896335
  0.8560403638581897  0.2946956372770765  0.4060519299294759
  0.8560272032098790  0.2660287522147229  0.4465414669272036
  0.8808278411928047  0.3089119429517450  0.4465116609284391
  0.8560391774991095  0.3174889613331846  0.3738626990856652
  0.9005467616377788  0.3203740242014705  0.3759084332069007
  0.9005453922606478  0.3430733169562615  0.4465414669272036
  0.8808325112566672  0.3317451442483909  0.4081215912093026
  0.8560381454439315  0.3459583798245475  0.4485872010484391
  0.8312396291964258  0.2802813112238745  0.4808062846961408
  0.8115317476643441  0.3202799929001537  0.4787306977710143
  0.7918057060120519  0.2802849351299295  0.4808003590508411
  0.7670253665635349  0.3231636106117918  0.4807760330311719
  0.8363192249989578  0.3344962985748219  0.5191904287699777
  0.7918010359481891  0.2574517338332833  0.5191904287699777
  0.7867367363731577  0.3344923518844739  0.5191976363960632
  0.8363119207735906  0.3058692907530063  0.5534791268923797
  0.7670231314704972  0.3458643485232306  0.5514094656125528
  0.8115185870160321  0.2916131078378000  0.5192202347687421
  0.8115197733751127  0.2688197837816922  0.5514094656125528
  0.8560401975189192  0.3231636106117918  0.4807760330311719
  0.9005465786197280  0.3202799929001537  0.4787306977710143
  0.8808158669035738  0.2574517338332833  0.5191904287699777
  0.8808205369674367  0.2802849351299295  0.4808003590508411
  0.9005334179714173  0.2916131078378000  0.5192202347687421
  0.8757515673285424  0.3344923518844739  0.5191976363960632
  0.8560379624258819  0.3458643485232306  0.5514094656125528
  0.8560282232296883  0.2717034014933303  0.5534548008727104
  0.8560261711547010  0.2944981707060857  0.5212659688899777
  0.6335282694250735  0.4004996732256381  0.2627397295065566
  0.6335262173500862  0.4232944424383936  0.2305508975238238
  0.6780368856189195  0.3749153176025611  0.1900609616650181
  0.6583205831628214  0.4090812068622371  0.1900852876846872
  0.6335284357643439  0.3720316998909229  0.1880156264048604
  0.6780334641668020  0.4204093795701078  0.2285051634025883
  0.6583159130989585  0.3862480055655910  0.2284753574038238
  0.6780346505258822  0.3976160555139999  0.2606943942463990
  0.6780228592547015  0.3462498776968551  0.2305508975238238
  0.7473307440543431  0.3862480055655910  0.2284753574038238
  0.6977545063471948  0.4090775829561822  0.1900912133299869
  0.7473354141182059  0.4090812068622371  0.1900852876846872
  0.7670517165743040  0.3749153176025611  0.1900609616650181
  0.7225432667197285  0.3720316998909229  0.1880156264048604
  0.6977482554285425  0.3862440588752430  0.2284825650299094
  0.7670482951221868  0.4204093795701078  0.2285051634025883
  0.7670376902100861  0.3462498776968551  0.2305508975238238
  0.7225431003804582  0.4004996732256381  0.2627397295065566
  0.7670494814812669  0.3976160555139999  0.2606943942463990
  0.7225410483054707  0.4232944424383936  0.2305508975238238
  0.6335142430608550  0.3718342333199320  0.3032296653653622
  0.6977425320579642  0.3576173738377207  0.2627699811715254
  0.6532396392346963  0.4118284144983200  0.3011613328714479
  0.6583086088735907  0.3576209977437755  0.2627640555262256
  0.6780214898775714  0.3689491704516461  0.3011839312441267
  0.6532458901533487  0.4346619385792591  0.2627699811715254
  0.6335260343320359  0.4232004111370768  0.3333731620879373
  0.6532339158641182  0.3832017294607977  0.3354487490130639
  0.6335162951358423  0.3490394641071766  0.3354184973480949
  0.6780344841866117  0.4260840288487150  0.3354184973480949
  0.7028221278604972  0.4118323611886680  0.3011541252453623
  0.7028267979243596  0.4346655624853141  0.2627640555262256
  0.7473234398289752  0.3576209977437755  0.2627640555262256
  0.7422607211087334  0.4346619385792591  0.2627699811715254
  0.7670363208329559  0.3689491704516461  0.3011839312441267
  0.7422544701900808  0.4118284144983200  0.3011613328714479
  0.7225290740162398  0.3718342333199320  0.3032296653653622
  0.7225408652874207  0.4232004111370768  0.3333731620879373
  0.7670493151419965  0.4260840288487150  0.3354184973480949
  0.7028148236351291  0.3832053533668525  0.3354428233677642
  0.7422487468195027  0.3832017294607977  0.3354487490130639
  0.7225311260912270  0.3490394641071766  0.3354184973480949
  0.6335499829104974  0.5261208293739998  0.1880156264048604
  0.6335380086212662  0.4746606202555383  0.2606943942463990
  0.6335368222621867  0.4974539443116464  0.2285051634025883
  0.6335402437143042  0.4519598823440997  0.1900609616650181
  0.6532516135239269  0.4632886236167814  0.2284825650299094
  0.6532578644425797  0.4861221476977207  0.1900912133299869
  0.6780584327650732  0.5290044470856381  0.1900609616650181
  0.6780444064008554  0.5003390071799320  0.2305508975238238
  0.6583374602451124  0.5403371350486680  0.2284753574038238
  0.6780466248151127  0.4490762646324613  0.1880156264048604
  0.7422664444793118  0.4632886236167814  0.2284825650299094
  0.7225550746696887  0.4519598823440997  0.1900609616650181
  0.7028341021497277  0.4632925703071294  0.2284753574038238
  0.7225528395766510  0.4746606202555383  0.2606943942463990
  0.7422726953979645  0.4861221476977207  0.1900912133299869
  0.7028387722135906  0.4861257716037757  0.1900852876846872
  0.7473522912004970  0.5403371350486680  0.2284753574038238
  0.7225516532175712  0.4974539443116464  0.2285051634025883
  0.6977698025746962  0.5403331883583200  0.2284825650299094
  0.7225648138658821  0.5261208293739998  0.1880156264048604
  0.6335248479729554  0.4459937351931846  0.3011839312441267
  0.6583254859558817  0.4888769259302064  0.3011541252453623
  0.6780464584758429  0.4775442379671766  0.2627397295065566
  0.6583301560197443  0.5117101272268526  0.2627640555262256
  0.6780430370237246  0.5230382999347231  0.3011839312441267
  0.6780324321116245  0.4488787980614705  0.3032296653653622
  0.6335357902070089  0.5259233628030090  0.3032296653653622
  0.6780442233828049  0.5002449758786152  0.3333731620879373
  0.6583181817305134  0.4602499181083910  0.3354428233677642
  0.6335378422819964  0.5031285935902533  0.3354184973480949
  0.6977521049148872  0.4602462942023361  0.3354487490130639
  0.6532554630102718  0.5372908589438746  0.3354487490130639
  0.7670472630670090  0.4488787980614705  0.3032296653653622
  0.7225396789283406  0.4459937351931846  0.3011839312441267
  0.6977578282854655  0.4888729792398584  0.3011613328714479
  0.7473330126858982  0.4602499181083910  0.3354428233677642
  0.7473403169112665  0.4888769259302064  0.3011541252453623
  0.7225526732373809  0.5031285935902533  0.3354184973480949
  0.6977640792041183  0.5117065033207977  0.2627699811715254
  0.7225506211623937  0.5259233628030090  0.3032296653653622
  0.7422702939656566  0.5372908589438746  0.3354487490130639
  0.7028363707812827  0.5372944828499295  0.3354428233677642
  0.7473449869751291  0.5117101272268526  0.2627640555262256
  0.8363382707843597  0.3576209977437755  0.2627640555262256
  0.8115580976751130  0.3720316998909229  0.1880156264048604
  0.8115579313358428  0.4004996732256381  0.2627397295065566
  0.7867693373025796  0.4090775829561822  0.1900912133299869
  0.7867630863839271  0.3862440588752430  0.2284825650299094
  0.8363455750097278  0.3862480055655910  0.2284753574038238
  0.8560631260775714  0.4204093795701078  0.2285051634025883
  0.8560643124366513  0.3976160555139999  0.2606943942463990
  0.8808564598351291  0.4346655624853141  0.2627640555262256
  0.8115439049716243  0.3718342333199320  0.3032296653653622
  0.7867573630133488  0.3576173738377207  0.2627699811715254
  0.8115459570466114  0.3490394641071766  0.3354184973480949
  0.7918296545905138  0.3832053533668525  0.3354428233677642
  0.8312635777748872  0.3832017294607977  0.3354487490130639
  0.8312693011454656  0.4118284144983200  0.3011613328714479
  0.7918369588158818  0.4118323611886680  0.3011541252453623
  0.8115556962428054  0.4232004111370768  0.3333731620879373
  0.8115545098837251  0.4459937351931846  0.3011839312441267
  0.8560511517883405  0.3689491704516461  0.3011839312441267
  0.9005607880019962  0.3490394641071766  0.3354184973480949
  0.8808444855458983  0.3832053533668525  0.3354428233677642
  0.9005693408391097  0.4459937351931846  0.3011839312441267
  0.8560620940223935  0.4488787980614705  0.3032296653653622
  0.9005705271981899  0.4232004111370768  0.3333731620879373
  0.8808517897712663  0.4118323611886680  0.3011541252453623
  0.8560641460973810  0.4260840288487150  0.3354184973480949
  0.8115699056250733  0.4519598823440997  0.1900609616650181
  0.7867846335300810  0.5403331883583200  0.2284825650299094
  0.7918489331051123  0.4632925703071294  0.2284753574038238
  0.8115664841729561  0.4974539443116464  0.2285051634025883
  0.7670592373562399  0.5003390071799320  0.2305508975238238
  0.7670732637204579  0.5290044470856381  0.1900609616650181
  0.7918536031689754  0.4861257716037757  0.1900852876846872
  0.7670614557704972  0.4490762646324613  0.1880156264048604
  0.8115796448212667  0.5261208293739998  0.1880156264048604
  0.8312875263533491  0.4861221476977207  0.1900912133299869
  0.8560740683116245  0.5003390071799320  0.2305508975238238
  0.8363671221558815  0.5403371350486680  0.2284753574038238
  0.8115676705320355  0.4746606202555383  0.2606943942463990
  0.7670612894312274  0.4775442379671766  0.2627397295065566
  0.7867789101595029  0.5117065033207977  0.2627699811715254
  0.7867726592408500  0.4888729792398584  0.3011613328714479
  0.7670590543381895  0.5002449758786152  0.3333731620879373
  0.8312851249210413  0.5372908589438746  0.3354487490130639
  0.7867669358702717  0.4602462942023361  0.3354487490130639
  0.8363598179305138  0.5117101272268526  0.2627640555262256
  0.8560761203866120  0.4775442379671766  0.2627397295065566
  0.8757937411148876  0.5117065033207977  0.2627699811715254
  0.8757874901962348  0.4888729792398584  0.3011613328714479
  0.8363551478666510  0.4888769259302064  0.3011541252453623
  0.8560726989344943  0.5230382999347231  0.3011839312441267
  0.9005802830731627  0.5259233628030090  0.3032296653653622
  0.8560738852935743  0.5002449758786152  0.3333731620879373
  0.8808660326920522  0.5372944828499295  0.3354428233677642
  0.9005823351481501  0.5031285935902533  0.3354184973480949
  0.8757817668256564  0.4602462942023361  0.3354487490130639
  0.8363478436412830  0.4602499181083910  0.3354428233677642
  0.6977458539962348  0.4374127701213970  0.3738401007129863
  0.6583135116666510  0.4374167168117449  0.3738328930869007
  0.6532276649454660  0.3603682053798583  0.3738401007129863
  0.6780204578223937  0.3974185889430089  0.3759084332069007
  0.6335128736837251  0.3945335260747231  0.3738626990856652
  0.6335140600428054  0.3717402020186151  0.4060519299294759
  0.6780225098973810  0.3746238197302535  0.4080972651896335
  0.6583062074412830  0.4087897089899295  0.4081215912093026
  0.6977401306256567  0.4087860850838747  0.4081275168546022
  0.6583015373774196  0.3859565076932831  0.4465116609284391
  0.6977338797070038  0.3859525610029351  0.4465188685545248
  0.6780190884452636  0.4201178816978001  0.4465414669272036
  0.6335118416285479  0.4230029445660858  0.4485872010484391
  0.7028101535712661  0.3603721520702060  0.3738328930869007
  0.7670352887777783  0.3974185889430089  0.3759084332069007
  0.7225277046391096  0.3945335260747231  0.3738626990856652
  0.7422424959008503  0.3603682053798583  0.3738401007129863
  0.7225288909981903  0.3717402020186151  0.4060519299294759
  0.7670373408527659  0.3746238197302535  0.4080972651896335
  0.7473210383966677  0.4087897089899295  0.4081215912093026
  0.7670339194006481  0.4201178816978001  0.4465414669272036
  0.7473163683328043  0.3859565076932831  0.4465116609284391
  0.7225266725839322  0.4230029445660858  0.4485872010484391
  0.6780071141560327  0.3686576725793383  0.5192202347687421
  0.6977281563364259  0.3573258759654128  0.4808062846961408
  0.6780202748043433  0.3973245576416920  0.4787306977710143
  0.6532252635131578  0.4115369166260122  0.5191976363960632
  0.6532315144318104  0.4343704407069515  0.4808062846961408
  0.6335138937035346  0.4002081753533304  0.4807760330311719
  0.6582942331520525  0.3573294998714681  0.4808003590508411
  0.6334998673393163  0.3715427354476243  0.5212659688899777
  0.6335019194143041  0.3487479662348687  0.5534548008727104
  0.6335116586104973  0.4229089132647689  0.5514094656125528
  0.6780201084650733  0.4257925309764073  0.5534548008727104
  0.7028077521389583  0.4115408633163603  0.5191904287699777
  0.7225287246589194  0.4002081753533304  0.4807760330311719
  0.7422463453871951  0.4343704407069515  0.4808062846961408
  0.7028124222028213  0.4343740646130063  0.4808003590508411
  0.7473090641074372  0.3573294998714681  0.4808003590508411
  0.7670351057597281  0.3973245576416920  0.4787306977710143
  0.7422400944685421  0.4115369166260122  0.5191976363960632
  0.7670219451114165  0.3686576725793383  0.5192202347687421
  0.7225146982947012  0.3715427354476243  0.5212659688899777
  0.7225264895658821  0.4229089132647689  0.5514094656125528
  0.7670349394204576  0.4257925309764073  0.5534548008727104
  0.7225167503696884  0.3487479662348687  0.5534548008727104
  0.7028004479135903  0.3829138554945449  0.5534791268923797
  0.6780310627344943  0.4715780908162617  0.3738626990856652
  0.6780322490935745  0.4487847667601537  0.4060519299294759
  0.6335258679927654  0.4516683844717920  0.4080972651896335
  0.6532372378023885  0.4629971257444738  0.4465188685545248
  0.6532434887210413  0.4858306498254130  0.4081275168546022
  0.6335238159177782  0.4744631536845474  0.3759084332069007
  0.6335224465406480  0.4971624464393385  0.4465414669272036
  0.6780300306793171  0.5000475093076244  0.4485872010484391
  0.6532492120916192  0.5144573348629353  0.3738401007129863
  0.6335356071889592  0.5258293315016921  0.4060519299294759
  0.6780440570435348  0.5287129492133305  0.4080972651896335
  0.6583230845235737  0.5400456371763603  0.4465116609284391
  0.6335344208298790  0.5486226555578001  0.3738626990856652
  0.7028243964920522  0.4858342737314679  0.4081215912093026
  0.7422520687577733  0.4629971257444738  0.4465188685545248
  0.7028197264281892  0.4630010724348218  0.4465116609284391
  0.7225372774960328  0.4971624464393385  0.4465414669272036
  0.7422640430470040  0.5144573348629353  0.3738401007129863
  0.7028317007174202  0.5144612815532833  0.3738328930869007
  0.7225504381443435  0.5258293315016921  0.4060519299294759
  0.7225492517852635  0.5486226555578001  0.3738626990856652
  0.7473379154789584  0.5400456371763603  0.4465116609284391
  0.6977554268531575  0.5400416904860122  0.4465188685545248
  0.6583157802982059  0.5114186293545449  0.4808003590508411
  0.6335236328997282  0.4743691223832306  0.4787306977710143
  0.6780320827543040  0.4772527400948689  0.4807760330311719
  0.6583111102343427  0.4885854280578987  0.5191904287699777
  0.6335104722514171  0.4457022373208769  0.5192202347687421
  0.6780286613021863  0.5227468020624155  0.5192202347687421
  0.6780180563900859  0.4485873001891628  0.5212659688899777
  0.6335214144854705  0.5256318649307012  0.5212659688899777
  0.6335234665604578  0.5028370957179458  0.5534548008727104
  0.6583038060089752  0.4599584202360833  0.5534791268923797
  0.6780298476612665  0.4999534780063076  0.5514094656125528
  0.7225384638551128  0.4743691223832306  0.4787306977710143
  0.7670328873454708  0.4485873001891628  0.5212659688899777
  0.7473186369643597  0.4599584202360833  0.5534791268923797
  0.7225253032068021  0.4457022373208769  0.5192202347687421
  0.6977434525639270  0.4885814813675508  0.5191976363960632
  0.7473259411897276  0.4885854280578987  0.5191904287699777
  0.7225382975158425  0.5028370957179458  0.5534548008727104
  0.6977497034825796  0.5114150054484899  0.4808062846961408
  0.7670434922575708  0.5227468020624155  0.5192202347687421
  0.7028219950597444  0.5370029849776219  0.5534791268923797
  0.7473306112535905  0.5114186293545449  0.4808003590508411
  0.7225362454408553  0.5256318649307012  0.5212659688899777
  0.8363431735774201  0.4374167168117449  0.3738328930869007
  0.7918249845266504  0.3603721520702060  0.3738328930869007
  0.8115425355944944  0.3945335260747231  0.3738626990856652
  0.8312573268562347  0.3603682053798583  0.3738401007129863
  0.7867606849516193  0.4374127701213970  0.3738401007129863
  0.8115437219535742  0.3717402020186151  0.4060519299294759
  0.8115415035393168  0.4230029445660858  0.4485872010484391
  0.7867487106623882  0.3859525610029351  0.4465188685545248
  0.8363358693520521  0.4087897089899295  0.4081215912093026
  0.7867549615810414  0.4087860850838747  0.4081275168546022
  0.8560619110043436  0.4487847667601537  0.4060519299294759
  0.8757755159070039  0.4374127701213970  0.3738401007129863
  0.8808398154820352  0.3603721520702060  0.3738328930869007
  0.8560501197331628  0.3974185889430089  0.3759084332069007
  0.9005573665498789  0.3945335260747231  0.3738626990856652
  0.9005585529089589  0.3717402020186151  0.4060519299294759
  0.8560521718081506  0.3746238197302535  0.4080972651896335
  0.8757697925364262  0.4087860850838747  0.4081275168546022
  0.8560487503560329  0.4201178816978001  0.4465414669272036
  0.9005563344947016  0.4230029445660858  0.4485872010484391
  0.8115435556143037  0.4002081753533304  0.4807760330311719
  0.8115295292500859  0.3715427354476243  0.5212659688899777
  0.7918152788689751  0.3829138554945449  0.5534791268923797
  0.7867429872918102  0.3573258759654128  0.4808062846961408
  0.8115315813250732  0.3487479662348687  0.5534548008727104
  0.8312549254239269  0.4115369166260122  0.5191976363960632
  0.7918225830943432  0.4115408633163603  0.5191904287699777
  0.8115413205212668  0.4229089132647689  0.5514094656125528
  0.8312611763425797  0.4343704407069515  0.4808062846961408
  0.8115401341621866  0.4457022373208769  0.5192202347687421
  0.7918272531582060  0.4343740646130063  0.4808003590508411
  0.8808301098243603  0.3829138554945449  0.5534791268923797
  0.8560367760668017  0.3686576725793383  0.5192202347687421
  0.8363238950628211  0.3573294998714681  0.4808003590508411
  0.9005464122804580  0.3487479662348687  0.5534548008727104
  0.9005443602054707  0.3715427354476243  0.5212659688899777
  0.9005583865696885  0.4002081753533304  0.4807760330311719
  0.9202697563793117  0.4115369166260122  0.5191976363960632
  0.8808374140497275  0.4115408633163603  0.5191904287699777
  0.9005561514766511  0.4229089132647689  0.5514094656125528
  0.8560497703758424  0.4257925309764073  0.5534548008727104
  0.9005549651175714  0.4457022373208769  0.5192202347687421
  0.8808420841135908  0.4343740646130063  0.4808003590508411
  0.8560477183008551  0.4485873001891628  0.5212659688899777
  0.7670458936898789  0.4715780908162617  0.3738626990856652
  0.8115555299035349  0.4516683844717920  0.4080972651896335
  0.7918345573835738  0.4630010724348218  0.4465116609284391
  0.8312668997131576  0.4629971257444738  0.4465188685545248
  0.8312731506318104  0.4858306498254130  0.4081275168546022
  0.8115534778285479  0.4744631536845474  0.3759084332069007
  0.7918392274474367  0.4858342737314679  0.4081215912093026
  0.8312788740023888  0.5144573348629353  0.3738401007129863
  0.8115640827406481  0.5486226555578001  0.3738626990856652
  0.7867702578085425  0.5400416904860122  0.4465188685545248
  0.7918465316728045  0.5144612815532833  0.3738328930869007
  0.7670588879989195  0.5287129492133305  0.4080972651896335
  0.8115652690997283  0.5258293315016921  0.4060519299294759
  0.8808493883389584  0.4630010724348218  0.4465116609284391
  0.8560607246452636  0.4715780908162617  0.3738626990856652
  0.9005703608589196  0.4516683844717920  0.4080972651896335
  0.9005683087839322  0.4744631536845474  0.3759084332069007
  0.8808540584028213  0.4858342737314679  0.4081215912093026
  0.8808613626281893  0.5144612815532833  0.3738328930869007
  0.9005801000551128  0.5258293315016921  0.4060519299294759
  0.9005789136960328  0.5486226555578001  0.3738626990856652
  0.8560737189543043  0.5287129492133305  0.4080972651896335
  0.8757850887639270  0.5400416904860122  0.4465188685545248
  0.8363527464343430  0.5400456371763603  0.4465116609284391
  0.7670448616347014  0.5000475093076244  0.4485872010484391
  0.8115521084514176  0.4971624464393385  0.4465414669272036
  0.7670469137096888  0.4772527400948689  0.4807760330311719
  0.8115532948104975  0.4743691223832306  0.4787306977710143
  0.7867645344379643  0.5114150054484899  0.4808062846961408
  0.8115510763962400  0.5256318649307012  0.5212659688899777
  0.7918368260151289  0.5370029849776219  0.5534791268923797
  0.7670446786166513  0.4999534780063076  0.5514094656125528
  0.7867582835193115  0.4885814813675508  0.5191976363960632
  0.8115531284712273  0.5028370957179458  0.5534548008727104
  0.8363334679197445  0.4599584202360833  0.5534791268923797
  0.9005669394068021  0.4971624464393385  0.4465414669272036
  0.8560596925900861  0.5000475093076244  0.4485872010484391
  0.8560617446650733  0.4772527400948689  0.4807760330311719
  0.9005681257658821  0.4743691223832306  0.4787306977710143
  0.8757793653933487  0.5114150054484899  0.4808062846961408
  0.8363454422089752  0.5114186293545449  0.4808003590508411
  0.8363407721451124  0.4885854280578987  0.5191904287699777
  0.9005659073516246  0.5256318649307012  0.5212659688899777
  0.8560583232129556  0.5227468020624155  0.5192202347687421
  0.8757731144746962  0.4885814813675508  0.5191976363960632
  0.8560595095720360  0.4999534780063076  0.5514094656125528
  0.9005679594266116  0.5028370957179458  0.5534548008727104
  0.8808516569705135  0.5370029849776219  0.5534791268923797
  0.6334769508160329  0.2401528987193385  0.5918990026102805
  0.6334663459039321  0.1659933968460859  0.5939447367315162
  0.6334781371751131  0.2173595746632305  0.6240882334540911
  0.6531917420777732  0.2059875780244738  0.5918764042376018
  0.6531979929964258  0.2288211021054128  0.5534850525376792
  0.6531860187071948  0.1773608929869515  0.6261638203792175
  0.6779865870296887  0.2202431923748689  0.6261335687142489
  0.6582656145097278  0.2315758803378987  0.6645479644530545
  0.6779735927206481  0.1631083339777999  0.5918990026102805
  0.7027622564143429  0.1545313155963603  0.6645479644530545
  0.7027669264782062  0.1773645168930063  0.6261578947339180
  0.7027742307035738  0.2059915247148218  0.5918691966115160
  0.7224929681304979  0.2173595746632305  0.6240882334540911
  0.7224811768593166  0.1659933968460859  0.5939447367315162
  0.7422008496625797  0.1773608929869515  0.6261638203792175
  0.7224917817714173  0.2401528987193385  0.5918990026102805
  0.7422065730331580  0.2059875780244738  0.5918764042376018
  0.7670014179850730  0.2202431923748689  0.6261335687142489
  0.7669884236760328  0.1631083339777999  0.5918990026102805
  0.7422128239518101  0.2288211021054128  0.5534850525376792
  0.7472804454651121  0.2315758803378987  0.6645479644530545
  0.6334878930500863  0.3200825263291626  0.5939447367315162
  0.6532075658533489  0.3314500224700287  0.6261638203792175
  0.6334899451250732  0.2972877571164072  0.6261335687142489
  0.6779845349547015  0.2430379615876243  0.5939447367315162
  0.6582702845735906  0.2544090816345446  0.6261578947339180
  0.6582775887989583  0.2830360894563602  0.5918691966115160
  0.6779963262258819  0.2944041394047691  0.6240882334540911
  0.6779951398668017  0.3171974634608769  0.5918990026102805
  0.6977042077579642  0.2544054577284901  0.6261638203792175
  0.6977099311285424  0.2830321427660122  0.5918764042376018
  0.6977161820471950  0.3058656668469511  0.5534850525376792
  0.7225047760804579  0.2972877571164072  0.6261335687142489
  0.7669993659100858  0.2430379615876243  0.5939447367315162
  0.7422223968087334  0.3314500224700287  0.6261638203792175
  0.7472851155289754  0.2544090816345446  0.6261578947339180
  0.7027884736243598  0.3314536463760832  0.6261578947339180
  0.7027838035604970  0.3086204450794370  0.6645479644530545
  0.7472924197543430  0.2830360894563602  0.5918691966115160
  0.7225027240054707  0.3200825263291626  0.5939447367315162
  0.6976859825500811  0.1801117245290892  0.7372339399206785
  0.6531797677885424  0.1545273689060121  0.6645551720791402
  0.6334661628858818  0.1658993655447690  0.6967670012956295
  0.6779746127404578  0.1687829832564074  0.6988123365557871
  0.6334649765268020  0.1886926896008771  0.6645777704518190
  0.6582536402204968  0.1801156712194372  0.7372267322945931
  0.6779725606654705  0.1915777524691628  0.6666235045730544
  0.6334779708358422  0.2458275479979458  0.6988123365557871
  0.6582583102843597  0.2029488725160832  0.6988366625754564
  0.6779711912883404  0.2142770452239537  0.7372565382933574
  0.6334639444716245  0.2171621080922397  0.7393022724145930
  0.6976922334687332  0.2029452486100284  0.6988425882207558
  0.6779843519366510  0.2429439302863071  0.6967670012956295
  0.7421945987439271  0.1545273689060121  0.6645551720791402
  0.7224809938412665  0.1658993655447690  0.6967670012956295
  0.7224798074821864  0.1886926896008771  0.6645777704518190
  0.7669873916208557  0.1915777524691628  0.6666235045730544
  0.7472731412397444  0.2029488725160832  0.6988366625754564
  0.7669860222437251  0.2142770452239537  0.7372565382933574
  0.7224787754270092  0.2171621080922397  0.7393022724145930
  0.7669991828920357  0.2429439302863071  0.6967670012956295
  0.7224928017912270  0.2458275479979458  0.6988123365557871
  0.6976979568393116  0.2315719336475507  0.6645551720791402
  0.6334745493837253  0.2913216099654923  0.7372565382933574
  0.6334759187608554  0.2686223172107012  0.6666235045730544
  0.6779831655775717  0.2657372543424156  0.6645777704518190
  0.6531893406454655  0.2571562892706276  0.7372339399206785
  0.6531955915641177  0.2799898133515668  0.6988425882207558
  0.6532013149346965  0.3086164983890891  0.6645551720791402
  0.6334865236729558  0.3427818190839540  0.6645777704518190
  0.6582751873666505  0.3342048007025140  0.7372267322945931
  0.6779941078116246  0.3456668819522398  0.6666235045730544
  0.6779961598866114  0.3228721127394844  0.6988123365557871
  0.6977075296962343  0.3342008540121660  0.7372339399206785
  0.7422041716008507  0.2571562892706276  0.7372339399206785
  0.7422104225195024  0.2799898133515668  0.6988425882207558
  0.7669979965329565  0.2657372543424156  0.6645777704518190
  0.7224907497162402  0.2686223172107012  0.6666235045730544
  0.7027764993351293  0.2799934372576218  0.6988366625754564
  0.7422161458900808  0.3086164983890891  0.6645551720791402
  0.7669969644777784  0.2942066728337783  0.7393022724145930
  0.7225025409874197  0.3199884950278458  0.6967670012956295
  0.7472900183220352  0.3342048007025140  0.7372267322945931
  0.7225013546283405  0.3427818190839540  0.6645777704518190
  0.7917890616589581  0.2059915247148218  0.5918691966115160
  0.7917817574335909  0.1773645168930063  0.6261578947339180
  0.8312276549071949  0.2288211021054128  0.5534850525376792
  0.8312214039885424  0.2059875780244738  0.5918764042376018
  0.8115077990858827  0.2173595746632305  0.6240882334540911
  0.8115066127268020  0.2401528987193385  0.5918990026102805
  0.8362952764204968  0.2315758803378987  0.6645479644530545
  0.8312372277641181  0.3314500224700287  0.6261638203792175
  0.7867190387133489  0.2544054577284901  0.6261638203792175
  0.7918033045797446  0.3314536463760832  0.6261578947339180
  0.8115196070358427  0.2972877571164072  0.6261335687142489
  0.7867310130025793  0.3058656668469511  0.5534850525376792
  0.7867247620839273  0.2830321427660122  0.5918764042376018
  0.8115175549608550  0.3200825263291626  0.5939447367315162
  0.7670099708221865  0.3171974634608769  0.5918990026102805
  0.7670111571812667  0.2944041394047691  0.6240882334540911
  0.8362999464843597  0.2544090816345446  0.6261578947339180
  0.8363072507097273  0.2830360894563602  0.5918691966115160
  0.8560141968654705  0.2430379615876243  0.5939447367315162
  0.8560248017775713  0.3171974634608769  0.5918990026102805
  0.8560259881366514  0.2944041394047691  0.6240882334540911
  0.8808181355351290  0.3314536463760832  0.6261578947339180
  0.9005323859162397  0.3200825263291626  0.5939447367315162
  0.8757395930393116  0.2830321427660122  0.5918764042376018
  0.8808134654712660  0.3086204450794370  0.6645479644530545
  0.8757458439579642  0.3058656668469511  0.5534850525376792
  0.7867070644241175  0.2029452486100284  0.6988425882207558
  0.7867127877946963  0.2315719336475507  0.6645551720791402
  0.8115076327466118  0.2458275479979458  0.6988123365557871
  0.8115055806716249  0.2686223172107012  0.6666235045730544
  0.8312309768454655  0.3086164983890891  0.6645551720791402
  0.8115173719428046  0.3199884950278458  0.6967670012956295
  0.7917913302905142  0.2799934372576218  0.6988366625754564
  0.8312252534748867  0.2799898133515668  0.6988425882207558
  0.8115042112944948  0.2913216099654923  0.7372565382933574
  0.7867223606516195  0.3342008540121660  0.7372339399206785
  0.7917866602266508  0.2571602359609756  0.7372267322945931
  0.8363048492774200  0.3342048007025140  0.7372267322945931
  0.8560128274883408  0.2657372543424156  0.6645777704518190
  0.8560237697223941  0.3456668819522398  0.6666235045730544
  0.9005310165391096  0.3427818190839540  0.6645777704518190
  0.8560258217973810  0.3228721127394844  0.6988123365557871
  0.6334996843212668  0.3714487041463074  0.6240882334540911
  0.6334984979621862  0.3942420282024153  0.5918990026102805
  0.6977195039854657  0.3856610631306276  0.6645551720791402
  0.6582991359451124  0.4371252189394371  0.5918691966115160
  0.6582918317197443  0.4084982111176218  0.6261578947339180
  0.6582871616558819  0.3856650098209756  0.6645479644530545
  0.6532132892239269  0.3600767075075508  0.5918764042376018
  0.6532195401425794  0.3829102315884895  0.5534850525376792
  0.6977314782746962  0.4371212722490891  0.5918764042376018
  0.7473139669004971  0.4371252189394371  0.5918691966115160
  0.7422281201793117  0.3600767075075508  0.5918764042376018
  0.7422343710979642  0.3829102315884895  0.5534850525376792
  0.7225133289175709  0.3942420282024153  0.5918990026102805
  0.7670209130562399  0.3971270910707012  0.5939447367315162
  0.7473066626751290  0.4084982111176218  0.6261578947339180
  0.7670229651312271  0.3743323218579456  0.6261335687142489
  0.7473019926112662  0.3856650098209756  0.6645479644530545
  0.6582798574305138  0.3570380019991601  0.6988366625754564
  0.6334854916177781  0.3712512375753166  0.7393022724145930
  0.6334960965298789  0.4454107394485692  0.7372565382933574
  0.6532108877916192  0.4112454187537045  0.7372339399206785
  0.6532171387102718  0.4340789428346437  0.6988425882207558
  0.6334995179819959  0.3999166774810227  0.6988123365557871
  0.6334974659070095  0.4227114466937781  0.6666235045730544
  0.6977137806148873  0.3570343780931053  0.6988425882207558
  0.6780047127237250  0.4198263838254926  0.6645777704518190
  0.6779927384344940  0.3683661747070309  0.7372565382933574
  0.6780058990828046  0.3970330597693843  0.6967670012956295
  0.7670195436791097  0.4198263838254926  0.6645777704518190
  0.7225122968623943  0.4227114466937781  0.6666235045730544
  0.7225143489373811  0.3999166774810227  0.6988123365557871
  0.7670207300381898  0.3970330597693843  0.6967670012956295
  0.7472946883858986  0.3570380019991601  0.6988366625754564
  0.7027980464812834  0.4340825667406987  0.6988366625754564
  0.7422319696656561  0.4340789428346437  0.6988425882207558
  0.7027933764174197  0.4112493654440526  0.7372267322945931
  0.7422257187470039  0.4112454187537045  0.7372339399206785
  0.7670075693898788  0.3683661747070309  0.7372565382933574
  0.7225109274852632  0.4454107394485692  0.7372565382933574
  0.7225003225731629  0.3712512375753166  0.7393022724145930
  0.6335094401962400  0.4741716558122397  0.5939447367315162
  0.6335114922712273  0.4513768865994842  0.6261335687142489
  0.6335200451083403  0.5483311576854925  0.5918990026102805
  0.6532410872887335  0.5369993610715669  0.5534850525376792
  0.6532291129995027  0.4855391519531054  0.6261638203792175
  0.6532348363700807  0.5141658369906276  0.5918764042376018
  0.6335212314674205  0.5255378336293844  0.6240882334540911
  0.6780166870129558  0.4712865929439539  0.5918990026102805
  0.6780178733720365  0.4484932688878458  0.6240882334540911
  0.6780296813219965  0.5284214513410229  0.6261335687142489
  0.6977377291933486  0.4599547963300284  0.5534850525376792
  0.7225263232266116  0.4513768865994842  0.6261335687142489
  0.7422439439548870  0.4855391519531054  0.6261638203792175
  0.7225242711516245  0.4741716558122397  0.5939447367315162
  0.7028100207705137  0.4855427758591603  0.6261578947339180
  0.7225360624228054  0.5255378336293844  0.6240882334540911
  0.7028173249958816  0.5141697836809755  0.5918691966115160
  0.7422496673254654  0.5141658369906276  0.5918764042376018
  0.7225348760637249  0.5483311576854925  0.5918990026102805
  0.7422559182441180  0.5369993610715669  0.5534850525376792
  0.6977290768423884  0.4882899834952431  0.7372339399206785
  0.6780036806685473  0.4482958023168550  0.7393022724145930
  0.6780177070327651  0.4769612422225611  0.6988123365557871
  0.6335092571781895  0.4740776245109229  0.6967670012956295
  0.6532228620808501  0.4627056278721660  0.6645551720791402
  0.6582967345128046  0.4882939301855911  0.7372267322945931
  0.6335080708191099  0.4968709485670310  0.6645777704518190
  0.6583087088020355  0.5397541393040527  0.6645479644530545
  0.6780156549577783  0.4997560114353167  0.6666235045730544
  0.6335070387639322  0.5253403670583937  0.7393022724145930
  0.6780142855806481  0.5224553041901078  0.7372565382933574
  0.6583014045766675  0.5111271314822372  0.6988366625754564
  0.7422376930362349  0.4627056278721660  0.6645551720791402
  0.7670185116239321  0.4482958023168550  0.7393022724145930
  0.7028053507066506  0.4627095745625140  0.6645479644530545
  0.7225240881335739  0.4740776245109229  0.6967670012956295
  0.7473115654681889  0.4882939301855911  0.7372267322945931
  0.7225229017744944  0.4968709485670310  0.6645777704518190
  0.6977353277610412  0.5111235075761823  0.6988425882207558
  0.6977410511316195  0.5397501926137046  0.6645551720791402
  0.7473162355320523  0.5111271314822372  0.6988366625754564
  0.7225218697193168  0.5253403670583937  0.7393022724145930
  0.7670291165360327  0.5224553041901078  0.7372565382933574
  0.7473235397574198  0.5397541393040527  0.6645479644530545
  0.8363168235666509  0.3856650098209756  0.6645479644530545
  0.8312492020533486  0.3829102315884895  0.5534850525376792
  0.7867343349408500  0.3856610631306276  0.6645551720791402
  0.7867405858595026  0.4084945872115668  0.6261638203792175
  0.8115293462320359  0.3714487041463074  0.6240882334540911
  0.7670327043274212  0.4484932688878458  0.6240882334540911
  0.7867463092300809  0.4371212722490891  0.5918764042376018
  0.8115281598729558  0.3942420282024153  0.5918990026102805
  0.7918106088051122  0.3600806541978988  0.5918691966115160
  0.8312429511346965  0.3600767075075508  0.5918764042376018
  0.8363214936305138  0.4084982111176218  0.6261578947339180
  0.8560357440116242  0.3971270910707012  0.5939447367315162
  0.8363287978558814  0.4371252189394371  0.5918691966115160
  0.9202640330087334  0.3829102315884895  0.5534850525376792
  0.8808254397604965  0.3600806541978988  0.5918691966115160
  0.9202577820900812  0.3600767075075508  0.5918764042376018
  0.9005429908283401  0.3942420282024153  0.5918990026102805
  0.8757611401854652  0.4371212722490891  0.5918764042376018
  0.8560377960866119  0.3743323218579456  0.6261335687142489
  0.9005441771874202  0.3714487041463074  0.6240882334540911
  0.8560475352828055  0.4484932688878458  0.6240882334540911
  0.8757491658962347  0.3856610631306276  0.6645551720791402
  0.8757554168148873  0.4084945872115668  0.6261638203792175
  0.8363095193412829  0.3570380019991601  0.6988366625754564
  0.8115291798927654  0.3999166774810227  0.6988123365557871
  0.8312405497023887  0.4112454187537045  0.7372339399206785
  0.7918082073728044  0.4112493654440526  0.7372267322945931
  0.8115271278177786  0.4227114466937781  0.6666235045730544
  0.7918128774366683  0.4340825667406987  0.6988366625754564
  0.8115257584406480  0.4454107394485692  0.7372565382933574
  0.8312468006210408  0.4340789428346437  0.6988425882207558
  0.8560355609935743  0.3970330597693843  0.6967670012956295
  0.9005440108481503  0.3999166774810227  0.6988123365557871
  0.8757434425256564  0.3570343780931053  0.6988425882207558
  0.8808230383281892  0.4112493654440526  0.7372267322945931
  0.8560343746344945  0.4198263838254926  0.6645777704518190
  0.8808277083920526  0.4340825667406987  0.6988366625754564
  0.9005419587731633  0.4227114466937781  0.6666235045730544
  0.8560333425793168  0.4482958023168550  0.7393022724145930
  0.7918321559512661  0.5141697836809755  0.5918691966115160
  0.7670445122773808  0.5284214513410229  0.6261335687142489
  0.7867525601487335  0.4599547963300284  0.5534850525376792
  0.7670315179683405  0.4712865929439539  0.5918990026102805
  0.7918248517258982  0.4855427758591603  0.6261578947339180
  0.8115391021070093  0.4741716558122397  0.5939447367315162
  0.8115411541819963  0.4513768865994842  0.6261335687142489
  0.8115497070191097  0.5483311576854925  0.5918990026102805
  0.8312707491995027  0.5369993610715669  0.5534850525376792
  0.8115508933781898  0.5255378336293844  0.6240882334540911
  0.8312644982808501  0.5141658369906276  0.5918764042376018
  0.8560463489237248  0.4712865929439539  0.5918990026102805
  0.8757673911041183  0.4599547963300284  0.5534850525376792
  0.9005539330623943  0.4741716558122397  0.5939447367315162
  0.8808396826812831  0.4855427758591603  0.6261578947339180
  0.8560593432327656  0.5284214513410229  0.6261335687142489
  0.8808469869066511  0.5141697836809755  0.5918691966115160
  0.9005657243335745  0.5255378336293844  0.6240882334540911
  0.9005645379744940  0.5483311576854925  0.5918990026102805
  0.8312587749102718  0.4855391519531054  0.6261638203792175
  0.7670304859131633  0.4997560114353167  0.6666235045730544
  0.8115377327298789  0.4968709485670310  0.6645777704518190
  0.7867558820870041  0.5397501926137046  0.6645551720791402
  0.8312525239916192  0.4627056278721660  0.6645551720791402
  0.7918201816620354  0.4627095745625140  0.6645479644530545
  0.7670325379881503  0.4769612422225611  0.6988123365557871
  0.7867501587164255  0.5111235075761823  0.6988425882207558
  0.8115367006747013  0.5253403670583937  0.7393022724145930
  0.8115389190889591  0.4740776245109229  0.6967670012956295
  0.8363263964235736  0.4882939301855911  0.7372267322945931
  0.7867439077977731  0.4882899834952431  0.7372339399206785
  0.8363383707128046  0.5397541393040527  0.6645479644530545
  0.8560453168685476  0.4997560114353167  0.6666235045730544
  0.8757707130423884  0.5397501926137046  0.6645551720791402
  0.9005525636852635  0.4968709485670310  0.6645777704518190
  0.8808350126174201  0.4627095745625140  0.6645479644530545
  0.9202673549470040  0.4627056278721660  0.6645551720791402
  0.9005537500443435  0.4740776245109229  0.6967670012956295
  0.8363310664874368  0.5111271314822372  0.6988366625754564
  0.8560473689435347  0.4769612422225611  0.6988123365557871
  0.8757649896718100  0.5111235075761823  0.6988425882207558
  0.8757587387531579  0.4882899834952431  0.7372339399206785
  0.8560439474914172  0.5224553041901078  0.7372565382933574
  0.6334625750944943  0.2398614008470308  0.8099353061348958
  0.6334659965466117  0.1943673388794840  0.7714911043973257
  0.6531836172748872  0.2285296042331053  0.7715213560622944
  0.6531773663562346  0.2056960801521661  0.8099127077622169
  0.6779723776474205  0.1914837211678459  0.7694457691371681
  0.7027645250458980  0.2285332281391603  0.7715154304169950
  0.7421984482302719  0.2285296042331053  0.7715213560622944
  0.6582678831412829  0.3055777928806986  0.7715154304169950
  0.6334757357428054  0.2685282859093843  0.7694457691371681
  0.6582632130774200  0.2827445915840525  0.8099055001361315
  0.6779807641452635  0.3169059655885692  0.8099353061348958
  0.6334735173285476  0.3197910284568551  0.8119810402561314
  0.6779701592331627  0.2427464637153166  0.8119810402561314
  0.6582559088520520  0.2541175837622371  0.8441941982585334
  0.6334755694035350  0.2969962592440995  0.8441698722388641
  0.6779819505043437  0.2941126415324614  0.8421245369787067
  0.6531931901318103  0.3311585245977205  0.8442001239038328
  0.6976955554070038  0.2827406448937047  0.8099127077622169
  0.7472827140966672  0.3055777928806986  0.7715154304169950
  0.7472780440328047  0.2827445915840525  0.8099055001361315
  0.7224883482839319  0.3197910284568551  0.8119810402561314
  0.7224904003589193  0.2969962592440995  0.8441698722388641
  0.7422080210871946  0.3311585245977205  0.8442001239038328
  0.7027740979028212  0.3311621485037755  0.8441941982585334
  0.6531869392131577  0.3083250005167814  0.8825914756037555
  0.6779797320900859  0.3453753840799321  0.8846598080976698
  0.6334721479514175  0.3424903212116461  0.8826140739764342
  0.7867166372810411  0.3055741689746436  0.7715213560622944
  0.7669955951006479  0.3169059655885692  0.8099353061348958
  0.7669990165527657  0.2714119036210226  0.7714911043973257
  0.6779939247935742  0.3455728506509229  0.7694457691371681
  0.6532051644210413  0.3826187337161822  0.7715213560622944
  0.6531989135023887  0.3597852096352429  0.8099127077622169
  0.6334875436927654  0.3484564683625612  0.7714911043973257
  0.6334841222406480  0.3939505303301078  0.8099353061348958
  0.6779917063793168  0.3968355931983935  0.8119810402561314
  0.6334972828889591  0.4226174153924614  0.7694457691371681
  0.6780057327435347  0.4255010331040994  0.7714911043973257
  0.6582847602235736  0.4368337210671292  0.8099055001361315
  0.6977171025531574  0.4368297743767814  0.8099127077622169
  0.7027814021281892  0.3597891563255906  0.8099055001361315
  0.7670087557489590  0.3455728506509229  0.7694457691371681
  0.7422137444577726  0.3597852096352429  0.8099127077622169
  0.7225023746481501  0.3484564683625612  0.7714911043973257
  0.7422199953764265  0.3826187337161822  0.7715213560622944
  0.7027860721920526  0.3826223576222370  0.7715154304169950
  0.7224989531960327  0.3939505303301078  0.8099353061348958
  0.7670065373347016  0.3968355931983935  0.8119810402561314
  0.7225121138443434  0.4226174153924614  0.7694457691371681
  0.7472995911789584  0.4368337210671292  0.8099055001361315
  0.6977051282639269  0.3853695652583199  0.8825914756037555
  0.6334853085997282  0.3711572062739997  0.8421245369787067
  0.6977113791825795  0.4082030893392591  0.8442001239038328
  0.6779937584543042  0.3740408239856381  0.8441698722388641
  0.6582774559982061  0.4082067132453139  0.8441941982585334
  0.6582727859343431  0.3853735119486679  0.8825842679776698
  0.6334830901854708  0.4224199488214704  0.8846598080976698
  0.6779903370021867  0.4195348859531847  0.8826140739764342
  0.6532027629887335  0.4337874449623360  0.9168788917453714
  0.6334851422604577  0.3996251796087150  0.9168486400804026
  0.7472922869535904  0.4082067132453139  0.8441941982585334
  0.7670085894096885  0.3740408239856381  0.8441698722388641
  0.7225001395551129  0.3711572062739997  0.8421245369787067
  0.7224979211408552  0.4224199488214704  0.8846598080976698
  0.6977233534718105  0.4596632984577206  0.7715213560622944
  0.6780034976504974  0.4482017710155383  0.8421245369787067
  0.6582894302874366  0.4596669223637756  0.7715154304169950
  0.6334950644747013  0.4738801579399319  0.8119810402561314
  0.6780023112914172  0.4709950950716462  0.8099353061348958
  0.6532267115671949  0.5367078631992592  0.7715213560622944
  0.6335090908389195  0.5025455978456379  0.7714911043973257
  0.6335056693868016  0.5480396598131846  0.8099353061348958
  0.6335068557458818  0.5252463357570767  0.8421245369787067
  0.6780154719397283  0.4996619801339998  0.7694457691371681
  0.6532204606485423  0.5138743391183200  0.8099127077622169
  0.7670171422468020  0.4709950950716462  0.8099353061348958
  0.7473042612428213  0.4596669223637756  0.7715154304169950
  0.7225098954300860  0.4738801579399319  0.8119810402561314
  0.7225239217943039  0.5025455978456379  0.7714911043973257
  0.7422352916039271  0.5138743391183200  0.8099127077622169
  0.7028029492743433  0.5138782858086678  0.8099055001361315
  0.7225216867012666  0.5252463357570767  0.8421245369787067
  0.7422415425225795  0.5367078631992592  0.7715213560622944
  0.7225205003421864  0.5480396598131846  0.8099353061348958
  0.7028076193382060  0.5367114871053139  0.7715154304169950
  0.6582943330804968  0.5394626414317447  0.8825842679776698
  0.6334971165496887  0.4510853887271765  0.8441698722388641
  0.6780153056004579  0.5281299534687148  0.8441698722388641
  0.6532147372779644  0.4852476540807975  0.8442001239038328
  0.6334936950975711  0.4965794506947233  0.8826140739764342
  0.6532084863593114  0.4624141299998585  0.8825914756037555
  0.6780012792362404  0.4994645135630087  0.8846598080976698
  0.6334948814566513  0.4737861266386152  0.9148033048202451
  0.6780033313112269  0.4766697443502536  0.9168486400804026
  0.6582870288551288  0.5108356336099293  0.9168729661000717
  0.6977209520395027  0.5108320097038743  0.9168788917453714
  0.7422233173146962  0.4624141299998585  0.8825914756037555
  0.7225119475050734  0.4510853887271765  0.8441698722388641
  0.7027909749851120  0.4624180766902061  0.8825842679776698
  0.7027956450489753  0.4852512779868525  0.8441941982585334
  0.7473091640358817  0.5394626414317447  0.8825842679776698
  0.7422295682333487  0.4852476540807975  0.8442001239038328
  0.6977266754100806  0.5394586947413971  0.8825914756037555
  0.7225085260529559  0.4965794506947233  0.8826140739764342
  0.7917962330835739  0.3597891563255906  0.8099055001361315
  0.8312348263318108  0.3826187337161822  0.7715213560622944
  0.7918009031474373  0.3826223576222370  0.7715154304169950
  0.8115269447997282  0.4226174153924614  0.7694457691371681
  0.7670205636989195  0.4255010331040994  0.7714911043973257
  0.7867319335085422  0.4368297743767814  0.8099127077622169
  0.8560353946543042  0.4255010331040994  0.7714911043973257
  0.7670183286058821  0.4482017710155383  0.8421245369787067
  0.7867262101379643  0.4082030893392591  0.8442001239038328
  0.7867381844271952  0.4596632984577206  0.7715213560622944
  0.8115247263854708  0.4738801579399319  0.8119810402561314
  0.7670303028951126  0.4996619801339998  0.7694457691371681
  0.8115387527496887  0.5025455978456379  0.7714911043973257
  0.7918224502935906  0.5367114871053139  0.7715154304169950
  0.7918177802297276  0.5138782858086678  0.8099055001361315
  0.8312501225593114  0.5138743391183200  0.8099127077622169
  0.8312563734779642  0.5367078631992592  0.7715213560622944
  0.8115353312975712  0.5480396598131846  0.8099353061348958
  0.8363190921982061  0.4596669223637756  0.7715154304169950
  0.8560451338504979  0.4996619801339998  0.7694457691371681
  0.7670301365558431  0.5281299534687148  0.8441698722388641
  0.7918104760043596  0.4852512779868525  0.8441941982585334
  0.9202721578116194  0.3603682053798583  0.3738401007129863
  0.9253387260182059  0.3573294998714681  0.4808003590508411
  0.9253580045328046  0.4374167168117449  0.3738328930869007
  0.9253626745966675  0.4602499181083910  0.3354428233677642
  0.9202999558764259  0.5372908589438746  0.3354487490130639
  0.9202937049577733  0.5144573348629353  0.3738401007129863
  0.9253507003074368  0.4087897089899295  0.4081215912093026
  0.9450767419597284  0.4487847667601537  0.4060519299294759
  0.9253460302435739  0.3859565076932831  0.4465116609284391
  0.9450647676704972  0.3973245576416920  0.4787306977710143
  0.9450635813114174  0.4201178816978001  0.4465414669272036
  0.9202879815871952  0.4858306498254130  0.4081275168546022
  0.9450885499096888  0.5287129492133305  0.4080972651896335
  0.9253675773897279  0.5400456371763603  0.4465116609284391
  0.9202817306685426  0.4629971257444738  0.4465188685545248
  0.9450765756204579  0.4772527400948689  0.4807760330311719
  0.9253340559543430  0.3344962985748219  0.5191904287699777
  0.9450646013312272  0.4257925309764073  0.5534548008727104
  0.9202760072979642  0.4343704407069515  0.4808062846961408
  0.9253363245858982  0.4084982111176218  0.6261578947339180
  0.9450625492562399  0.4485873001891628  0.5212659688899777
  0.9202855801548875  0.5369993610715669  0.5534850525376792
  0.9253482988751293  0.4599584202360833  0.5534791268923797
  0.9450731541683407  0.5227468020624155  0.5192202347687421
  0.9253556031004969  0.4885854280578987  0.5191904287699777
  0.9450743405274203  0.4999534780063076  0.5514094656125528
  0.9202793292362349  0.5141658369906276  0.5918764042376018
  0.9253532016681891  0.5397541393040527  0.6645479644530545
  0.1439660255806479  0.5744985090531847  0.2285051634025883
  0.1191784515671950  0.5887510680623361  0.2627699811715254
  0.1439672119397279  0.5517051849970769  0.2606943942463990
  0.1242580473697276  0.6429660554132834  0.3011541252453623
  0.2132679755320522  0.5631703363453141  0.1900852876846872
  0.1884876360835348  0.6060490118271765  0.1900609616650181
  0.2329940171843436  0.6031653941155383  0.1880156264048604
  0.2082052568118103  0.6402112771807976  0.1900912133299869
  0.2527018987164257  0.5631667124392591  0.1900912133299869
  0.1687666635635739  0.6173816997902066  0.2284753574038238
  0.2081990058931575  0.6173777530998583  0.2284825650299094
  0.1884756617943040  0.5545888027087150  0.2627397295065566
  0.2329820428951128  0.5517051849970769  0.2606943942463990
  0.2329808565360328  0.5744985090531847  0.2285051634025883
  0.1687546892743429  0.5659214906717449  0.3011541252453623
  0.1884736097193168  0.5773835719214705  0.2305508975238238
  0.2081932825225797  0.5887510680623361  0.2627699811715254
  0.1687593593382058  0.5887546919683910  0.2627640555262256
  0.1439790198896884  0.6316333674502536  0.2627397295065566
  0.2132728783251120  0.6429660554132834  0.3011541252453623
  0.1884854009904972  0.6287497497386154  0.2606943942463990
  0.2329938508450733  0.6316333674502536  0.2627397295065566
  0.2330058251343038  0.6830935765687147  0.1900609616650181
  0.2132848526143431  0.6944262645317448  0.2284753574038238
  0.2330024036821866  0.7285876385362615  0.2285051634025883
  0.1884842146314174  0.6515430737947232  0.2285051634025883
  0.1687762364204967  0.7200106201548219  0.3011541252453623
  0.1636966406179642  0.6657956328038747  0.2627699811715254
  0.1884972089404580  0.7086779321917920  0.2627397295065566
  0.2082148296687334  0.7428401975454130  0.2627699811715254
  0.2330035900412668  0.7057943144801538  0.2606943942463990
  0.2329917987700861  0.6544281366630089  0.2305508975238238
  0.2132775483889751  0.6657992567099296  0.2627640555262256
  0.0746635844546960  0.5915018996044737  0.3738401007129863
  0.0994574093868018  0.6000828646762616  0.3011839312441267
  0.0994585957458821  0.5772895406201536  0.3333731620879373
  0.1191722006485422  0.5659175439813969  0.3011613328714479
  0.1242507431443598  0.6143390475914680  0.3354428233677642
  0.1242460730804968  0.5915058462948217  0.3738328930869007
  0.0746578610841181  0.5628752145669514  0.4081275168546022
  0.1439648105074206  0.6028738962432308  0.4060519299294759
  0.0994584294066116  0.6057575139548689  0.4080972651896335
  0.1439636241483403  0.6256672202993385  0.3738626990856652
  0.1242387688551290  0.5628788384730065  0.4081215912093026
  0.1439530192362398  0.5515077184260859  0.3759084332069007
  0.0994704036958422  0.6572177230733305  0.3354184973480949
  0.1191880244241180  0.6913799884269515  0.3354487490130639
  0.1191760501348875  0.6399197793084901  0.4081275168546022
  0.0797421269505135  0.6399234032145448  0.4081215912093026
  0.0994681686028051  0.6799184609847690  0.4060519299294759
  0.1191817735054654  0.6685464643460122  0.3738401007129863
  0.0994563773316244  0.6285522831676243  0.3759084332069007
  0.1242603160012827  0.7169679679560834  0.4081215912093026
  0.1439670456004576  0.5801731583317919  0.3354184973480949
  0.1636903896993113  0.6429621087229352  0.3011613328714479
  0.1636846663287334  0.6143354236854129  0.3354487490130639
  0.1439649935254705  0.6029679275445473  0.3032296653653622
  0.1884722403421863  0.6000828646762616  0.3011839312441267
  0.1884734267012666  0.5772895406201536  0.3333731620879373
  0.2081870316039270  0.5659175439813969  0.3011613328714479
  0.2329818765558423  0.5801731583317919  0.3354184973480949
  0.2526994972841181  0.6143354236854129  0.3354487490130639
  0.2132655740997442  0.6143390475914680  0.3354428233677642
  0.2329798244808552  0.6029679275445473  0.3032296653653622
  0.1884732603619964  0.6057575139548689  0.4080972651896335
  0.1636726920395026  0.5628752145669514  0.4081275168546022
  0.1636784154100806  0.5915018996044737  0.3738401007129863
  0.1687569579058982  0.6399234032145448  0.4081215912093026
  0.1884712082870090  0.6285522831676243  0.3759084332069007
  0.2081908810902719  0.6399197793084901  0.4081275168546022
  0.2132535998105135  0.5628788384730065  0.4081215912093026
  0.2132609040358815  0.5915058462948217  0.3738328930869007
  0.2329796414628049  0.6028738962432308  0.4060519299294759
  0.2526875229948873  0.5628752145669514  0.4081275168546022
  0.2329678501916245  0.5515077184260859  0.3759084332069007
  0.2329784551037249  0.6256672202993385  0.3738626990856652
  0.2526932463654655  0.5915018996044737  0.3738401007129863
  0.1439885927466115  0.7342622878148687  0.3354184973480949
  0.1439755984375711  0.6771274294178001  0.3011839312441267
  0.1439767847966513  0.6543341053616921  0.3333731620879373
  0.1884852346512270  0.6572177230733305  0.3354184973480949
  0.1687689321951290  0.6913836123330063  0.3354428233677642
  0.1884831825762401  0.6800124922860860  0.3032296653653622
  0.1884949738474205  0.7313786701032307  0.3333731620879373
  0.2329916157520359  0.6543341053616921  0.3333731620879373
  0.2330034237019964  0.7342622878148687  0.3354184973480949
  0.2082028553795027  0.6913799884269515  0.3354487490130639
  0.2082085787500809  0.7200066734644739  0.3011613328714479
  0.2329904293929559  0.6771274294178001  0.3011839312441267
  0.2527052206546961  0.6429621087229352  0.3011613328714479
  0.1687642621312659  0.6685504110363601  0.3738328930869007
  0.1439766184573810  0.6828020786964074  0.4080972651896335
  0.1439745663823936  0.7055968479091628  0.3759084332069007
  0.1636942391856565  0.7169643440500284  0.4081275168546022
  0.1884818131991096  0.7027117850408771  0.3738626990856652
  0.1884829995581897  0.6799184609847690  0.4060519299294759
  0.2081966044608499  0.6685464643460122  0.3738401007129863
  0.2527090701410411  0.7169643440500284  0.4081275168546022
  0.2329914494127656  0.6828020786964074  0.4080972651896335
  0.2132751469566674  0.7169679679560834  0.4081215912093026
  0.2329893973377786  0.7055968479091628  0.3759084332069007
  0.1884937874883403  0.7541719941593384  0.3011839312441267
  0.2330153979912271  0.7857224969333304  0.2627397295065566
  0.2132944254712660  0.7970551848963604  0.3011541252453623
  0.1637062134748873  0.7684245531684899  0.3354487490130639
  0.2330013716270093  0.7570570570276243  0.3032296653653622
  0.2132871212458981  0.7684281770745449  0.3354428233677642
  0.2330131628981897  0.8084232348447692  0.3333731620879373
  0.2132824511820352  0.7455949757778987  0.3738328930869007
  0.1636999625562345  0.7455910290875507  0.3738401007129863
  0.1884948075081501  0.7598466434379457  0.4080972651896335
  0.1439863576535743  0.7569630257263076  0.4060519299294759
  0.2330011886089590  0.7569630257263076  0.4060519299294759
  0.2330000022498788  0.7797563497824155  0.3738626990856652
  0.1884927554331629  0.7826414126507013  0.3759084332069007
  0.1687785050520521  0.7940125326976218  0.4081215912093026
  0.2082124282364257  0.7940089087915668  0.4081275168546022
  0.2082181516070039  0.8226355938290892  0.3738401007129863
  0.2330129965589194  0.8368912081794843  0.4080972651896335
  0.0549380052628050  0.5514136871247692  0.4787306977710143
  0.0797374568866506  0.6170902019178989  0.4465116609284391
  0.0549368189037250  0.5742070111808770  0.4465414669272036
  0.0797301526612828  0.5884631940960833  0.4808003590508411
  0.0797254825974197  0.5656299927994373  0.5191904287699777
  0.0746611830223886  0.6426706108506277  0.5191976363960632
  0.0549357868485475  0.6026764296722399  0.5212659688899777
  0.0549378389235348  0.5798816604594842  0.5534548008727104
  0.0994561943135742  0.6284582518663075  0.4787306977710143
  0.0994444030423935  0.5770920740491627  0.4485872010484391
  0.1191697992162348  0.6170862552275508  0.4465188685545248
  0.1439516498591096  0.5742070111808770  0.4465414669272036
  0.1439528362181896  0.5514136871247692  0.4787306977710143
  0.0994464551173806  0.5542973048364074  0.4807760330311719
  0.1191640758456566  0.5884595701900285  0.4808062846961408
  0.1439506178039321  0.6026764296722399  0.5212659688899777
  0.1439526698789192  0.5798816604594842  0.5534548008727104
  0.1191578249270040  0.5656260461090892  0.5191976363960632
  0.0994442200243434  0.5769980427478459  0.5514094656125528
  0.0994430336652632  0.5997913668039540  0.5192202347687421
  0.1242556459374200  0.6941347666594372  0.4465116609284391
  0.0994550079544942  0.6512515759224153  0.4465414669272036
  0.0994680022635345  0.7083864343194843  0.4807760330311719
  0.1242483417120521  0.6655077588376217  0.4808003590508411
  0.0746674339410413  0.6655041349315669  0.4808062846961408
  0.1242436716481888  0.6426745575409757  0.5191904287699777
  0.0994560279743039  0.6569262252010226  0.5534548008727104
  0.0994539758993167  0.6797209944137782  0.5212659688899777
  0.1191793720731578  0.7197151755921661  0.5191976363960632
  0.1191856229918104  0.7425486996731054  0.4808062846961408
  0.1884612860727654  0.5542973048364074  0.4807760330311719
  0.1884592339977781  0.5770920740491627  0.4485872010484391
  0.1687522878420352  0.6170902019178989  0.4465116609284391
  0.1439646441681499  0.6313418695779457  0.4807760330311719
  0.1687449836166674  0.5884631940960833  0.4808003590508411
  0.1884578646206480  0.5997913668039540  0.5192202347687421
  0.1687403135528044  0.5656299927994373  0.5191904287699777
  0.1636760139777728  0.6426706108506277  0.5191976363960632
  0.1884590509797282  0.5769980427478459  0.5514094656125528
  0.1439624090751127  0.6540426074893844  0.5514094656125528
  0.1884710252689589  0.6284582518663075  0.4787306977710143
  0.1884698389098788  0.6512515759224153  0.4465414669272036
  0.2329676671735743  0.5514136871247692  0.4787306977710143
  0.2329664808144943  0.5742070111808770  0.4465414669272036
  0.2081846301716192  0.6170862552275508  0.4465188685545248
  0.2329794751235343  0.6313418695779457  0.4807760330311719
  0.2081789068010412  0.5884595701900285  0.4808062846961408
  0.2081726558823887  0.5656260461090892  0.5191976363960632
  0.2526908449331577  0.6426706108506277  0.5191976363960632
  0.2132585026035737  0.6426745575409757  0.5191904287699777
  0.2329772400304974  0.6540426074893844  0.5514094656125528
  0.2329675008343039  0.5798816604594842  0.5534548008727104
  0.2329654487593167  0.6026764296722399  0.5212659688899777
  0.1439743833643436  0.7055028166078462  0.4787306977710143
  0.1636879882670039  0.6941308199690892  0.4465188685545248
  0.1439731970052635  0.7282961406639538  0.4465414669272036
  0.1439625920931628  0.6541366387907013  0.4485872010484391
  0.1636822648964260  0.6655041349315669  0.4808062846961408
  0.1687665307628213  0.7425523235791601  0.4808003590508411
  0.1687618606989583  0.7197191222825141  0.5191904287699777
  0.1439612227160325  0.6768359315454924  0.5192202347687421
  0.1884688068547014  0.6797209944137782  0.5212659688899777
  0.1439742170250731  0.7339707899425610  0.5534548008727104
  0.1884708589296885  0.6569262252010226  0.5534548008727104
  0.2329880279606480  0.7282961406639538  0.4465414669272036
  0.2527028192223884  0.6941308199690892  0.4465188685545248
  0.2132704768928044  0.6941347666594372  0.4465116609284391
  0.1884807811439320  0.7311812035322397  0.4485872010484391
  0.2329774230485474  0.6541366387907013  0.4485872010484391
  0.2329892143197282  0.7055028166078462  0.4787306977710143
  0.1884828332189190  0.7083864343194843  0.4807760330311719
  0.2132631726674367  0.6655077588376217  0.4808003590508411
  0.2081942030285424  0.7197151755921661  0.5191976363960632
  0.2082004539471950  0.7425486996731054  0.4808062846961408
  0.2526970958518104  0.6655041349315669  0.4808062846961408
  0.2329760536714172  0.6768359315454924  0.5192202347687421
  0.1884805981258820  0.7310871722309228  0.5514094656125528
  0.2329890479804576  0.7339707899425610  0.5534548008727104
  0.0746554596518104  0.6140439258131054  0.5534850525376792
  0.0994420016100861  0.6282607852953167  0.5939447367315162
  0.0994440536850732  0.6054660160825612  0.6261335687142489
  0.1242316973589583  0.5912143484225141  0.5918691966115160
  0.1242363674228213  0.6140475497191602  0.5534791268923797
  0.1439386435147013  0.5512162205537783  0.5939447367315162
  0.0994300273208552  0.5768005761768551  0.6666235045730544
  0.1191554234946963  0.6167947573552431  0.6645551720791402
  0.1439384604966512  0.5511221892524614  0.6967670012956295
  0.1439372741375712  0.5739155133085693  0.6645777704518190
  0.1242243931335906  0.5625873406006987  0.6261578947339180
  0.0797277512289752  0.6396319053422371  0.6261578947339180
  0.1242459402797444  0.7166764700837756  0.6261578947339180
  0.1191736487025796  0.6910884905546437  0.5534850525376792
  0.0994526065221863  0.7024202871685693  0.5918990026102805
  0.1191673977839270  0.6682549664737046  0.5918764042376018
  0.0994537928812665  0.6796269631124614  0.6240882334540911
  0.0994406322329556  0.6509600780501079  0.6645777704518190
  0.1439482163716245  0.6538451409183936  0.6666235045730544
  0.1242412702158815  0.6938432687871297  0.6645479644530545
  0.1191616744133488  0.6396282814361822  0.6261638203792175
  0.1636640396885424  0.5912104017321661  0.5918764042376018
  0.1439504347858819  0.6025823983709230  0.6240882334540911
  0.1439492484268018  0.6253757224270308  0.5918990026102805
  0.1636702906071948  0.6140439258131054  0.5534850525376792
  0.1884568325654707  0.6282607852953167  0.5939447367315162
  0.2132465283143428  0.5912143484225141  0.5918691966115160
  0.2132511983782060  0.6140475497191602  0.5534791268923797
  0.2329534744700861  0.5512162205537783  0.5939447367315162
  0.2329640793821866  0.6253757224270308  0.5918990026102805
  0.2329652657412667  0.6025823983709230  0.6240882334540911
  0.2526788706439272  0.5912104017321661  0.5918764042376018
  0.2526851215625795  0.6140439258131054  0.5534850525376792
  0.2329532914520358  0.5511221892524614  0.6967670012956295
  0.2132392240889752  0.5625873406006987  0.6261578947339180
  0.1636583163179641  0.5625837166946439  0.6261638203792175
  0.2526731472733488  0.5625837166946439  0.6261638203792175
  0.1884448582762397  0.5768005761768551  0.6666235045730544
  0.2329521050929558  0.5739155133085693  0.6645777704518190
  0.2081702544500810  0.6167947573552431  0.6645551720791402
  0.1687379121204967  0.6167987040455912  0.6645479644530545
  0.1687425821843599  0.6396319053422371  0.6261578947339180
  0.1884566495474204  0.6281667539939999  0.6967670012956295
  0.2081765053687333  0.6396282814361822  0.6261638203792175
  0.1884588846404578  0.6054660160825612  0.6261335687142489
  0.1884674374775711  0.7024202871685693  0.5918990026102805
  0.1687545564735907  0.6910921144606987  0.5534791268923797
  0.1439622427358423  0.6825105808240995  0.6261335687142489
  0.1687498864097277  0.6682589131640525  0.5918691966115160
  0.1439601906608553  0.7053053500368551  0.5939447367315162
  0.1884686238366512  0.6796269631124614  0.6240882334540911
  0.2081884796579641  0.6910884905546437  0.5534850525376792
  0.2132607712351291  0.7166764700837756  0.6261578947339180
  0.2081822287393114  0.6682549664737046  0.5918764042376018
  0.2329770736912270  0.6825105808240995  0.6261335687142489
  0.2329750216162399  0.7053053500368551  0.5939447367315162
  0.1884554631883402  0.6509600780501079  0.6645777704518190
  0.1636798634641181  0.7166728461777208  0.6261638203792175
  0.1439588212837249  0.7280046427916463  0.6645777704518190
  0.1636736125454656  0.6938393220967816  0.6645551720791402
  0.1439600076428048  0.7052113187355383  0.6967670012956295
  0.1884664054223937  0.7308897056599321  0.6666235045730544
  0.2132561011712661  0.6938432687871297  0.6645479644530545
  0.2329630473270090  0.6538451409183936  0.6666235045730544
  0.2329736522391095  0.7280046427916463  0.6645777704518190
  0.2526884435008500  0.6938393220967816  0.6645551720791402
  0.2329748385981896  0.7052113187355383  0.6967670012956295
  0.2526946944195028  0.7166728461777208  0.6261638203792175
  0.2329989701947013  0.8082257682737782  0.4485872010484391
  0.2132847198135906  0.8195968883206989  0.4808003590508411
  0.1884925724151128  0.7825473813493846  0.4787306977710143
  0.1439861913143038  0.7854309990610229  0.4807760330311719
  0.1884913860560327  0.8053407054054924  0.4465414669272036
  0.2330010222696885  0.7854309990610229  0.4807760330311719
  0.2082061773177730  0.7711753847106277  0.4465188685545248
  0.1687738349881891  0.7711793314009757  0.4465116609284391
  0.2132800497497275  0.7967636870240525  0.5191904287699777
  0.1884794117668018  0.7538804962870308  0.5192202347687421
  0.2132727455243598  0.7681366792022370  0.5534791268923797
  0.2329869959054706  0.7567655591553167  0.5212659688899777
  0.1439721649500859  0.7567655591553167  0.5212659688899777
  0.1636975611239271  0.7967597403337046  0.5191976363960632
  0.2329987871766512  0.8081317369724614  0.5514094656125528
  0.1884924060758424  0.8110153546840995  0.5534548008727104
  0.2329976008175709  0.8309250610285692  0.5192202347687421
  0.1884903540008549  0.8338101238968552  0.5212659688899777
  0.2132920240389583  0.8482238961425141  0.4465116609284391
  0.2330107614658819  0.8595919460909228  0.4787306977710143
  0.1242532445051121  0.7453034779055909  0.5918691966115160
  0.2527004177900809  0.7452995312152431  0.5918764042376018
  0.1636855868346963  0.7452995312152431  0.5918764042376018
  0.2132680754604966  0.7453034779055909  0.5918691966115160
  0.2527066687087333  0.7681330552961821  0.5534850525376792
  0.1636918377533487  0.7681330552961821  0.5534850525376792
  0.2329856265283404  0.7794648519101076  0.5918990026102805
  0.1884783797116245  0.7823499147783934  0.5939447367315162
  0.2082037758854656  0.8223440959567816  0.5918764042376018
  0.2082100268041180  0.8451776200377206  0.5534850525376792
  0.1687594592666508  0.7708878335286680  0.6645479644530545
  0.1687641293305135  0.7937210348253141  0.6261578947339180
  0.1439719819320358  0.7566715278539998  0.6240882334540911
  0.1884804317866118  0.7595551455656381  0.6261335687142489
  0.2081980525148873  0.7937174109192592  0.6261638203792175
  0.2081918015962348  0.7708838868383200  0.6645551720791402
  0.2329845944731631  0.8079342704014707  0.6666235045730544
  0.2329868128874205  0.7566715278539998  0.6240882334540911
  0.2329986208373810  0.8365997103071763  0.6261335687142489
  0.2329965687623939  0.8593944795199321  0.5939447367315162
  0.2527099906470040  0.8479284515798585  0.6645551720791402
  0.2972081134779643  0.5887510680623361  0.2627699811715254
  0.2577741902935906  0.5887546919683910  0.2627640555262256
  0.2774904927496887  0.5545888027087150  0.2627397295065566
  0.2577861645828213  0.6402149010868525  0.1900852876846872
  0.2775002319458820  0.6287497497386154  0.2606943942463990
  0.2577814945189584  0.6173816997902066  0.2284753574038238
  0.2774884406747012  0.5773835719214705  0.2305508975238238
  0.2775024670389196  0.6060490118271765  0.1900609616650181
  0.2972138368485423  0.6173777530998583  0.2284825650299094
  0.2972200877671950  0.6402112771807976  0.1900912133299869
  0.3467963254743433  0.6173816997902066  0.2284753574038238
  0.3219956874914174  0.5744985090531847  0.2285051634025883
  0.3417167296718102  0.5631667124392591  0.1900912133299869
  0.3467890212489750  0.5887546919683910  0.2627640555262256
  0.3219968738504971  0.5517051849970769  0.2606943942463990
  0.3022828064874369  0.5631703363453141  0.1900852876846872
  0.3468009955382061  0.6402149010868525  0.1900852876846872
  0.3220086818004579  0.6316333674502536  0.2627397295065566
  0.2527171949439271  0.6944223178413970  0.2284825650299094
  0.3417320258993116  0.6944223178413970  0.2284825650299094
  0.3220206560896887  0.6830935765687147  0.1900609616650181
  0.2775122062351129  0.6802099588570767  0.1880156264048604
  0.3022996835697275  0.6944262645317448  0.2284753574038238
  0.3023043536335906  0.7172594658283910  0.1900852876846872
  0.2527234458625796  0.7172558419223359  0.1900912133299869
  0.2774990455868021  0.6515430737947232  0.2285051634025883
  0.3220172346375713  0.7285876385362615  0.2285051634025883
  0.3022923793443599  0.6657992567099296  0.2627640555262256
  0.3220066297254705  0.6544281366630089  0.2305508975238238
  0.3417263025287335  0.6657956328038747  0.2627699811715254
  0.2527114715733488  0.6657956328038747  0.2627699811715254
  0.3220184209966513  0.7057943144801538  0.2606943942463990
  0.2775120398958427  0.7086779321917920  0.2627397295065566
  0.2775099878208553  0.7314727014045475  0.2305508975238238
  0.2972296606241180  0.7428401975454130  0.2627699811715254
  0.2577957374397444  0.7428438214514680  0.2627640555262256
  0.3468105683951291  0.7428438214514680  0.2627640555262256
  0.3912976374428212  0.5631703363453141  0.1900852876846872
  0.4358158264935906  0.6402149010868525  0.1900852876846872
  0.4555321289496887  0.6060490118271765  0.1900609616650181
  0.4110236790951128  0.6031653941155383  0.1880156264048604
  0.3862349187225798  0.6402112771807976  0.1900912133299869
  0.4307315606271946  0.5631667124392591  0.1900912133299869
  0.3862286678039267  0.6173777530998583  0.2284825650299094
  0.4110105184468018  0.5744985090531847  0.2285051634025883
  0.3665032716300861  0.5773835719214705  0.2305508975238238
  0.3665053237050732  0.5545888027087150  0.2627397295065566
  0.3665150629012667  0.6287497497386154  0.2606943942463990
  0.3862229444333489  0.5887510680623361  0.2627699811715254
  0.4110117048058819  0.5517051849970769  0.2606943942463990
  0.4358038522043597  0.5887546919683910  0.2627640555262256
  0.4752377753887339  0.5887510680623361  0.2627699811715254
  0.4555298938566512  0.6287497497386154  0.2606943942463990
  0.4555201546604580  0.5545888027087150  0.2627397295065566
  0.4555181025854707  0.5773835719214705  0.2305508975238238
  0.3913145145251123  0.6944262645317448  0.2284753574038238
  0.3913191845889753  0.7172594658283910  0.1900852876846872
  0.4555418681458819  0.6802099588570767  0.1880156264048604
  0.4307531077733490  0.7172558419223359  0.1900912133299869
  0.4110354870450734  0.6830935765687147  0.1900609616650181
  0.3665138765421867  0.6515430737947232  0.2285051634025883
  0.4307468568546961  0.6944223178413970  0.2284825650299094
  0.4110320655929558  0.7285876385362615  0.2285051634025883
  0.3913072102997444  0.6657992567099296  0.2627640555262256
  0.4110332519520358  0.7057943144801538  0.2606943942463990
  0.4555417018066119  0.7086779321917920  0.2627397295065566
  0.3665268708512273  0.7086779321917920  0.2627397295065566
  0.3862444915795027  0.7428401975454130  0.2627699811715254
  0.4358253993505136  0.7428438214514680  0.2627640555262256
  0.3665248187762397  0.7314727014045475  0.2305508975238238
  0.4555396497316246  0.7314727014045475  0.2305508975238238
  0.2972018625593116  0.5659175439813969  0.3011613328714479
  0.2774882576566513  0.5772895406201536  0.3333731620879373
  0.2774870712975712  0.6000828646762616  0.3011839312441267
  0.2577695202297274  0.5659214906717449  0.3011541252453623
  0.3022757349912663  0.5915058462948217  0.3738328930869007
  0.3022804050551290  0.6143390475914680  0.3354428233677642
  0.3467843511851124  0.5659214906717449  0.3011541252453623
  0.3219946554362397  0.6029679275445473  0.3032296653653622
  0.3417143282395025  0.6143354236854129  0.3354487490130639
  0.3219967075112270  0.5801731583317919  0.3354184973480949
  0.2972057120456567  0.6399197793084901  0.4081275168546022
  0.2774880913173809  0.6057575139548689  0.4080972651896335
  0.2774860392423937  0.6285522831676243  0.3759084332069007
  0.3219826811470090  0.5515077184260859  0.3759084332069007
  0.3022684307658983  0.5628788384730065  0.4081215912093026
  0.3219932860591098  0.6256672202993385  0.3738626990856652
  0.3219944724181897  0.6028738962432308  0.4060519299294759
  0.3417023539502717  0.5628752145669514  0.4081275168546022
  0.3417080773208500  0.5915018996044737  0.3738401007129863
  0.3467866198166672  0.6399234032145448  0.4081215912093026
  0.3665008701977782  0.6285522831676243  0.3759084332069007
  0.2775000656066116  0.6572177230733305  0.3354184973480949
  0.3417200516100807  0.6429621087229352  0.3011613328714479
  0.3022877092804969  0.6429660554132834  0.3011541252453623
  0.3220064467074205  0.6543341053616921  0.3333731620879373
  0.3220052603483404  0.6771274294178001  0.3011839312441267
  0.2774980135316245  0.6800124922860860  0.3032296653653622
  0.2577837631505137  0.6913836123330063  0.3354428233677642
  0.3220182546573808  0.7342622878148687  0.3354184973480949
  0.2577910673758816  0.7200106201548219  0.3011541252453623
  0.2972234097054655  0.7200066734644739  0.3011613328714479
  0.3468058983312660  0.7200106201548219  0.3011541252453623
  0.2775098048028051  0.7313786701032307  0.3333731620879373
  0.3467985941058982  0.6913836123330063  0.3354428233677642
  0.3220042282931630  0.7055968479091628  0.3759084332069007
  0.3467939240420355  0.6685504110363601  0.3738328930869007
  0.2774966441544943  0.7027117850408771  0.3738626990856652
  0.2577790930866508  0.6685504110363601  0.3738328930869007
  0.2972114354162346  0.6685464643460122  0.3738401007129863
  0.2972176863348874  0.6913799884269515  0.3354487490130639
  0.3417239010964258  0.7169643440500284  0.4081275168546022
  0.3220062803681503  0.6828020786964074  0.4080972651896335
  0.3022899779120520  0.7169679679560834  0.4081215912093026
  0.2774978305135742  0.6799184609847690  0.4060519299294759
  0.2577717888612827  0.6399234032145448  0.4081215912093026
  0.3665019022529559  0.6000828646762616  0.3011839312441267
  0.3862166935146963  0.5659175439813969  0.3011613328714479
  0.3912952360105136  0.6143390475914680  0.3354428233677642
  0.3665030886120361  0.5772895406201536  0.3333731620879373
  0.4110115384666115  0.5801731583317919  0.3354184973480949
  0.4110094863916244  0.6029679275445473  0.3032296653653622
  0.4307291591948872  0.6143354236854129  0.3354487490130639
  0.4307348825654654  0.6429621087229352  0.3011613328714479
  0.4555179195674205  0.5772895406201536  0.3333731620879373
  0.4752315244700808  0.5659175439813969  0.3011613328714479
  0.4357991821404968  0.5659214906717449  0.3011541252453623
  0.4555167332083401  0.6000828646762616  0.3011839312441267
  0.3862205430010412  0.6399197793084901  0.4081275168546022
  0.3665029222727656  0.6057575139548689  0.4080972651896335
  0.3912905659466506  0.5915058462948217  0.3738328930869007
  0.3912832617212827  0.5628788384730065  0.4081215912093026
  0.4109975121023939  0.5515077184260859  0.3759084332069007
  0.4110081170144944  0.6256672202993385  0.3738626990856652
  0.4110093033735744  0.6028738962432308  0.4060519299294759
  0.4307171849056566  0.5628752145669514  0.4081275168546022
  0.4307229082762347  0.5915018996044737  0.3738401007129863
  0.4555157011531630  0.6285522831676243  0.3759084332069007
  0.4358014507720518  0.6399234032145448  0.4081215912093026
  0.4752353739564259  0.6399197793084901  0.4081275168546022
  0.4555177532281503  0.6057575139548689  0.4080972651896335
  0.4110200913037251  0.6771274294178001  0.3011839312441267
  0.3913025402358815  0.6429660554132834  0.3011541252453623
  0.4555297275173810  0.6572177230733305  0.3354184973480949
  0.3665148965619960  0.6572177230733305  0.3354184973480949
  0.4110212776628053  0.6543341053616921  0.3333731620879373
  0.3665128444870089  0.6800124922860860  0.3032296653653622
  0.4555276754423936  0.6800124922860860  0.3032296653653622
  0.3862325172902718  0.6913799884269515  0.3354487490130639
  0.4358134250612827  0.6913836123330063  0.3354428233677642
  0.4555394667135742  0.7313786701032307  0.3333731620879373
  0.3665246357581898  0.7313786701032307  0.3333731620879373
  0.4110330856127656  0.7342622878148687  0.3354184973480949
  0.3862382406608497  0.7200066734644739  0.3011613328714479
  0.4358207292866506  0.7200106201548219  0.3011541252453623
  0.3665126614689589  0.6799184609847690  0.4060519299294759
  0.3665114751098790  0.7027117850408771  0.3738626990856652
  0.3913048088674365  0.7169679679560834  0.4081215912093026
  0.3862262663716191  0.6685464643460122  0.3738401007129863
  0.4110190592485474  0.7055968479091628  0.3759084332069007
  0.4110211113235349  0.6828020786964074  0.4080972651896335
  0.4307387320518102  0.7169643440500284  0.4081275168546022
  0.4555263060652635  0.7027117850408771  0.3738626990856652
  0.4358087549974201  0.6685504110363601  0.3738328930869007
  0.4555274924243439  0.6799184609847690  0.4060519299294759
  0.3468225426843601  0.7943040305699295  0.1900852876846872
  0.3220303952858819  0.7572545235986151  0.1880156264048604
  0.3220281768716245  0.8085172661460858  0.2305508975238238
  0.2972353839946963  0.7714668825829353  0.2284825650299094
  0.2578030416651124  0.7714708292732834  0.2284753574038238
  0.3468178726204972  0.7714708292732834  0.2284753574038238
  0.2775217790920359  0.7828388792216920  0.2606943942463990
  0.3220302289466117  0.7857224969333304  0.2627397295065566
  0.3023092564266509  0.7970551848963604  0.3011541252453623
  0.3023139264905136  0.8198883861930064  0.2627640555262256
  0.3417478496748873  0.8198847622869515  0.2627699811715254
  0.3417415987562345  0.7970512382060123  0.3011613328714479
  0.3220268074944944  0.8312165589008769  0.3011839312441267
  0.2775086184437251  0.7541719941593384  0.3011839312441267
  0.2527267678008501  0.7970512382060123  0.3011613328714479
  0.3468274454774199  0.8740997496378987  0.3011541252453623
  0.3862502149500809  0.7714668825829353  0.2284825650299094
  0.4110452262412665  0.7572545235986151  0.1880156264048604
  0.3665388451404578  0.7601381413102535  0.1900609616650181
  0.4358373736397447  0.7943040305699295  0.1900852876846872
  0.4555536760958426  0.7601381413102535  0.1900609616650181
  0.4358327035758814  0.7714708292732834  0.2284753574038238
  0.3862564658687334  0.7943004066638745  0.1900912133299869
  0.3665354236883406  0.8056322032778002  0.2285051634025883
  0.4110430078270089  0.8085172661460858  0.2305508975238238
  0.4555382803544942  0.7541719941593384  0.3011839312441267
  0.3665366100474204  0.7828388792216920  0.2606943942463990
  0.3913287574458983  0.8198883861930064  0.2627640555262256
  0.4307564297116193  0.7970512382060123  0.3011613328714479
  0.3665234493991097  0.7541719941593384  0.3011839312441267
  0.4110416384498789  0.8312165589008769  0.3011839312441267
  0.3913240873820353  0.7970551848963604  0.3011541252453623
  0.4555634152920363  0.8342990883401536  0.1880156264048604
  0.4307684040008501  0.8485114473244738  0.2284825650299094
  0.3913360616712663  0.8485153940148217  0.2284753574038238
  0.3665484179973810  0.8627670616748688  0.2627397295065566
  0.3862597878070038  0.8740958029475506  0.3011613328714479
  0.4110547990981898  0.8598834439632306  0.2606943942463990
  0.4358422764328045  0.8740997496378987  0.3011541252453623
  0.4555598275006481  0.9082611236424154  0.3011839312441267
  0.4555632489527656  0.8627670616748688  0.2627397295065566
  0.2775195606777782  0.8341016217691627  0.3032296653653622
  0.3220162025823937  0.7570570570276243  0.3032296653653622
  0.2527210444302719  0.7684245531684899  0.3354487490130639
  0.3220279938535743  0.8084232348447692  0.3333731620879373
  0.2775216127527655  0.8113068525564072  0.3354184973480949
  0.3023019522012828  0.7684281770745449  0.3354428233677642
  0.3417358753856566  0.7684245531684899  0.3354487490130639
  0.2775075863885478  0.7826414126507013  0.3759084332069007
  0.2578006402328045  0.8226395405194372  0.3738328930869007
  0.2577933360074368  0.7940125326976218  0.4081215912093026
  0.2527147935116191  0.7455910290875507  0.3738401007129863
  0.2775096384635348  0.7598466434379457  0.4080972651896335
  0.2972272591918103  0.7940089087915668  0.4081275168546022
  0.2775193776597282  0.8340075904678460  0.4060519299294759
  0.2972329825623886  0.8226355938290892  0.3738401007129863
  0.3468154711881895  0.8226395405194372  0.3738328930869007
  0.3220148332052635  0.7797563497824155  0.3738626990856652
  0.3417296244670037  0.7455910290875507  0.3738401007129863
  0.3468081669628212  0.7940125326976218  0.4081215912093026
  0.3022972821374197  0.7455949757778987  0.3738328930869007
  0.3220160195643436  0.7569630257263076  0.4060519299294759
  0.2578053102966675  0.8454727418160832  0.3354428233677642
  0.2972392334810411  0.8454691179100284  0.3354487490130639
  0.3220398018035348  0.8883514172979458  0.3354184973480949
  0.3417511716131579  0.8996801585706277  0.3738401007129863
  0.3468201412520520  0.8454727418160832  0.3354428233677642
  0.2775181913006481  0.8568009145239539  0.3738626990856652
  0.3220278275143040  0.8368912081794843  0.4080972651896335
  0.2527306172871951  0.8710534735331054  0.4081275168546022
  0.3417454482425796  0.8710534735331054  0.4081275168546022
  0.3220257754393169  0.8596859773922397  0.3759084332069007
  0.3023115250582060  0.8710570974391603  0.4081215912093026
  0.3220375667104975  0.9110521552093844  0.4060519299294759
  0.3665364437081500  0.8113068525564072  0.3354184973480949
  0.3665343916331629  0.8341016217691627  0.3032296653653622
  0.4110310335377783  0.7570570570276243  0.3032296653653622
  0.4555512746635344  0.8113068525564072  0.3354184973480949
  0.4110428248089590  0.8084232348447692  0.3333731620879373
  0.4307507063410409  0.7684245531684899  0.3354487490130639
  0.3913167831566676  0.7684281770745449  0.3354428233677642
  0.3913121130928047  0.7455949757778987  0.3738328930869007
  0.3665244694189194  0.7598466434379457  0.4080972651896335
  0.3862478135177731  0.8226355938290892  0.3738401007129863
  0.3862420901471950  0.7940089087915668  0.4081275168546022
  0.3665224173439322  0.7826414126507013  0.3759084332069007
  0.3665342086151125  0.8340075904678460  0.4060519299294759
  0.4110296641606480  0.7797563497824155  0.3738626990856652
  0.4110308505197283  0.7569630257263076  0.4060519299294759
  0.4358229979182059  0.7940125326976218  0.4081215912093026
  0.4307444554223884  0.7455910290875507  0.3738401007129863
  0.4358303021435741  0.8226395405194372  0.3738328930869007
  0.4555490395704974  0.8340075904678460  0.4060519299294759
  0.4555372482993166  0.7826414126507013  0.3759084332069007
  0.4555393003743044  0.7598466434379457  0.4080972651896335
  0.3862540644364259  0.8454691179100284  0.3354487490130639
  0.4555492225885474  0.8341016217691627  0.3032296653653622
  0.4307660025685424  0.8996801585706277  0.3738401007129863
  0.4358349722074368  0.8454727418160832  0.3354428233677642
  0.4555610138597283  0.8854677995863076  0.3333731620879373
  0.3665461829043436  0.8854677995863076  0.3333731620879373
  0.3913336602389587  0.8996841052609755  0.3738328930869007
  0.4307722534871950  0.9225136826515667  0.3354487490130639
  0.4110546327589194  0.8883514172979458  0.3354184973480949
  0.3913263560135904  0.8710570974391603  0.4081215912093026
  0.3665330222560328  0.8568009145239539  0.3738626990856652
  0.4555478532114174  0.8568009145239539  0.3738626990856652
  0.4110406063947015  0.8596859773922397  0.3759084332069007
  0.4307602791979643  0.8710534735331054  0.4081275168546022
  0.4110426584696886  0.8368912081794843  0.4080972651896335
  0.4110523976658820  0.9110521552093844  0.4060519299294759
  0.3665460165650733  0.9139357729210227  0.4080972651896335
  0.4110512113068016  0.9338454792654924  0.3738626990856652
  0.4555587954454705  0.9367305421337782  0.3759084332069007
  0.4752434987593115  0.6173777530998583  0.2284825650299094
  0.5445469599050735  0.6060490118271765  0.1900609616650181
  0.5248306574489756  0.6402149010868525  0.1900852876846872
  0.5197463915825796  0.5631667124392591  0.1900912133299869
  0.5642645806333491  0.6402112771807976  0.1900912133299869
  0.5693272993535905  0.5631703363453141  0.1900852876846872
  0.4752497496779643  0.6402112771807976  0.1900912133299869
  0.4803124683982060  0.5631703363453141  0.1900852876846872
  0.5000385100504975  0.6031653941155383  0.1880156264048604
  0.5248259873851123  0.6173816997902066  0.2284753574038238
  0.5642583297146962  0.6173777530998583  0.2284825650299094
  0.5248140130958816  0.5659214906717449  0.3011541252453623
  0.5000253494021863  0.5744985090531847  0.2285051634025883
  0.5000265357612665  0.5517051849970769  0.2606943942463990
  0.5000383437112272  0.6316333674502536  0.2627397295065566
  0.5248186831597444  0.5887546919683910  0.2627640555262256
  0.5642526063441180  0.5887510680623361  0.2627699811715254
  0.5445447248120358  0.6287497497386154  0.2606943942463990
  0.5445329335408553  0.5773835719214705  0.2305508975238238
  0.5445349856158428  0.5545888027087150  0.2627397295065566
  0.5890401803575711  0.5744985090531847  0.2285051634025883
  0.5000503180004580  0.6830935765687147  0.1900609616650181
  0.5000468965483400  0.7285876385362615  0.2285051634025883
  0.5693488464997446  0.7172594658283910  0.1900852876846872
  0.4803340155443596  0.7172594658283910  0.1900852876846872
  0.5197679387287333  0.7172558419223359  0.1900912133299869
  0.4803293454804969  0.6944262645317448  0.2284753574038238
  0.5445435384529558  0.6515430737947232  0.2285051634025883
  0.5197616878100807  0.6944223178413970  0.2284825650299094
  0.5445566991012667  0.6802099588570767  0.1880156264048604
  0.5693441764358813  0.6944262645317448  0.2284753574038238
  0.5000362916362400  0.6544281366630089  0.2305508975238238
  0.4803173711912660  0.6429660554132834  0.3011541252453623
  0.5693322021466510  0.6429660554132834  0.3011541252453623
  0.5197559644395028  0.6657956328038747  0.2627699811715254
  0.5693368722105137  0.6657992567099296  0.2627640555262256
  0.4803220412551289  0.6657992567099296  0.2627640555262256
  0.5000480829074204  0.7057943144801538  0.2606943942463990
  0.5445565327619964  0.7086779321917920  0.2627397295065566
  0.5248355602420357  0.7200106201548219  0.3011541252453623
  0.4752593225348873  0.7428401975454130  0.2627699811715254
  0.5642741534902721  0.7428401975454130  0.2627699811715254
  0.5445544806870094  0.7314727014045475  0.2305508975238238
  0.6138454884043597  0.6402149010868525  0.1900852876846872
  0.6780681719612666  0.6031653941155383  0.1880156264048604
  0.5890533410058820  0.6031653941155383  0.1880156264048604
  0.6335617908604578  0.6060490118271765  0.1900609616650181
  0.6087612225379639  0.5631667124392591  0.1900912133299869
  0.6583421303089753  0.5631703363453141  0.1900852876846872
  0.6532794115887336  0.6402112771807976  0.1900912133299869
  0.6138408183404969  0.6173816997902066  0.2284753574038238
  0.6780550113129559  0.5744985090531847  0.2285051634025883
  0.6532731606700809  0.6173777530998583  0.2284825650299094
  0.5890413667166513  0.5517051849970769  0.2606943942463990
  0.6780561976720356  0.5517051849970769  0.2606943942463990
  0.6335498165712271  0.5545888027087150  0.2627397295065566
  0.6138288440512666  0.5659214906717449  0.3011541252453623
  0.6335477644962398  0.5773835719214705  0.2305508975238238
  0.6532674372995028  0.5887510680623361  0.2627699811715254
  0.6138335141151290  0.5887546919683910  0.2627640555262256
  0.6335595557674207  0.6287497497386154  0.2606943942463990
  0.6780680056219963  0.6316333674502536  0.2627397295065566
  0.5890531746666116  0.6316333674502536  0.2627397295065566
  0.6583470331020354  0.6429660554132834  0.3011541252453623
  0.6335583694083405  0.6515430737947232  0.2285051634025883
  0.5890617275037250  0.7285876385362615  0.2285051634025883
  0.6583636774551289  0.7172594658283910  0.1900852876846872
  0.6087827696841183  0.7172558419223359  0.1900912133299869
  0.6780765584591096  0.7285876385362615  0.2285051634025883
  0.6583590073912661  0.6944262645317448  0.2284753574038238
  0.6780799799112270  0.6830935765687147  0.1900609616650181
  0.6087765187654655  0.6944223178413970  0.2284825650299094
  0.6335715300566512  0.6802099588570767  0.1880156264048604
  0.5890651489558425  0.6830935765687147  0.1900609616650181
  0.6138503911974202  0.7200106201548219  0.3011541252453623
  0.5890511225916245  0.6544281366630089  0.2305508975238238
  0.6087707953948872  0.6657956328038747  0.2627699811715254
  0.5890629138628050  0.7057943144801538  0.2606943942463990
  0.6335693116423937  0.7314727014045475  0.2305508975238238
  0.6532889844456564  0.7428401975454130  0.2627699811715254
  0.6583517031658982  0.6657992567099296  0.2627640555262256
  0.6335713637173812  0.7086779321917920  0.2627397295065566
  0.6780659535470095  0.6544281366630089  0.2305508975238238
  0.6780777448181893  0.7057943144801538  0.2606943942463990
  0.4803100669658982  0.6143390475914680  0.3354428233677642
  0.4803053969020353  0.5915058462948217  0.3738328930869007
  0.5000263694219961  0.5801731583317919  0.3354184973480949
  0.5000243173470090  0.6029679275445473  0.3032296653653622
  0.5197377392316194  0.5915018996044737  0.3738401007129863
  0.5197439901502720  0.6143354236854129  0.3354487490130639
  0.5693202278574199  0.5915058462948217  0.3738328930869007
  0.5445327505228050  0.5772895406201536  0.3333731620879373
  0.5445315641637251  0.6000828646762616  0.3011839312441267
  0.5642463554254656  0.5659175439813969  0.3011613328714479
  0.5693248979212827  0.6143390475914680  0.3354428233677642
  0.5000229479698787  0.6256672202993385  0.3738626990856652
  0.4802980926766675  0.5628788384730065  0.4081215912093026
  0.5000123430577785  0.5515077184260859  0.3759084332069007
  0.5197320158610410  0.5628752145669514  0.4081275168546022
  0.5000241343289590  0.6028738962432308  0.4060519299294759
  0.5445305321085477  0.6285522831676243  0.3759084332069007
  0.5445325841835348  0.6057575139548689  0.4080972651896335
  0.5642502049118107  0.6399197793084901  0.4081275168546022
  0.5693129236320521  0.5628788384730065  0.4081215912093026
  0.5890271740131631  0.5515077184260859  0.3759084332069007
  0.5197497135208503  0.6429621087229352  0.3011613328714479
  0.4752530716162347  0.7200066734644739  0.3011613328714479
  0.4752473482456568  0.6913799884269515  0.3354487490130639
  0.5000361086181897  0.6543341053616921  0.3333731620879373
  0.5000349222591094  0.6771274294178001  0.3011839312441267
  0.5248282560166674  0.6913836123330063  0.3354428233677642
  0.5445425063977785  0.6800124922860860  0.3032296653653622
  0.5445542976689589  0.7313786701032307  0.3333731620879373
  0.5642679025716193  0.7200066734644739  0.3011613328714479
  0.5642621792010412  0.6913799884269515  0.3354487490130639
  0.5445445584727657  0.6572177230733305  0.3354184973480949
  0.4752410973270040  0.6685464643460122  0.3738401007129863
  0.4803196398228212  0.7169679679560834  0.4081215912093026
  0.5000338902039322  0.7055968479091628  0.3759084332069007
  0.5000359422789192  0.6828020786964074  0.4080972651896335
  0.5197535630071953  0.7169643440500284  0.4081275168546022
  0.5248162817274366  0.6399234032145448  0.4081215912093026
  0.5445411370206479  0.7027117850408771  0.3738626990856652
  0.5445423233797281  0.6799184609847690  0.4060519299294759
  0.5693344707782060  0.7169679679560834  0.4081215912093026
  0.5642559282823886  0.6685464643460122  0.3738401007129863
  0.5248235859528048  0.6685504110363601  0.3738328930869007
  0.5890412003773808  0.5801731583317919  0.3354184973480949
  0.5890391483023933  0.6029679275445473  0.3032296653653622
  0.6087588211056567  0.6143354236854129  0.3354487490130639
  0.6335463951191095  0.6000828646762616  0.3011839312441267
  0.6335475814781898  0.5772895406201536  0.3333731620879373
  0.6532611863808500  0.5659175439813969  0.3011613328714479
  0.6780560313327654  0.5801731583317919  0.3354184973480949
  0.6583397288766676  0.6143390475914680  0.3354428233677642
  0.6780539792577781  0.6029679275445473  0.3032296653653622
  0.6583350588128049  0.5915058462948217  0.3738328930869007
  0.5890377789252634  0.6256672202993385  0.3738626990856652
  0.6087525701870039  0.5915018996044737  0.3738401007129863
  0.6087468468164262  0.5628752145669514  0.4081275168546022
  0.5890389652843439  0.6028738962432308  0.4060519299294759
  0.6335453630639323  0.6285522831676243  0.3759084332069007
  0.6335474151389195  0.6057575139548689  0.4080972651896335
  0.6780537962397288  0.6028738962432308  0.4060519299294759
  0.6583277545874369  0.5628788384730065  0.4081215912093026
  0.6780420049685474  0.5515077184260859  0.3759084332069007
  0.6780526098806482  0.6256672202993385  0.3738626990856652
  0.6532650358671952  0.6399197793084901  0.4081275168546022
  0.6335593894281503  0.6572177230733305  0.3354184973480949
  0.6780657705289590  0.6543341053616921  0.3333731620879373
  0.5890509395735745  0.6543341053616921  0.3333731620879373
  0.6087645444762346  0.6429621087229352  0.3011613328714479
  0.6780645841698789  0.6771274294178001  0.3011839312441267
  0.5890497532144944  0.6771274294178001  0.3011839312441267
  0.6335573373531628  0.6800124922860860  0.3032296653653622
  0.6532770101564261  0.6913799884269515  0.3354487490130639
  0.6138430869720520  0.6913836123330063  0.3354428233677642
  0.6780775784789193  0.7342622878148687  0.3354184973480949
  0.6532827335270038  0.7200066734644739  0.3011613328714479
  0.5890627475235347  0.7342622878148687  0.3354184973480949
  0.6335691286243437  0.7313786701032307  0.3333731620879373
  0.6138311126828218  0.6399234032145448  0.4081215912093026
  0.6335571543351131  0.6799184609847690  0.4060519299294759
  0.6138384169081893  0.6685504110363601  0.3738328930869007
  0.6532707592377733  0.6685464643460122  0.3738401007129863
  0.6780656041896889  0.6828020786964074  0.4080972651896335
  0.5890507732343040  0.6828020786964074  0.4080972651896335
  0.6335559679760326  0.7027117850408771  0.3738626990856652
  0.5890487211593169  0.7055968479091628  0.3759084332069007
  0.6087683939625794  0.7169643440500284  0.4081275168546022
  0.6583493017335907  0.7169679679560834  0.4081215912093026
  0.6780635521147015  0.7055968479091628  0.3759084332069007
  0.4752650459054659  0.7714668825829353  0.2284825650299094
  0.5000718651466116  0.8371827060517919  0.1900609616650181
  0.5445782462474204  0.8342990883401536  0.1880156264048604
  0.5248522045951290  0.7943040305699295  0.1900852876846872
  0.5248475345312662  0.7714708292732834  0.2284753574038238
  0.5642798768608503  0.7714668825829353  0.2284825650299094
  0.5445685070512272  0.7601381413102535  0.1900609616650181
  0.5642861277795027  0.7943004066638745  0.1900912133299869
  0.4752712968241180  0.7943004066638745  0.1900912133299869
  0.5000600571966511  0.7572545235986151  0.1880156264048604
  0.5445650855991097  0.8056322032778002  0.2285051634025883
  0.5000578387823938  0.8085172661460858  0.2305508975238238
  0.5197712606670040  0.7970512382060123  0.3011613328714479
  0.5000564694052635  0.8312165589008769  0.3011839312441267
  0.5445662719581896  0.7828388792216920  0.2606943942463990
  0.5197775115856565  0.8198847622869515  0.2627699811715254
  0.5248402303058983  0.7428438214514680  0.2627640555262256
  0.5693584193566675  0.8198883861930064  0.2627640555262256
  0.4803435884012830  0.8198883861930064  0.2627640555262256
  0.5000598908573813  0.7857224969333304  0.2627397295065566
  0.5693537492928051  0.7970551848963604  0.3011541252453623
  0.5445531113098788  0.7541719941593384  0.3011839312441267
  0.4803389183374199  0.7970551848963604  0.3011541252453623
  0.4803508926266508  0.8485153940148217  0.2284753574038238
  0.5693657235820354  0.8485153940148217  0.2284753574038238
  0.5197832349562350  0.8485114473244738  0.2284825650299094
  0.5000696300535743  0.8598834439632306  0.2606943942463990
  0.5445780799081503  0.8627670616748688  0.2627397295065566
  0.4752746187623886  0.8740958029475506  0.3011613328714479
  0.5248571073881894  0.8740997496378987  0.3011541252453623
  0.5642894497177730  0.8740958029475506  0.3011613328714479
  0.5445746584560325  0.9082611236424154  0.3011839312441267
  0.6780897191074204  0.7572545235986151  0.1880156264048604
  0.5890748881520359  0.7572545235986151  0.1880156264048604
  0.5890726697377784  0.8085172661460858  0.2305508975238238
  0.6335799165544943  0.8056322032778002  0.2285051634025883
  0.6138670355505140  0.7943040305699295  0.1900852876846872
  0.6138623654866510  0.7714708292732834  0.2284753574038238
  0.6532947078162348  0.7714668825829353  0.2284825650299094
  0.6533009587348874  0.7943004066638745  0.1900912133299869
  0.6335833380066119  0.7601381413102535  0.1900609616650181
  0.6780875006931629  0.8085172661460858  0.2305508975238238
  0.6583685802481897  0.7970551848963604  0.3011541252453623
  0.6087860916223885  0.7970512382060123  0.3011613328714479
  0.6087923425410413  0.8198847622869515  0.2627699811715254
  0.6335679422652636  0.7541719941593384  0.3011839312441267
  0.6780895527681504  0.7857224969333304  0.2627397295065566
  0.6138550612612829  0.7428438214514680  0.2627640555262256
  0.6335811029135742  0.7828388792216920  0.2606943942463990
  0.6583732503120521  0.8198883861930064  0.2627640555262256
  0.5890747218127657  0.7857224969333304  0.2627397295065566
  0.6780861313160328  0.8312165589008769  0.3011839312441267
  0.5890713003606480  0.8312165589008769  0.3011839312441267
  0.6087980659116192  0.8485114473244738  0.2284825650299094
  0.5890844610089588  0.8598834439632306  0.2606943942463990
  0.6138719383435741  0.8740997496378987  0.3011541252453623
  0.6335929108635351  0.8627670616748688  0.2627397295065566
  0.6533042806731577  0.8740958029475506  0.3011613328714479
  0.5000458644931629  0.7570570570276243  0.3032296653653622
  0.4803316141120521  0.7684281770745449  0.3354428233677642
  0.5000576557643434  0.8084232348447692  0.3333731620879373
  0.5248451330989586  0.8226395405194372  0.3738328930869007
  0.5445661056189194  0.8113068525564072  0.3354184973480949
  0.5693417750035740  0.7455949757778987  0.3738328930869007
  0.5693464450674367  0.7684281770745449  0.3354428233677642
  0.4752626444731579  0.8226355938290892  0.3738401007129863
  0.4752569211025796  0.7940089087915668  0.4081275168546022
  0.5000456814751131  0.7569630257263076  0.4060519299294759
  0.5248378288735904  0.7940125326976218  0.4081215912093026
  0.5445520792547014  0.7826414126507013  0.3759084332069007
  0.5445541313296887  0.7598466434379457  0.4080972651896335
  0.5445638705258824  0.8340075904678460  0.4060519299294759
  0.5890605124304975  0.7569630257263076  0.4060519299294759
  0.5642717520579645  0.7940089087915668  0.4081275168546022
  0.5642774754285425  0.8226355938290892  0.3738401007129863
  0.5890593260714173  0.7797563497824155  0.3738626990856652
  0.4752688953918104  0.8454691179100284  0.3354487490130639
  0.4803531612582060  0.9225173065576219  0.3354428233677642
  0.5000694637143041  0.8883514172979458  0.3354184973480949
  0.5248498031628214  0.8454727418160832  0.3354428233677642
  0.5445758448151128  0.8854677995863076  0.3333731620879373
  0.5693679922135906  0.9225173065576219  0.3354428233677642
  0.5642837263471948  0.8454691179100284  0.3354487490130639
  0.5445640535439319  0.8341016217691627  0.3032296653653622
  0.5693633221497276  0.8996841052609755  0.3738328930869007
  0.5000554373500863  0.8596859773922397  0.3759084332069007
  0.5445626841668022  0.8568009145239539  0.3738626990856652
  0.5000574894250736  0.8368912081794843  0.4080972651896335
  0.5197751101533490  0.8710534735331054  0.4081275168546022
  0.4803411869689753  0.8710570974391603  0.4081215912093026
  0.5445756784758429  0.9139357729210227  0.4080972651896335
  0.5197808335239271  0.8996801585706277  0.3738401007129863
  0.5000660422621866  0.9338454792654924  0.3738626990856652
  0.6087803682518104  0.7684245531684899  0.3354487490130639
  0.6780755264039320  0.7570570570276243  0.3032296653653622
  0.5890606954485477  0.7570570570276243  0.3032296653653622
  0.6583612760228212  0.7684281770745449  0.3354428233677642
  0.6780873176751130  0.8084232348447692  0.3333731620879373
  0.5890724867197281  0.8084232348447692  0.3333731620879373
  0.6335809365743041  0.8113068525564072  0.3354184973480949
  0.6335788844993167  0.8341016217691627  0.3032296653653622
  0.6335689622850733  0.7598466434379457  0.4080972651896335
  0.6583566059589585  0.7455949757778987  0.3738328930869007
  0.6780753433858823  0.7569630257263076  0.4060519299294759
  0.6087741173331578  0.7455910290875507  0.3738401007129863
  0.6780741570268018  0.7797563497824155  0.3738626990856652
  0.6335669102100862  0.7826414126507013  0.3759084332069007
  0.6138526598289752  0.7940125326976218  0.4081215912093026
  0.6335787014812667  0.8340075904678460  0.4060519299294759
  0.5890723203804578  0.8368912081794843  0.4080972651896335
  0.6780871513358425  0.8368912081794843  0.4080972651896335
  0.6138646341182061  0.8454727418160832  0.3354428233677642
  0.6532985573025794  0.8454691179100284  0.3354487490130639
  0.6335906757704974  0.8854677995863076  0.3333731620879373
  0.5890842946696886  0.8883514172979458  0.3354184973480949
  0.6780991256250734  0.8883514172979458  0.3354184973480949
  0.6087956644793119  0.8996801585706277  0.3738401007129863
  0.6583781531051124  0.8996841052609755  0.3738328930869007
  0.6583708488797444  0.8710570974391603  0.4081215912093026
  0.6780850992608554  0.8596859773922397  0.3759084332069007
  0.5890702683054706  0.8596859773922397  0.3759084332069007
  0.6087899411087337  0.8710534735331054  0.4081275168546022
  0.6335775151221863  0.8568009145239539  0.3738626990856652
  0.5890820595766514  0.9110521552093844  0.4060519299294759
  0.6335905094312274  0.9139357729210227  0.4080972651896335
  0.6780968905320361  0.9110521552093844  0.4060519299294759
  0.5890808732175712  0.9338454792654924  0.3738626990856652
  0.2971994611270041  0.6170862552275508  0.4465188685545248
  0.2577671187974199  0.6170902019178989  0.4465116609284391
  0.2774740649531631  0.5770920740491627  0.4485872010484391
  0.2774858562243432  0.6284582518663075  0.4787306977710143
  0.2774726955760323  0.5997913668039540  0.5192202347687421
  0.2577598145720519  0.5884631940960833  0.4808003590508411
  0.2971874868377733  0.5656260461090892  0.5191976363960632
  0.2774738819351125  0.5769980427478459  0.5514094656125528
  0.2971937377564258  0.5884595701900285  0.4808062846961408
  0.2577551445081893  0.5656299927994373  0.5191904287699777
  0.2774761170281501  0.5542973048364074  0.4807760330311719
  0.3664888959085473  0.5770920740491627  0.4485872010484391
  0.3467819497528047  0.6170902019178989  0.4465116609284391
  0.3219813117698789  0.5742070111808770  0.4465414669272036
  0.3219943060789194  0.6313418695779457  0.4807760330311719
  0.3219824981289591  0.5514136871247692  0.4787306977710143
  0.3467746455274367  0.5884631940960833  0.4808003590508411
  0.3664875265314171  0.5997913668039540  0.5192202347687421
  0.3022780036228211  0.6655077588376217  0.4808003590508411
  0.2774846698652635  0.6512515759224153  0.4465414669272036
  0.3219922540039322  0.6541366387907013  0.4485872010484391
  0.3417176501777731  0.6941308199690892  0.4465188685545248
  0.3022853078481894  0.6941347666594372  0.4465116609284391
  0.3220040452751126  0.7055028166078462  0.4787306977710143
  0.2774976641743039  0.7083864343194843  0.4807760330311719
  0.3220028589160326  0.7282961406639538  0.4465414669272036
  0.2577813617182059  0.7425523235791601  0.4808003590508411
  0.3467961926735906  0.7425523235791601  0.4808003590508411
  0.2774956120993166  0.7311812035322397  0.4485872010484391
  0.3417119268071952  0.6655041349315669  0.4808062846961408
  0.3417056758885425  0.6426706108506277  0.5191976363960632
  0.3219920709858817  0.6540426074893844  0.5514094656125528
  0.3022733335589585  0.6426745575409757  0.5191904287699777
  0.3219908846268018  0.6768359315454924  0.5192202347687421
  0.2774836378100859  0.6797209944137782  0.5212659688899777
  0.2972090339839270  0.7197151755921661  0.5191976363960632
  0.3467915226097278  0.7197191222825141  0.5191904287699777
  0.2774954290812666  0.7310871722309228  0.5514094656125528
  0.2577766916543429  0.7197191222825141  0.5191904287699777
  0.2972152849025796  0.7425486996731054  0.4808062846961408
  0.3862085687118106  0.5884595701900285  0.4808062846961408
  0.3862023177931579  0.5656260461090892  0.5191976363960632
  0.3665006871797281  0.6284582518663075  0.4787306977710143
  0.3664909479835347  0.5542973048364074  0.4807760330311719
  0.4110091370343039  0.6313418695779457  0.4807760330311719
  0.4109973290843439  0.5514136871247692  0.4787306977710143
  0.4109961427252636  0.5742070111808770  0.4465414669272036
  0.4109951106700859  0.6026764296722399  0.5212659688899777
  0.3862142920823888  0.6170862552275508  0.4465188685545248
  0.3912881645143429  0.6426745575409757  0.5191904287699777
  0.4555057789389191  0.5542973048364074  0.4807760330311719
  0.4555155181351130  0.6284582518663075  0.4787306977710143
  0.4357967807081893  0.6170902019178989  0.4465116609284391
  0.4555037268639320  0.5770920740491627  0.4485872010484391
  0.4357894764828216  0.5884631940960833  0.4808003590508411
  0.4752233996671952  0.5884595701900285  0.4808062846961408
  0.4357848064189584  0.5656299927994373  0.5191904287699777
  0.4752171487485424  0.5656260461090892  0.5191976363960632
  0.4555023574868019  0.5997913668039540  0.5192202347687421
  0.4307205068439270  0.6426706108506277  0.5191976363960632
  0.4555035438458821  0.5769980427478459  0.5514094656125528
  0.3912928345782059  0.6655077588376217  0.4808003590508411
  0.4307267577625797  0.6655041349315669  0.4808062846961408
  0.4110070849593166  0.6541366387907013  0.4485872010484391
  0.4555143317760328  0.6512515759224153  0.4465414669272036
  0.3664995008206481  0.6512515759224153  0.4465414669272036
  0.3913001388035739  0.6941347666594372  0.4465116609284391
  0.3665104430547014  0.7311812035322397  0.4485872010484391
  0.3665124951296886  0.7083864343194843  0.4807760330311719
  0.3862301158579644  0.7425486996731054  0.4808062846961408
  0.4555273260850732  0.7083864343194843  0.4807760330311719
  0.4555132997208550  0.6797209944137782  0.5212659688899777
  0.3664984687654707  0.6797209944137782  0.5212659688899777
  0.4110057155821867  0.6768359315454924  0.5192202347687421
  0.4110069019412667  0.6540426074893844  0.5514094656125528
  0.3862238649393116  0.7197151755921661  0.5191976363960632
  0.4358063535651123  0.7197191222825141  0.5191904287699777
  0.3665102600366510  0.7310871722309228  0.5514094656125528
  0.4555250909920360  0.7310871722309228  0.5514094656125528
  0.3416937015993115  0.5912104017321661  0.5918764042376018
  0.3022660293335905  0.6140475497191602  0.5534791268923797
  0.3022613592697276  0.5912143484225141  0.5918691966115160
  0.3219823317896885  0.5798816604594842  0.5534548008727104
  0.2774716635208552  0.6282607852953167  0.5939447367315162
  0.3219683054254709  0.5512162205537783  0.5939447367315162
  0.2774737155958425  0.6054660160825612  0.6261335687142489
  0.3219800966966513  0.6025823983709230  0.6240882334540911
  0.3219789103375712  0.6253757224270308  0.5918990026102805
  0.2577574131397444  0.6396319053422371  0.6261578947339180
  0.2774596892316243  0.5768005761768551  0.6666235045730544
  0.2577527430758814  0.6167987040455912  0.6645479644530545
  0.2774714805028051  0.6281667539939999  0.6967670012956295
  0.2971913363241180  0.6396282814361822  0.6261638203792175
  0.2971850854054655  0.6167947573552431  0.6645551720791402
  0.3022540550443596  0.5625873406006987  0.6261578947339180
  0.3219669360483402  0.5739155133085693  0.6645777704518190
  0.3664745201870092  0.5768005761768551  0.6666235045730544
  0.3416879782287334  0.5625837166946439  0.6261638203792175
  0.3219681224074203  0.5511221892524614  0.6967670012956295
  0.3467675740312662  0.6167987040455912  0.6645479644530545
  0.3467722440951290  0.6396319053422371  0.6261578947339180
  0.2774856898850731  0.6569262252010226  0.5534548008727104
  0.2774834547920358  0.6796269631124614  0.6240882334540911
  0.2577693874289752  0.6910921144606987  0.5534791268923797
  0.2577647173651120  0.6682589131640525  0.5918691966115160
  0.2774822684329558  0.7024202871685693  0.5918990026102805
  0.2971970596946962  0.6682549664737046  0.5918764042376018
  0.2972033106133487  0.6910884905546437  0.5534850525376792
  0.3219898525716244  0.7053053500368551  0.5939447367315162
  0.3219919046466118  0.6825105808240995  0.6261335687142489
  0.3220038789358420  0.7339707899425610  0.5534548008727104
  0.3467795483204965  0.6682589131640525  0.5918691966115160
  0.3467842183843597  0.6910921144606987  0.5534791268923797
  0.3219778782823935  0.6538451409183936  0.6666235045730544
  0.3022756021905136  0.7166764700837756  0.6261578947339180
  0.3022709321266506  0.6938432687871297  0.6645479644530545
  0.2774702941437249  0.6509600780501079  0.6645777704518190
  0.2774812363777782  0.7308897056599321  0.6666235045730544
  0.3219884831944943  0.7280046427916463  0.6645777704518190
  0.3417095253748872  0.7166728461777208  0.6261638203792175
  0.3219896695535742  0.7052113187355383  0.6967670012956295
  0.3417032744562347  0.6938393220967816  0.6645551720791402
  0.3664851250991095  0.6509600780501079  0.6645777704518190
  0.4109831363808554  0.5512162205537783  0.5939447367315162
  0.3664864944762400  0.6282607852953167  0.5939447367315162
  0.3664885465512271  0.6054660160825612  0.6261335687142489
  0.3912688859997444  0.5625873406006987  0.6261578947339180
  0.3912761902251125  0.5912143484225141  0.5918691966115160
  0.3912808602889754  0.6140475497191602  0.5534791268923797
  0.4109937412929558  0.6253757224270308  0.5918990026102805
  0.4109949276520359  0.6025823983709230  0.6240882334540911
  0.4109971627450734  0.5798816604594842  0.5534548008727104
  0.4555033775066116  0.6054660160825612  0.6261335687142489
  0.4307147834733490  0.6140439258131054  0.5534850525376792
  0.4307085325546964  0.5912104017321661  0.5918764042376018
  0.4555013254316245  0.6282607852953167  0.5939447367315162
  0.4357870750505137  0.6396319053422371  0.6261578947339180
  0.3664863114581897  0.6281667539939999  0.6967670012956295
  0.3861999163608502  0.6167947573552431  0.6645551720791402
  0.3862061672795027  0.6396282814361822  0.6261638203792175
  0.4307028091841180  0.5625837166946439  0.6261638203792175
  0.4752147473162346  0.6167947573552431  0.6645551720791402
  0.4555011424135743  0.6281667539939999  0.6967670012956295
  0.4357824049866508  0.6167987040455912  0.6645479644530545
  0.4554893511423936  0.5768005761768551  0.6666235045730544
  0.4752209982348872  0.6396282814361822  0.6261638203792175
  0.4110046835270092  0.7053053500368551  0.5939447367315162
  0.3862181415687335  0.6910884905546437  0.5534850525376792
  0.3664970993883404  0.7024202871685693  0.5918990026102805
  0.3665005208404580  0.6569262252010226  0.5534548008727104
  0.3862118906500808  0.6682549664737046  0.5918764042376018
  0.4357943792758817  0.6682589131640525  0.5918691966115160
  0.4555119303437251  0.7024202871685693  0.5918990026102805
  0.4357990493397444  0.6910921144606987  0.5534791268923797
  0.4555153517958425  0.6569262252010226  0.5534548008727104
  0.3664982857474202  0.6796269631124614  0.6240882334540911
  0.4554999560544944  0.6509600780501079  0.6645777704518190
  0.4109927092377784  0.6538451409183936  0.6666235045730544
  0.4307181054116194  0.6938393220967816  0.6645551720791402
  0.4555131167028050  0.6796269631124614  0.6240882334540911
  0.4110067356019963  0.6825105808240995  0.6261335687142489
  0.3912857630820353  0.6938432687871297  0.6645479644530545
  0.4110045005089586  0.7052113187355383  0.6967670012956295
  0.3912904331458981  0.7166764700837756  0.6261578947339180
  0.4555108982885475  0.7308897056599321  0.6666235045730544
  0.4307243563302720  0.7166728461777208  0.6261638203792175
  0.3664960673331627  0.7308897056599321  0.6666235045730544
  0.4110033141498787  0.7280046427916463  0.6645777704518190
  0.2972210082731576  0.7711753847106277  0.4465188685545248
  0.3220138011500858  0.8082257682737782  0.4485872010484391
  0.2775062170114173  0.8053407054054924  0.4465414669272036
  0.3468034968989583  0.7711793314009757  0.4465116609284391
  0.2577886659435737  0.7711793314009757  0.4465116609284391
  0.3220158532250731  0.7854309990610229  0.4807760330311719
  0.3022995507689750  0.8195968883206989  0.4808003590508411
  0.2527186429979643  0.8195932644146436  0.4808062846961408
  0.3417334739533487  0.8195932644146436  0.4808062846961408
  0.2775074033704976  0.7825473813493846  0.4787306977710143
  0.2527123920793117  0.7967597403337046  0.5191976363960632
  0.2775072370312270  0.8110153546840995  0.5534548008727104
  0.2774942427221866  0.7538804962870308  0.5192202347687421
  0.2775051849562398  0.8338101238968552  0.5212659688899777
  0.3022875764797445  0.7681366792022370  0.5534791268923797
  0.3022948807051120  0.7967636870240525  0.5191904287699777
  0.3220018268608551  0.7567655591553167  0.5212659688899777
  0.3220124317729557  0.8309250610285692  0.5192202347687421
  0.3417272230346962  0.7967597403337046  0.5191976363960632
  0.3220136181320359  0.8081317369724614  0.5514094656125528
  0.2527243663685424  0.8482199494521661  0.4465188685545248
  0.2775171592454705  0.8852703330153165  0.4485872010484391
  0.2775192113204576  0.8624755638025612  0.4807760330311719
  0.3023068549943428  0.8482238961425141  0.4465116609284391
  0.3220244060621866  0.8823852701470308  0.4465414669272036
  0.3220255924212665  0.8595919460909228  0.4787306977710143
  0.3468177398197443  0.8966414530622371  0.4808003590508411
  0.3468250440451121  0.9252684608840525  0.4465116609284391
  0.3417391973239269  0.8482199494521661  0.4465188685545248
  0.2577909345751291  0.8451812439437758  0.5534791268923797
  0.2577982388004968  0.8738082517655911  0.5191904287699777
  0.2972305811300809  0.8738043050752431  0.5191976363960632
  0.2775169762274204  0.8851763017139997  0.5514094656125528
  0.2972368320487336  0.8966378291561823  0.4808062846961408
  0.3468057655305136  0.8451812439437758  0.5534791268923797
  0.3468130697558815  0.8738082517655911  0.5191904287699777
  0.3220233740070089  0.9108546886383936  0.5212659688899777
  0.3220254260819961  0.8880599194256380  0.5534548008727104
  0.4358183278543432  0.7711793314009757  0.4465116609284391
  0.4555358789221865  0.8053407054054924  0.4465414669272036
  0.4110286321054706  0.8082257682737782  0.4485872010484391
  0.3862358392285424  0.7711753847106277  0.4465188685545248
  0.3665210479668016  0.8053407054054924  0.4465414669272036
  0.3913143817243597  0.8195968883206989  0.4808003590508411
  0.4110306841804578  0.7854309990610229  0.4807760330311719
  0.4555370652812669  0.7825473813493846  0.4787306977710143
  0.3665222343258821  0.7825473813493846  0.4787306977710143
  0.4307483049087336  0.8195932644146436  0.4808062846961408
  0.4555239046329558  0.7538804962870308  0.5192202347687421
  0.3665090736775712  0.7538804962870308  0.5192202347687421
  0.4307420539900807  0.7967597403337046  0.5191976363960632
  0.4110166578162399  0.7567655591553167  0.5212659688899777
  0.3913097116604967  0.7967636870240525  0.5191904287699777
  0.4110284490874209  0.8081317369724614  0.5514094656125528
  0.3665220679866119  0.8110153546840995  0.5534548008727104
  0.4555368989419962  0.8110153546840995  0.5534548008727104
  0.3665200159116243  0.8338101238968552  0.5212659688899777
  0.4555348468670091  0.8338101238968552  0.5212659688899777
  0.4110272627283404  0.8309250610285692  0.5192202347687421
  0.4358205964858982  0.8451812439437758  0.5534791268923797
  0.3913216859497277  0.8482238961425141  0.4465116609284391
  0.3665437814720359  0.9366365108324614  0.4787306977710143
  0.3665319902008551  0.8852703330153165  0.4485872010484391
  0.3665340422758421  0.8624755638025612  0.4807760330311719
  0.3862573863746964  0.9252645141937046  0.4465188685545248
  0.4110392370175714  0.8823852701470308  0.4465414669272036
  0.4110404233766512  0.8595919460909228  0.4787306977710143
  0.4307540282793116  0.8482199494521661  0.4465188685545248
  0.4358398750004970  0.9252684608840525  0.4465116609284391
  0.4358325707751292  0.8966414530622371  0.4808003590508411
  0.4555468211562398  0.8852703330153165  0.4485872010484391
  0.4555488732312269  0.8624755638025612  0.4807760330311719
  0.4555586124274206  0.9366365108324614  0.4787306977710143
  0.3665306208237249  0.9079696257701076  0.5192202347687421
  0.3913239545812829  0.9222258086853140  0.5534791268923797
  0.3862454120854657  0.8738043050752431  0.5191976363960632
  0.3665318071828050  0.8851763017139997  0.5514094656125528
  0.3862516630041181  0.8966378291561823  0.4808062846961408
  0.4110382049623936  0.9108546886383936  0.5212659688899777
  0.4110402570373810  0.8880599194256380  0.5534548008727104
  0.4555454517791097  0.9079696257701076  0.5192202347687421
  0.4555466381381896  0.8851763017139997  0.5514094656125528
  0.4358279007112663  0.8738082517655911  0.5191904287699777
  0.3220004574837250  0.7794648519101076  0.5918990026102805
  0.3220016438428051  0.7566715278539998  0.6240882334540911
  0.3417152487454654  0.7452995312152431  0.5918764042376018
  0.3417214996641181  0.7681330552961821  0.5534850525376792
  0.3022829064158812  0.7453034779055909  0.5918691966115160
  0.2774932106670091  0.7823499147783934  0.5939447367315162
  0.2577862645112659  0.8223480426471294  0.5918691966115160
  0.3468010954666506  0.8223480426471294  0.5918691966115160
  0.2972186068408502  0.8223440959567816  0.5918764042376018
  0.2775050019381898  0.8337160925955382  0.6240882334540911
  0.2972248577595026  0.8451776200377206  0.5534850525376792
  0.2774952627419963  0.7595551455656381  0.6261335687142489
  0.2577742902220352  0.7708878335286680  0.6645479644530545
  0.2577789602858983  0.7937210348253141  0.6261578947339180
  0.2774930276489589  0.7822558834770768  0.6967670012956295
  0.2774918412898789  0.8050492075331847  0.6645777704518190
  0.2972066325516194  0.7708838868383200  0.6645551720791402
  0.2972128834702718  0.7937174109192592  0.6261638203792175
  0.3219994254285475  0.8079342704014707  0.6666235045730544
  0.3220134517927656  0.8365997103071763  0.6261335687142489
  0.3467891211774198  0.7708878335286680  0.6645479644530545
  0.3467937912412828  0.7937210348253141  0.6261578947339180
  0.2775038155791097  0.8565094166516461  0.5918990026102805
  0.3023044535620354  0.8993926073886680  0.5918691966115160
  0.3220113997177783  0.8593944795199321  0.5939447367315162
  0.3417430468102720  0.9222221847792591  0.5534850525376792
  0.3417367958916195  0.8993886606983200  0.5918764042376018
  0.3022924792728045  0.8479323982702065  0.6645479644530545
  0.3220100303406480  0.8820937722747232  0.6645777704518190
  0.3022971493366676  0.8707655995668526  0.6261578947339180
  0.3220112166997281  0.8593004482186154  0.6967670012956295
  0.3417248216023887  0.8479284515798585  0.6645551720791402
  0.3417310725210411  0.8707619756607976  0.6261638203792175
  0.3665080416223940  0.7823499147783934  0.5939447367315162
  0.4110164747981896  0.7566715278539998  0.6240882334540911
  0.4555228725777784  0.7823499147783934  0.5939447367315162
  0.3862334377962347  0.8223440959567816  0.5918764042376018
  0.4358159264220354  0.8223480426471294  0.5918691966115160
  0.3665198328935744  0.8337160925955382  0.6240882334540911
  0.4555346638489594  0.8337160925955382  0.6240882334540911
  0.3862396887148872  0.8451776200377206  0.5534850525376792
  0.3862214635070042  0.7708838868383200  0.6645551720791402
  0.3665078586043435  0.7822558834770768  0.6967670012956295
  0.3665066722452634  0.8050492075331847  0.6645777704518190
  0.3665100936973810  0.7595551455656381  0.6261335687142489
  0.4110142563839321  0.8079342704014707  0.6666235045730544
  0.3862277144256565  0.7937174109192592  0.6261638203792175
  0.4110282827481503  0.8365997103071763  0.6261335687142489
  0.4358039521328047  0.7708878335286680  0.6645479644530545
  0.4358086221966676  0.7937210348253141  0.6261578947339180
  0.4555215032006480  0.8050492075331847  0.6645777704518190
  0.4555226895597282  0.7822558834770768  0.6967670012956295
  0.4555249246527655  0.7595551455656381  0.6261335687142489
  0.4110262306731633  0.8593944795199321  0.5939447367315162
  0.3665186465344942  0.8565094166516461  0.5918990026102805
  0.4555334774898790  0.8565094166516461  0.5918990026102805
  0.3913192845174199  0.8993926073886680  0.5918691966115160
  0.4307516268470041  0.8993886606983200  0.5918764042376018
  0.4110380219443435  0.9107606573370767  0.6240882334540911
  0.3665316408435347  0.9136442750487150  0.6261335687142489
  0.4555464717989194  0.9136442750487150  0.6261335687142489
  0.4307578777656565  0.9222221847792591  0.5534850525376792
  0.4110368355852635  0.9335539813931847  0.5918990026102805
  0.4555444197239321  0.9364390442614704  0.5939447367315162
  0.3913119802920522  0.8707655995668526  0.6261578947339180
  0.3665176144793166  0.8849788351430089  0.6666235045730544
  0.3913073102281890  0.8479323982702065  0.6645479644530545
  0.4110248612960327  0.8820937722747232  0.6645777704518190
  0.4110260476551126  0.8593004482186154  0.6967670012956295
  0.4555324454347016  0.8849788351430089  0.6666235045730544
  0.4307396525577733  0.8479284515798585  0.6645551720791402
  0.4358254992789584  0.9249769630117449  0.6645479644530545
  0.4307459034764257  0.8707619756607976  0.6261638203792175
  0.5000109736806482  0.5742070111808770  0.4465414669272036
  0.4752291230377735  0.6170862552275508  0.4465188685545248
  0.5000121600397284  0.5514136871247692  0.4787306977710143
  0.5000239679896888  0.6313418695779457  0.4807760330311719
  0.5248043074382058  0.5884631940960833  0.4808003590508411
  0.4803029954697278  0.6426745575409757  0.5191904287699777
  0.5247996373743433  0.5656299927994373  0.5191904287699777
  0.5000099416254705  0.6026764296722399  0.5212659688899777
  0.5197353377993114  0.6426706108506277  0.5191976363960632
  0.5642439539931579  0.6170862552275508  0.4465188685545248
  0.5248116116635738  0.6170902019178989  0.4465116609284391
  0.5445185578193168  0.5770920740491627  0.4485872010484391
  0.5445206098943040  0.5542973048364074  0.4807760330311719
  0.5445303490904976  0.6284582518663075  0.4787306977710143
  0.5642382306225797  0.5884595701900285  0.4808062846961408
  0.5642319797039271  0.5656260461090892  0.5191976363960632
  0.5693178264251125  0.6426745575409757  0.5191904287699777
  0.5445171884421862  0.5997913668039540  0.5192202347687421
  0.5890247725808553  0.6026764296722399  0.5212659688899777
  0.5445183748012666  0.5769980427478459  0.5514094656125528
  0.5000219159147015  0.6541366387907013  0.4485872010484391
  0.5445291627314174  0.6512515759224153  0.4465414669272036
  0.5445401049654707  0.7311812035322397  0.4485872010484391
  0.5197473120885425  0.6941308199690892  0.4465188685545248
  0.5693298007143430  0.6941347666594372  0.4465116609284391
  0.5000325208268018  0.7282961406639538  0.4465414669272036
  0.4803149697589585  0.6941347666594372  0.4465116609284391
  0.5693224964889750  0.6655077588376217  0.4808003590508411
  0.5248258545843602  0.7425523235791601  0.4808003590508411
  0.5000337071858820  0.7055028166078462  0.4787306977710143
  0.5445421570404581  0.7083864343194843  0.4807760330311719
  0.4803076655335909  0.6655077588376217  0.4808003590508411
  0.5000217328966513  0.6540426074893844  0.5514094656125528
  0.4752449468133488  0.7425486996731054  0.4808062846961408
  0.5000205465375711  0.6768359315454924  0.5192202347687421
  0.4752386958946960  0.7197151755921661  0.5191976363960632
  0.5197415887179642  0.6655041349315669  0.4808062846961408
  0.5000335408466116  0.7339707899425610  0.5534548008727104
  0.5248211845204972  0.7197191222825141  0.5191904287699777
  0.5445281306762397  0.6797209944137782  0.5212659688899777
  0.5642535268500806  0.7197151755921661  0.5191976363960632
  0.5445301827512271  0.6569262252010226  0.5534548008727104
  0.5642597777687334  0.7425486996731054  0.4808062846961408
  0.5445399219474207  0.7310871722309228  0.5514094656125528
  0.6335333887747013  0.5770920740491627  0.4485872010484391
  0.6335354408496883  0.5542973048364074  0.4807760330311719
  0.5890269909951129  0.5514136871247692  0.4787306977710143
  0.6780406355914173  0.5742070111808770  0.4465414669272036
  0.6780418219504974  0.5514136871247692  0.4787306977710143
  0.5890258046360327  0.5742070111808770  0.4465414669272036
  0.6532587849485426  0.6170862552275508  0.4465188685545248
  0.6138264426189584  0.6170902019178989  0.4465116609284391
  0.5890387989450732  0.6313418695779457  0.4807760330311719
  0.6780536299004579  0.6313418695779457  0.4807760330311719
  0.6335451800458819  0.6284582518663075  0.4787306977710143
  0.6335439936868021  0.6512515759224153  0.4465414669272036
  0.6532530615779645  0.5884595701900285  0.4808062846961408
  0.5890268246558424  0.5798816604594842  0.5534548008727104
  0.6138144683297272  0.5656299927994373  0.5191904287699777
  0.6780416556112270  0.5798816604594842  0.5534548008727104
  0.6532468106593114  0.5656260461090892  0.5191976363960632
  0.6335332057566514  0.5769980427478459  0.5514094656125528
  0.6138191383935906  0.5884631940960833  0.4808003590508411
  0.6780513948074206  0.6540426074893844  0.5514094656125528
  0.6335320193975712  0.5997913668039540  0.5192202347687421
  0.6087501687546963  0.6426706108506277  0.5191976363960632
  0.6583326573804970  0.6426745575409757  0.5191904287699777
  0.6780396035362399  0.6026764296722399  0.5212659688899777
  0.6138406855397445  0.7425523235791601  0.4808003590508411
  0.6335549359208554  0.7311812035322397  0.4485872010484391
  0.5890473517821866  0.7282961406639538  0.4465414669272036
  0.6780515778254705  0.6541366387907013  0.4485872010484391
  0.5890367468700860  0.6541366387907013  0.4485872010484391
  0.6780621827375714  0.7282961406639538  0.4465414669272036
  0.6583446316697278  0.6941347666594372  0.4465116609284391
  0.6780633690966511  0.7055028166078462  0.4787306977710143
  0.6335569879958424  0.7083864343194843  0.4807760330311719
  0.5890485381412668  0.7055028166078462  0.4787306977710143
  0.6087621430439268  0.6941308199690892  0.4465188685545248
  0.6583373274443598  0.6655077588376217  0.4808003590508411
  0.6087564196733491  0.6655041349315669  0.4808062846961408
  0.5890365638520358  0.6540426074893844  0.5514094656125528
  0.5890353774929556  0.6768359315454924  0.5192202347687421
  0.5890483718019961  0.7339707899425610  0.5534548008727104
  0.6138360154758815  0.7197191222825141  0.5191904287699777
  0.6335429616316246  0.6797209944137782  0.5212659688899777
  0.6335450137066119  0.6569262252010226  0.5534548008727104
  0.6335547529028051  0.7310871722309228  0.5514094656125528
  0.6532683578054655  0.7197151755921661  0.5191976363960632
  0.6780632027573809  0.7339707899425610  0.5534548008727104
  0.6780502084483402  0.6768359315454924  0.5192202347687421
  0.6532746087241181  0.7425486996731054  0.4808062846961408
  0.5693105221997448  0.6140475497191602  0.5534791268923797
  0.5445182084619962  0.6054660160825612  0.6261335687142489
  0.4999979673362399  0.5512162205537783  0.5939447367315162
  0.5000085722483404  0.6253757224270308  0.5918990026102805
  0.5445161563870091  0.6282607852953167  0.5939447367315162
  0.5000097586074208  0.6025823983709230  0.6240882334540911
  0.4999965979591095  0.5739155133085693  0.6645777704518190
  0.4802837169551291  0.5625873406006987  0.6261578947339180
  0.5197176401395029  0.5625837166946439  0.6261638203792175
  0.4999977843181896  0.5511221892524614  0.6967670012956295
  0.5248019060058987  0.6396319053422371  0.6261578947339180
  0.5247972359420352  0.6167987040455912  0.6645479644530545
  0.5445041820977784  0.5768005761768551  0.6666235045730544
  0.5642295782716197  0.6167947573552431  0.6645551720791402
  0.5445159733689588  0.6281667539939999  0.6967670012956295
  0.5642358291902723  0.6396282814361822  0.6261638203792175
  0.5890114289144943  0.5739155133085693  0.6645777704518190
  0.5000215665573808  0.6825105808240995  0.6261335687142489
  0.5000195144823938  0.7053053500368551  0.5939447367315162
  0.4752267216054658  0.6682549664737046  0.5918764042376018
  0.4752329725241182  0.6910884905546437  0.5534850525376792
  0.5248092102312664  0.6682589131640525  0.5918691966115160
  0.5248138802951290  0.6910921144606987  0.5534791268923797
  0.5445267612991096  0.7024202871685693  0.5918990026102805
  0.5642478034795027  0.6910884905546437  0.5534850525376792
  0.5445279476581898  0.6796269631124614  0.6240882334540911
  0.5642415525608503  0.6682549664737046  0.5918764042376018
  0.5000075401931628  0.6538451409183936  0.6666235045730544
  0.4803052641012829  0.7166764700837756  0.6261578947339180
  0.4803005940374203  0.6938432687871297  0.6645479644530545
  0.5000181451052637  0.7280046427916463  0.6645777704518190
  0.5000193314643433  0.7052113187355383  0.6967670012956295
  0.5197329363670039  0.6938393220967816  0.6645551720791402
  0.5197391872856567  0.7166728461777208  0.6261638203792175
  0.5445257292439321  0.7308897056599321  0.6666235045730544
  0.5693154249928049  0.6938432687871297  0.6645479644530545
  0.5445147870098790  0.6509600780501079  0.6645777704518190
  0.5693200950566673  0.7166764700837756  0.6261578947339180
  0.6780382341591096  0.6253757224270308  0.5918990026102805
  0.5890234032037251  0.6253757224270308  0.5918990026102805
  0.6335309873423937  0.6282607852953167  0.5939447367315162
  0.6583253531551291  0.6140475497191602  0.5534791268923797
  0.6087444453841180  0.6140439258131054  0.5534850525376792
  0.6335330394173809  0.6054660160825612  0.6261335687142489
  0.6583133788658984  0.5625873406006987  0.6261578947339180
  0.6087324710948876  0.5625837166946439  0.6261638203792175
  0.6780274462289589  0.5511221892524614  0.6967670012956295
  0.5890126152735742  0.5511221892524614  0.6967670012956295
  0.6780262598698789  0.5739155133085693  0.6645777704518190
  0.6335190130531632  0.5768005761768551  0.6666235045730544
  0.6138120668974200  0.6167987040455912  0.6645479644530545
  0.6532444092270042  0.6167947573552431  0.6645551720791402
  0.6335308043243434  0.6281667539939999  0.6967670012956295
  0.6138167369612828  0.6396319053422371  0.6261578947339180
  0.6532506601456568  0.6396282814361822  0.6261638203792175
  0.5890343454377783  0.7053053500368551  0.5939447367315162
  0.5890363975127656  0.6825105808240995  0.6261335687142489
  0.6138287112505135  0.6910921144606987  0.5534791268923797
  0.6138240411866509  0.6682589131640525  0.5918691966115160
  0.6335415922544940  0.7024202871685693  0.5918990026102805
  0.6335427786135741  0.6796269631124614  0.6240882334540911
  0.6532626344348872  0.6910884905546437  0.5534850525376792
  0.6532563835162349  0.6682549664737046  0.5918764042376018
  0.6583349260120520  0.7166764700837756  0.6261578947339180
  0.6780491763931629  0.7053053500368551  0.5939447367315162
  0.6780512284681501  0.6825105808240995  0.6261335687142489
  0.6583302559481892  0.6938432687871297  0.6645479644530545
  0.6335296179652635  0.6509600780501079  0.6645777704518190
  0.5890223711485476  0.6538451409183936  0.6666235045730544
  0.6780372021039324  0.6538451409183936  0.6666235045730544
  0.6087477673223889  0.6938393220967816  0.6645551720791402
  0.6780489933751125  0.7052113187355383  0.6967670012956295
  0.5890341624197278  0.7052113187355383  0.6967670012956295
  0.6087540182410413  0.7166728461777208  0.6261638203792175
  0.6780478070160327  0.7280046427916463  0.6645777704518190
  0.5890329760606482  0.7280046427916463  0.6645777704518190
  0.6335405601993168  0.7308897056599321  0.6666235045730544
  0.5693440436351289  0.8195968883206989  0.4808003590508411
  0.4803292126797444  0.8195968883206989  0.4808003590508411
  0.5000455151358425  0.7854309990610229  0.4807760330311719
  0.4752506701839270  0.7711753847106277  0.4465188685545248
  0.5248331588097277  0.7711793314009757  0.4465116609284391
  0.5642655011393120  0.7711753847106277  0.4465188685545248
  0.5445507098775710  0.8053407054054924  0.4465414669272036
  0.5445518962366515  0.7825473813493846  0.4787306977710143
  0.5000434630608549  0.8082257682737782  0.4485872010484391
  0.5197631358641183  0.8195932644146436  0.4808062846961408
  0.5000432800428052  0.8081317369724614  0.5514094656125528
  0.4803172383905137  0.7681366792022370  0.5534791268923797
  0.5000420936837250  0.8309250610285692  0.5192202347687421
  0.4803245426158815  0.7967636870240525  0.5191904287699777
  0.5000314887716242  0.7567655591553167  0.5212659688899777
  0.5197511615748873  0.7681330552961821  0.5534850525376792
  0.5197568849454655  0.7967597403337046  0.5191976363960632
  0.5445387355883403  0.7538804962870308  0.5192202347687421
  0.5445496778223935  0.8338101238968552  0.5212659688899777
  0.5445517298973810  0.8110153546840995  0.5534548008727104
  0.5693320693458982  0.7681366792022370  0.5534791268923797
  0.5693393735712658  0.7967636870240525  0.5191904287699777
  0.5000540679729559  0.8823852701470308  0.4465414669272036
  0.4752722173300808  0.9252645141937046  0.4465188685545248
  0.4752664939595027  0.8966378291561823  0.4808062846961408
  0.4803365169051126  0.8482238961425141  0.4465116609284391
  0.5197688592346962  0.8482199494521661  0.4465188685545248
  0.5000552543320359  0.8595919460909228  0.4787306977710143
  0.5248474017305140  0.8966414530622371  0.4808003590508411
  0.5445637041866117  0.8624755638025612  0.4807760330311719
  0.5445734433828053  0.9366365108324614  0.4787306977710143
  0.5248547059558816  0.9252684608840525  0.4465116609284391
  0.5445616521116241  0.8852703330153165  0.4485872010484391
  0.5642870482854654  0.9252645141937046  0.4465188685545248
  0.5642813249148873  0.8966378291561823  0.4808062846961408
  0.4803387855366678  0.9222258086853140  0.5534791268923797
  0.4752545196702718  0.8451776200377206  0.5534850525376792
  0.4752602430408501  0.8738043050752431  0.5191976363960632
  0.5000550879927657  0.8880599194256380  0.5534548008727104
  0.5000530359177784  0.9108546886383936  0.5212659688899777
  0.5197727087210412  0.9222221847792591  0.5534850525376792
  0.5248354274412831  0.8451812439437758  0.5534791268923797
  0.5248427316666506  0.8738082517655911  0.5191904287699777
  0.5445602827344942  0.9079696257701076  0.5192202347687421
  0.5445614690935742  0.8851763017139997  0.5514094656125528
  0.5642750739962347  0.8738043050752431  0.5191976363960632
  0.5642693506256563  0.8451776200377206  0.5534850525376792
  0.6335655408329556  0.8053407054054924  0.4465414669272036
  0.5890582940162399  0.8082257682737782  0.4485872010484391
  0.6532803320946960  0.7711753847106277  0.4465188685545248
  0.6780751770466116  0.7854309990610229  0.4807760330311719
  0.6583588745905137  0.8195968883206989  0.4808003590508411
  0.6780731249716249  0.8082257682737782  0.4485872010484391
  0.6087659925302721  0.7681330552961821  0.5534850525376792
  0.6335535665437249  0.7538804962870308  0.5192202347687421
  0.5890463197270090  0.7567655591553167  0.5212659688899777
  0.6583469003012830  0.7681366792022370  0.5534791268923797
  0.6087717159008498  0.7967597403337046  0.5191976363960632
  0.6335665608527655  0.8110153546840995  0.5534548008727104
  0.5890581109981897  0.8081317369724614  0.5514094656125528
  0.6780717555944941  0.8309250610285692  0.5192202347687421
  0.6335645087777783  0.8338101238968552  0.5212659688899777
  0.5890569246391095  0.8309250610285692  0.5192202347687421
  0.6532841815810414  0.8451776200377206  0.5534850525376792
  0.6138695369112661  0.9252684608840525  0.4465116609284391
  0.6138622326858986  0.8966414530622371  0.4808003590508411
  0.6087836901900809  0.8482199494521661  0.4465188685545248
  0.5890700852874204  0.8595919460909228  0.4787306977710143
  0.6138575626220351  0.8738082517655911  0.5191904287699777
  0.6335751136898790  0.9079696257701076  0.5192202347687421
  0.5890678668731627  0.9108546886383936  0.5212659688899777
  0.6087875396764258  0.9222221847792591  0.5534850525376792
  0.6138502583966674  0.8451812439437758  0.5534791268923797
  0.5890699189481498  0.8880599194256380  0.5534548008727104
  0.5693536164920525  0.9222258086853140  0.5534791268923797
  0.6533018792408504  0.9252645141937046  0.4465188685545248
  0.6335764830670091  0.8852703330153165  0.4485872010484391
  0.6583661788158814  0.8482238961425141  0.4465116609284391
  0.6780837298837250  0.8823852701470308  0.4465414669272036
  0.6780849162428050  0.8595919460909228  0.4787306977710143
  0.6335882743381901  0.9366365108324614  0.4787306977710143
  0.6335785351419965  0.8624755638025612  0.4807760330311719
  0.6532961558702718  0.8966378291561823  0.4808062846961408
  0.6532899049516192  0.8738043050752431  0.5191976363960632
  0.6780826978285475  0.9108546886383936  0.5212659688899777
  0.6335763000489585  0.8851763017139997  0.5514094656125528
  0.5693273992820356  0.7453034779055909  0.5918691966115160
  0.5197449106562347  0.7452995312152431  0.5918764042376018
  0.5642630997070041  0.8223440959567816  0.5918764042376018
  0.5248307573774200  0.8223480426471294  0.5918691966115160
  0.4752482687516192  0.8223440959567816  0.5918764042376018
  0.4803125683266510  0.7453034779055909  0.5918691966115160
  0.5000301193944938  0.7794648519101076  0.5918990026102805
  0.5445377035331630  0.7823499147783934  0.5939447367315162
  0.5000313057535742  0.7566715278539998  0.6240882334540911
  0.4752425453810411  0.7937174109192592  0.6261638203792175
  0.4752362944623885  0.7708838868383200  0.6645551720791402
  0.5000290873393169  0.8079342704014707  0.6666235045730544
  0.5248187830881895  0.7708878335286680  0.6645479644530545
  0.5000431137035347  0.8365997103071763  0.6261335687142489
  0.5248234531520521  0.7937210348253141  0.6261578947339180
  0.5445375205151127  0.7822558834770768  0.6967670012956295
  0.5445363341560331  0.8050492075331847  0.6645777704518190
  0.5642573763364257  0.7937174109192592  0.6261638203792175
  0.5642511254177731  0.7708838868383200  0.6645551720791402
  0.5445397556081505  0.7595551455656381  0.6261335687142489
  0.5445494948043437  0.8337160925955382  0.6240882334540911
  0.5445613027543039  0.9136442750487150  0.6261335687142489
  0.5693489464281897  0.8993926073886680  0.5918691966115160
  0.5000516665406481  0.9335539813931847  0.5918990026102805
  0.4803341154728049  0.8993926073886680  0.5918691966115160
  0.5445592506793169  0.9364390442614704  0.5939447367315162
  0.5197664578023885  0.8993886606983200  0.5918764042376018
  0.5000410616285477  0.8593944795199321  0.5939447367315162
  0.5445483084452633  0.8565094166516461  0.5918990026102805
  0.5000528528997283  0.9107606573370767  0.6240882334540911
  0.5000408786104974  0.8593004482186154  0.6967670012956295
  0.4752578416085424  0.9249730163213968  0.6645551720791402
  0.4803268112474366  0.8707655995668526  0.6261578947339180
  0.5000396922514175  0.8820937722747232  0.6645777704518190
  0.4803221411835737  0.8479323982702065  0.6645479644530545
  0.5197607344318106  0.8707619756607976  0.6261638203792175
  0.5197544835131578  0.8479284515798585  0.6645551720791402
  0.5248403302343432  0.9249769630117449  0.6645479644530545
  0.5445472763900859  0.8849788351430089  0.6666235045730544
  0.5642726725639270  0.9249730163213968  0.6645551720791402
  0.5693369721389587  0.8479323982702065  0.6645479644530545
  0.5693416422028214  0.8707655995668526  0.6261578947339180
  0.6335525344885480  0.7823499147783934  0.5939447367315162
  0.6583422302374201  0.7453034779055909  0.5918691966115160
  0.6532779306623886  0.8223440959567816  0.5918764042376018
  0.6138455883328046  0.8223480426471294  0.5918691966115160
  0.5890449503498788  0.7794648519101076  0.5918990026102805
  0.6087597416116196  0.7452995312152431  0.5918764042376018
  0.5890461367089592  0.7566715278539998  0.6240882334540911
  0.5890579446589195  0.8365997103071763  0.6261335687142489
  0.5890439182947013  0.8079342704014707  0.6666235045730544
  0.6138336140435741  0.7708878335286680  0.6645479644530545
  0.6138382841074367  0.7937210348253141  0.6261578947339180
  0.6335511651114174  0.8050492075331847  0.6645777704518190
  0.6335523514704974  0.7822558834770768  0.6967670012956295
  0.6335545865635348  0.7595551455656381  0.6261335687142489
  0.6780587492500860  0.8079342704014707  0.6666235045730544
  0.6532659563731581  0.7708838868383200  0.6645551720791402
  0.6780727756143040  0.8365997103071763  0.6261335687142489
  0.6335643257597284  0.8337160925955382  0.6240882334540911
  0.6532722072918107  0.7937174109192592  0.6261638203792175
  0.6780707235393172  0.8593944795199321  0.5939447367315162
  0.5890558925839322  0.8593944795199321  0.5939447367315162
  0.6335631394006481  0.8565094166516461  0.5918990026102805
  0.6087812887577733  0.8993886606983200  0.5918764042376018
  0.5890676838551127  0.9107606573370767  0.6240882334540911
  0.5890664974960328  0.9335539813931847  0.5918990026102805
  0.6335761337096889  0.9136442750487150  0.6261335687142489
  0.5890557095658820  0.8593004482186154  0.6967670012956295
  0.5890545232068021  0.8820937722747232  0.6645777704518190
  0.6087755653871949  0.8707619756607976  0.6261638203792175
  0.6087693144685423  0.8479284515798585  0.6645551720791402
  0.6335621073454705  0.8849788351430089  0.6666235045730544
  0.6780693541621868  0.8820937722747232  0.6645777704518190
  0.6583564731582060  0.8707655995668526  0.6261578947339180
  0.6583518030943433  0.8479323982702065  0.6645479644530545
  0.6780705405212666  0.8593004482186154  0.6967670012956295
  0.1191434492054654  0.5653345482367815  0.7372339399206785
  0.0994320793958425  0.5540058069640996  0.6988123365557871
  0.1439362420823937  0.6023849317999320  0.7393022724145930
  0.1884434888991096  0.5994998689316462  0.7372565382933574
  0.1687259378312660  0.5653384949271297  0.7372267322945931
  0.1687306078951291  0.5881716962237756  0.6988366625754564
  0.1636678891748873  0.6652126370592591  0.6988425882207558
  0.1636616382562344  0.6423791129783200  0.7372339399206785
  0.1439502684466117  0.6310503717056382  0.6988123365557871
  0.1242339659905136  0.6652162609653142  0.6988366625754564
  0.1191497001241180  0.5881680723177207  0.6988425882207558
  0.1439382941573809  0.5795901625871768  0.7714911043973257
  0.1636559148856565  0.6137524279407975  0.7715213560622944
  0.1884424568439321  0.6279692874230091  0.8119810402561314
  0.1687521550412828  0.7422608257068526  0.6988366625754564
  0.2329510730377782  0.6023849317999320  0.7393022724145930
  0.2132441268820354  0.6423830596686678  0.7372267322945931
  0.1884469103512269  0.5540058069640996  0.6988123365557871
  0.2774617413066118  0.5540058069640996  0.6988123365557871
  0.2081582801608502  0.5653345482367815  0.7372339399206785
  0.2081645310795025  0.5881680723177207  0.6988425882207558
  0.2526764692116194  0.6423791129783200  0.7372339399206785
  0.2577454388505136  0.5881716962237756  0.6988366625754564
  0.2329650994019963  0.6310503717056382  0.6988123365557871
  0.2774583198544942  0.5994998689316462  0.7372565382933574
  0.2577407687866506  0.5653384949271297  0.7372267322945931
  0.1884446752581898  0.5767065448755384  0.7694457691371681
  0.2774595062135743  0.5767065448755384  0.7694457691371681
  0.2329531251127656  0.5795901625871768  0.7714911043973257
  0.2329628643089589  0.6537511096170769  0.7694457691371681
  0.2132368226566676  0.6137560518468526  0.7715154304169950
  0.2132321525928043  0.5909228505502063  0.8099055001361315
  0.2526707458410410  0.6137524279407975  0.7715213560622944
  0.2526644949223886  0.5909189038598583  0.8099127077622169
  0.2329497036606481  0.6250842245547231  0.8099353061348958
  0.2774572877993167  0.6279692874230091  0.8119810402561314
  0.2329390987485473  0.5509247226814705  0.8119810402561314
  0.2577669859966676  0.7422608257068526  0.6988366625754564
  0.2526827201302719  0.6652126370592591  0.6988425882207558
  0.2132487969458983  0.6652162609653142  0.6988366625754564
  0.2081860782256565  0.7422572018007976  0.6988425882207558
  0.1884684574973808  0.7080949364471766  0.6988123365557871
  0.2774692620885477  0.6794294965414706  0.7393022724145930
  0.2577623159328044  0.7194276244102065  0.7372267322945931
  0.2081798273070037  0.7194236777198585  0.7372339399206785
  0.2329616779498789  0.6765444336731846  0.7372565382933574
  0.1884544311331628  0.6794294965414706  0.7393022724145930
  0.1884564832081501  0.6566347273287151  0.7714911043973257
  0.2081678530177730  0.6679634686013969  0.8099127077622169
  0.2081741039364255  0.6907969926823361  0.7715213560622944
  0.2329606458947012  0.7050138521645474  0.8119810402561314
  0.2329746722589192  0.7336792920702535  0.7714911043973257
  0.2577503416435739  0.6679674152917450  0.8099055001361315
  0.2577550117074367  0.6908006165883910  0.7715154304169950
  0.2774678927114173  0.7021287892962617  0.8099353061348958
  0.2774713141635348  0.6566347273287151  0.7714911043973257
  0.2774810533597281  0.7307956743586154  0.7694457691371681
  0.2971731111162348  0.5653345482367815  0.7372339399206785
  0.3219799303573804  0.6310503717056382  0.6988123365557871
  0.2971793620348872  0.5881680723177207  0.6988425882207558
  0.3022589578374198  0.6423830596686678  0.7372267322945931
  0.3416913001670038  0.6423791129783200  0.7372339399206785
  0.3861941929902717  0.5881680723177207  0.6988425882207558
  0.3467555997420356  0.5653384949271297  0.7372267322945931
  0.3664765722619961  0.5540058069640996  0.6988123365557871
  0.3467602698058980  0.5881716962237756  0.6988366625754564
  0.3664731508098785  0.5994998689316462  0.7372565382933574
  0.3219659039931628  0.6023849317999320  0.7393022724145930
  0.3861879420716193  0.5653345482367815  0.7372339399206785
  0.3022516536120521  0.6137560518468526  0.7715154304169950
  0.3416855767964256  0.6137524279407975  0.7715213560622944
  0.3219539297039319  0.5509247226814705  0.8119810402561314
  0.3664721187547012  0.6279692874230091  0.8119810402561314
  0.3219679560681502  0.5795901625871768  0.7714911043973257
  0.3664743371689590  0.5767065448755384  0.7694457691371681
  0.3022469835481892  0.5909228505502063  0.8099055001361315
  0.3416793258777731  0.5909189038598583  0.8099127077622169
  0.3219776952643437  0.6537511096170769  0.7694457691371681
  0.3219645346160327  0.6250842245547231  0.8099353061348958
  0.2774832884527657  0.7080949364471766  0.6988123365557871
  0.3664981194081497  0.7080949364471766  0.6988123365557871
  0.3416975510856564  0.6652126370592591  0.6988425882207558
  0.3022636279012828  0.6652162609653142  0.6988366625754564
  0.2972009091810412  0.7422572018007976  0.6988425882207558
  0.3862157401364256  0.7422572018007976  0.6988425882207558
  0.3467818169520520  0.7422608257068526  0.6988366625754564
  0.3219765089052635  0.6765444336731846  0.7372565382933574
  0.3467771468881892  0.7194276244102065  0.7372267322945931
  0.3862094892177729  0.7194236777198585  0.7372339399206785
  0.2971946582623886  0.7194236777198585  0.7372339399206785
  0.3664840930439320  0.6794294965414706  0.7393022724145930
  0.2971826839731577  0.6679634686013969  0.8099127077622169
  0.3219895032143039  0.7336792920702535  0.7714911043973257
  0.2971889348918104  0.6907969926823361  0.7715213560622944
  0.3219754768500859  0.7050138521645474  0.8119810402561314
  0.3467651725989586  0.6679674152917450  0.8099055001361315
  0.3467698426628212  0.6908006165883910  0.7715154304169950
  0.3664827236668019  0.7021287892962617  0.8099353061348958
  0.3862037658471950  0.6907969926823361  0.7715213560622944
  0.3664861451189194  0.6566347273287151  0.7714911043973257
  0.3664958843151129  0.7307956743586154  0.7694457691371681
  0.3861975149285423  0.6679634686013969  0.8099127077622169
  0.2774453135100859  0.5765090783045476  0.8846598080976698
  0.2577430374182060  0.6393404074699294  0.8441941982585334
  0.2329508900197283  0.6022909004986152  0.8421245369787067
  0.2774593398743040  0.6051745182102537  0.8441698722388641
  0.2526587715518103  0.5622922188223360  0.8442001239038328
  0.2132248483674368  0.5622958427283911  0.8441941982585334
  0.2774690790704974  0.6793354652401539  0.8421245369787067
  0.3022396793228213  0.5622958427283911  0.8441941982585334
  0.3664741708296886  0.6051745182102537  0.8441698722388641
  0.3467578683735905  0.6393404074699294  0.8441941982585334
  0.3219657209751128  0.6022909004986152  0.8421245369787067
  0.3467531983097274  0.6165072061732833  0.8825842679776698
  0.3861917915579641  0.6393367835638747  0.8442001239038328
  0.3416736025071949  0.5622922188223360  0.8442001239038328
  0.2971769606025795  0.6393367835638747  0.8442001239038328
  0.3664601444654708  0.5765090783045476  0.8846598080976698
  0.2971707096839269  0.6165032594829354  0.8825914756037555
  0.3219525603268019  0.5736240154362616  0.8826140739764342
  0.3861855406393118  0.6165032594829354  0.8825914756037555
  0.3219537466858820  0.5508306913801536  0.9148033048202451
  0.3467458940843596  0.5878801983514679  0.9168729661000717
  0.3664621965404576  0.5537143090917920  0.9168486400804026
  0.3664719357366512  0.6278752561216921  0.9148033048202451
  0.3861798172687334  0.5878765744454131  0.9168788917453714
  0.3219635025608550  0.6535536430460860  0.8846598080976698
  0.3022612264689752  0.7163849722114680  0.8441941982585334
  0.3219775289250732  0.6822190829517920  0.8441698722388641
  0.3416888987346962  0.6935478242244739  0.8825914756037555
  0.3416951496533488  0.7163813483054130  0.8442001239038328
  0.3664707493775711  0.6506685801777999  0.8826140739764342
  0.3664839100258822  0.6793354652401539  0.8421245369787067
  0.2329726201839320  0.7564740612830089  0.7393022724145930
  0.2774798670006481  0.7535889984147232  0.7372565382933574
  0.2526980163577733  0.7964682424613970  0.7372339399206785
  0.2329866465481500  0.7851395011887150  0.6988123365557871
  0.2527042672764258  0.8193017665423362  0.6988425882207558
  0.2526922929871950  0.7678415574238746  0.7715213560622944
  0.3664946979560327  0.7535889984147232  0.7372565382933574
  0.3219874511393167  0.7564740612830089  0.7393022724145930
  0.3220014775035344  0.7851395011887150  0.6988123365557871
  0.3417128473131577  0.7964682424613970  0.7372339399206785
  0.3022805049835737  0.7964721891517450  0.7372267322945931
  0.3665056401900859  0.8335186260245475  0.7393022724145930
  0.3219980560514173  0.8306335631562616  0.7372565382933574
  0.3417190982318103  0.8193017665423362  0.6988425882207558
  0.3022851750474366  0.8193053904483909  0.6988366625754564
  0.3417008730239270  0.7450080333429353  0.8099127077622169
  0.3417071239425797  0.7678415574238746  0.7715213560622944
  0.3022732007582060  0.7678451813299295  0.7715154304169950
  0.3022685306943428  0.7450119800332833  0.8099055001361315
  0.3219860817621866  0.7791733540378001  0.8099353061348958
  0.3664936659008551  0.7820584169060858  0.8119810402561314
  0.3219992424104977  0.8078402391001537  0.7694457691371681
  0.3665076922650732  0.8107238568117919  0.7714911043973257
  0.3862190620746961  0.8220525980844738  0.8099127077622169
  0.3862310363639269  0.8735128072029353  0.7372339399206785
  0.3665196665543038  0.8621840659302535  0.6988123365557871
  0.3862372872825794  0.8963463312838745  0.6988425882207558
  0.3862253129933487  0.8448861221654130  0.7715213560622944
  0.3664957179758425  0.7592636476933303  0.8441698722388641
  0.3912664845674366  0.6137560518468526  0.7715154304169950
  0.4109947613127655  0.6310503717056382  0.6988123365557871
  0.4109807349485476  0.6023849317999320  0.7393022724145930
  0.4357751007612828  0.5881716962237756  0.6988366625754564
  0.4357704306974201  0.5653384949271297  0.7372267322945931
  0.4109827870235349  0.5795901625871768  0.7714911043973257
  0.4307004077518104  0.6137524279407975  0.7715213560622944
  0.4554891681243436  0.5767065448755384  0.7694457691371681
  0.4554879817652632  0.5994998689316462  0.7372565382933574
  0.4752090239456565  0.5881680723177207  0.6988425882207558
  0.5000095922681501  0.6310503717056382  0.6988123365557871
  0.5247899317166673  0.5881716962237756  0.6988366625754564
  0.5445028127206480  0.5994998689316462  0.7372565382933574
  0.4752027730270041  0.5653345482367815  0.7372339399206785
  0.5247852616528045  0.5653384949271297  0.7372267322945931
  0.4999955659039323  0.6023849317999320  0.7393022724145930
  0.5197152387071953  0.6137524279407975  0.7715213560622944
  0.4802813155228211  0.6137560518468526  0.7715154304169950
  0.4999976179789195  0.5795901625871768  0.7714911043973257
  0.3912545102782060  0.5622958427283911  0.8441941982585334
  0.4306884334625795  0.5622922188223360  0.8442001239038328
  0.4109687606593168  0.5509247226814705  0.8119810402561314
  0.4554749754208552  0.5765090783045476  0.8846598080976698
  0.4109673912821866  0.5736240154362616  0.8826140739764342
  0.4306941568331578  0.5909189038598583  0.8099127077622169
  0.3912618145035740  0.5909228505502063  0.8099055001361315
  0.4554890017850732  0.6051745182102537  0.8441698722388641
  0.4109805519304974  0.6022909004986152  0.8421245369787067
  0.4357726993289752  0.6393404074699294  0.8441941982585334
  0.4357680292651124  0.6165072061732833  0.8825842679776698
  0.4554869497100859  0.6279692874230091  0.8119810402561314
  0.4109793655714169  0.6250842245547231  0.8099353061348958
  0.5444898063762397  0.5765090783045476  0.8846598080976698
  0.4999835916147014  0.5509247226814705  0.8119810402561314
  0.4802766454589584  0.5909228505502063  0.8099055001361315
  0.5197089877885425  0.5909189038598583  0.8099127077622169
  0.4999953828858819  0.6022909004986152  0.8421245369787067
  0.4752003715946962  0.6165032594829354  0.8825914756037555
  0.5247828602204969  0.6165072061732833  0.8825842679776698
  0.4999941965268020  0.6250842245547231  0.8099353061348958
  0.5247875302843596  0.6393404074699294  0.8441941982585334
  0.5445017806654704  0.6279692874230091  0.8119810402561314
  0.4752066225133488  0.6393367835638747  0.8442001239038328
  0.4307123820410410  0.6652126370592591  0.6988425882207558
  0.4307061311223886  0.6423791129783200  0.7372339399206785
  0.4109925262197283  0.6537511096170769  0.7694457691371681
  0.3912737887928047  0.6423830596686678  0.7372267322945931
  0.4555009760743041  0.6566347273287151  0.7714911043973257
  0.3912784588566673  0.6652162609653142  0.6988366625754564
  0.4109913398606479  0.6765444336731846  0.7372565382933574
  0.4554989239993168  0.6794294965414706  0.7393022724145930
  0.4357846736182058  0.6908006165883910  0.7715154304169950
  0.4357919778435739  0.7194276244102065  0.7372267322945931
  0.4555107152704973  0.7307956743586154  0.7694457691371681
  0.4357966479074366  0.7422608257068526  0.6988366625754564
  0.4110043341696885  0.7336792920702535  0.7714911043973257
  0.4802886197481891  0.6423830596686678  0.7372267322945931
  0.5197209620777732  0.6423791129783200  0.7372339399206785
  0.5197272129964258  0.6652126370592591  0.6988425882207558
  0.5000073571751130  0.6537511096170769  0.7694457691371681
  0.4802932898120523  0.6652162609653142  0.6988366625754564
  0.5000061708160327  0.6765444336731846  0.7372565382933574
  0.5247995045735908  0.6908006165883910  0.7715154304169950
  0.4555129503635348  0.7080949364471766  0.6988123365557871
  0.5248068087989584  0.7194276244102065  0.7372267322945931
  0.5248114788628214  0.7422608257068526  0.6988366625754564
  0.5000191651250733  0.7336792920702535  0.7714911043973257
  0.4752243201731579  0.7194236777198585  0.7372339399206785
  0.4752305710918104  0.7422572018007976  0.6988425882207558
  0.4109923598804578  0.6822190829517920  0.8441698722388641
  0.4357800035543432  0.6679674152917450  0.8099055001361315
  0.4109903078054704  0.7050138521645474  0.8119810402561314
  0.4554975546221864  0.7021287892962617  0.8099353061348958
  0.3912760574243598  0.7163849722114680  0.8441941982585334
  0.4307099806087333  0.7163813483054130  0.8442001239038328
  0.3912713873604968  0.6935517709148219  0.8825842679776698
  0.4307037296900804  0.6935478242244739  0.8825914756037555
  0.4109783335162401  0.6535536430460860  0.8846598080976698
  0.4554855803329557  0.6506685801777999  0.8826140739764342
  0.4109889384283403  0.7277131449193386  0.8826140739764342
  0.4554965225670093  0.7305982077876244  0.8846598080976698
  0.4752123458839271  0.6679634686013969  0.8099127077622169
  0.4752185968025797  0.6907969926823361  0.7715213560622944
  0.5000051387608553  0.7050138521645474  0.8119810402561314
  0.5247948345097276  0.6679674152917450  0.8099055001361315
  0.4554987409812666  0.6793354652401539  0.8421245369787067
  0.5000071908358427  0.6822190829517920  0.8441698722388641
  0.5000037693837251  0.7277131449193386  0.8826140739764342
  0.4999931644716244  0.6535536430460860  0.8846598080976698
  0.5197248115641180  0.7163813483054130  0.8442001239038328
  0.4802862183158814  0.6935517709148219  0.8825842679776698
  0.5445004112883405  0.6506685801777999  0.8826140739764342
  0.5197185606454656  0.6935478242244739  0.8825914756037555
  0.4802908883797443  0.7163849722114680  0.8441941982585334
  0.5693034507035737  0.6423830596686678  0.7372267322945931
  0.5445062341727652  0.5540058069640996  0.6988123365557871
  0.5445039990797282  0.5767065448755384  0.7694457691371681
  0.5692961464782059  0.6137560518468526  0.7715154304169950
  0.5642176039823885  0.5653345482367815  0.7372339399206785
  0.5642238549010411  0.5881680723177207  0.6988425882207558
  0.5890244232235349  0.6310503717056382  0.6988123365557871
  0.5890124489343039  0.5795901625871768  0.7714911043973257
  0.6087357930331577  0.6423791129783200  0.7372339399206785
  0.6087300696625798  0.6137524279407975  0.7715213560622944
  0.5890103968593167  0.6023849317999320  0.7393022724145930
  0.6138000926081892  0.5653384949271297  0.7372267322945931
  0.6138047626720520  0.5881716962237756  0.6988366625754564
  0.6335210651281500  0.5540058069640996  0.6988123365557871
  0.6780392541789194  0.6310503717056382  0.6988123365557871
  0.6583182816589582  0.6423830596686678  0.7372267322945931
  0.6532386858564259  0.5881680723177207  0.6988425882207558
  0.6532324349377731  0.5653345482367815  0.7372339399206785
  0.6335176436760324  0.5994998689316462  0.7372565382933574
  0.6780252278147014  0.6023849317999320  0.7393022724145930
  0.6335188300351128  0.5767065448755384  0.7694457691371681
  0.6583109774335907  0.6137560518468526  0.7715154304169950
  0.6780272798896888  0.5795901625871768  0.7714911043973257
  0.5889970531929558  0.5736240154362616  0.8826140739764342
  0.5889984225700859  0.5509247226814705  0.8119810402561314
  0.6087180953733489  0.5622922188223360  0.8442001239038328
  0.5692841721889750  0.5622958427283911  0.8441941982585334
  0.6087238187439270  0.5909189038598583  0.8099127077622169
  0.5692914764143430  0.5909228505502063  0.8099055001361315
  0.5890102138412663  0.6022909004986152  0.8421245369787067
  0.5445038327404582  0.6051745182102537  0.8441698722388641
  0.5642214534687331  0.6393367835638747  0.8442001239038328
  0.5642152025500807  0.6165032594829354  0.8825914756037555
  0.5890090274821865  0.6250842245547231  0.8099353061348958
  0.5890079954270090  0.6535536430460860  0.8846598080976698
  0.6137976911758815  0.6165072061732833  0.8825842679776698
  0.6780250447966513  0.6022909004986152  0.8421245369787067
  0.6583063073697277  0.5909228505502063  0.8099055001361315
  0.6335046373316245  0.5765090783045476  0.8846598080976698
  0.6582990031443597  0.5622958427283911  0.8441941982585334
  0.6780118841483403  0.5736240154362616  0.8826140739764342
  0.6780132535254705  0.5509247226814705  0.8119810402561314
  0.6335186636958428  0.6051745182102537  0.8441698722388641
  0.6780238584375711  0.6250842245547231  0.8099353061348958
  0.6532362844241181  0.6393367835638747  0.8442001239038328
  0.6335152422437250  0.6506685801777999  0.8826140739764342
  0.6780228263823938  0.6535536430460860  0.8846598080976698
  0.5445158070296884  0.6566347273287151  0.7714911043973257
  0.6087420439518103  0.6652126370592591  0.6988425882207558
  0.5890221881304979  0.6537511096170769  0.7694457691371681
  0.5693081207674368  0.6652162609653142  0.6988366625754564
  0.5890210017714173  0.6765444336731846  0.7372565382933574
  0.5445137549547011  0.6794294965414706  0.7393022724145930
  0.5445277813189193  0.7080949364471766  0.6988123365557871
  0.5642391511285424  0.7194236777198585  0.7372339399206785
  0.5890339960804579  0.7336792920702535  0.7714911043973257
  0.5642454020471950  0.7422572018007976  0.6988425882207558
  0.5445255462258821  0.7307956743586154  0.7694457691371681
  0.6780358327268020  0.6765444336731846  0.7372565382933574
  0.6335306379850733  0.6566347273287151  0.7714911043973257
  0.6780370190858822  0.6537511096170769  0.7694457691371681
  0.6583229517228214  0.6652162609653142  0.6988366625754564
  0.6335285859100859  0.6794294965414706  0.7393022724145930
  0.6138143355289754  0.6908006165883910  0.7715154304169950
  0.6335426122743041  0.7080949364471766  0.6988123365557871
  0.6780488270358425  0.7336792920702535  0.7714911043973257
  0.6138216397543429  0.7194276244102065  0.7372267322945931
  0.6138263098182061  0.7422608257068526  0.6988366625754564
  0.6532602330025795  0.7422572018007976  0.6988425882207558
  0.6335403771812667  0.7307956743586154  0.7694457691371681
  0.6532539820839269  0.7194236777198585  0.7372339399206785
  0.5890199697162396  0.7050138521645474  0.8119810402561314
  0.5642334277579645  0.6907969926823361  0.7715213560622944
  0.5445123855775712  0.7021287892962617  0.8099353061348958
  0.5642271768393117  0.6679634686013969  0.8099127077622169
  0.5890220217912274  0.6822190829517920  0.8441698722388641
  0.5445135719366512  0.6793354652401539  0.8421245369787067
  0.5693057193351291  0.7163849722114680  0.8441941982585334
  0.5890186003391097  0.7277131449193386  0.8826140739764342
  0.5693010492712661  0.6935517709148219  0.8825842679776698
  0.5445113535223938  0.7305982077876244  0.8846598080976698
  0.6087333916008502  0.6935478242244739  0.8825914756037555
  0.6780348006716244  0.7050138521645474  0.8119810402561314
  0.6532482587133490  0.6907969926823361  0.7715213560622944
  0.6335272165329557  0.7021287892962617  0.8099353061348958
  0.6335284028920359  0.6793354652401539  0.8421245369787067
  0.6780368527466117  0.6822190829517920  0.8441698722388641
  0.6087396425195023  0.7163813483054130  0.8442001239038328
  0.6583158802266508  0.6935517709148219  0.8825842679776698
  0.4357607250397443  0.5878801983514679  0.9168729661000717
  0.4554770274958422  0.5537143090917920  0.9168486400804026
  0.4554867666920357  0.6278752561216921  0.9148033048202451
  0.4109803855912270  0.6307588738333303  0.9168486400804026
  0.4109685776412665  0.5508306913801536  0.9148033048202451
  0.4751946482241181  0.5878765744454131  0.9168788917453714
  0.4999952165466117  0.6307588738333303  0.9168486400804026
  0.4999834085966515  0.5508306913801536  0.9148033048202451
  0.5247755559951292  0.5878801983514679  0.9168729661000717
  0.5247708859312661  0.5650469970548218  0.9552630358192084
  0.4751883973054660  0.5650430503644740  0.9552702434452939
  0.3912640831351291  0.6649247630930063  0.9168729661000717
  0.4306980063195026  0.6649211391869515  0.9168788917453714
  0.4802789140905136  0.6649247630930063  0.9168729661000717
  0.5197128372748873  0.6649211391869515  0.9168788917453714
  0.5444918584512271  0.5537143090917920  0.9168486400804026
  0.5889982395520358  0.5508306913801536  0.9148033048202451
  0.5642094791795026  0.5878765744454131  0.9168788917453714
  0.5890100475019963  0.6307588738333303  0.9168486400804026
  0.5445015976474205  0.6278752561216921  0.9148033048202451
  0.6780130705074205  0.5508306913801536  0.9148033048202451
  0.6335066894066118  0.5537143090917920  0.9168486400804026
  0.6532243101348871  0.5878765744454131  0.9168788917453714
  0.6137903869505137  0.5878801983514679  0.9168729661000717
  0.5692937450458984  0.6649247630930063  0.9168729661000717
  0.6087276682302722  0.6649211391869515  0.9168788917453714
  0.4110128870068019  0.8306335631562616  0.7372565382933574
  0.3912880317135906  0.7678451813299295  0.7715154304169950
  0.4110022820947012  0.7564740612830089  0.7393022724145930
  0.4307276782685422  0.7964682424613970  0.7372339399206785
  0.3913000060028213  0.8193053904483909  0.6988366625754564
  0.4307339291871948  0.8193017665423362  0.6988425882207558
  0.4110163084589192  0.7851395011887150  0.6988123365557871
  0.3912953359389584  0.7964721891517450  0.7372267322945931
  0.4110140733658821  0.8078402391001537  0.7694457691371681
  0.4555204711454709  0.8335186260245475  0.7393022724145930
  0.4555095289114171  0.7535889984147232  0.7372565382933574
  0.4555225232204580  0.8107238568117919  0.7714911043973257
  0.4803028626689750  0.7678451813299295  0.7715154304169950
  0.5197425092239271  0.7964682424613970  0.7372339399206785
  0.5197487601425796  0.8193017665423362  0.6988425882207558
  0.5000277179621866  0.8306335631562616  0.7372565382933574
  0.5000171130500860  0.7564740612830089  0.7393022724145930
  0.5000289043212663  0.8078402391001537  0.7694457691371681
  0.4803101668943428  0.7964721891517450  0.7372267322945931
  0.5445243598668019  0.7535889984147232  0.7372565382933574
  0.5000311394143040  0.7851395011887150  0.6988123365557871
  0.4803148369582064  0.8193053904483909  0.6988366625754564
  0.4358015507004966  0.8220565447748217  0.8099055001361315
  0.4307219548979642  0.7678415574238746  0.7715213560622944
  0.3912833616497275  0.7450119800332833  0.8099055001361315
  0.4555084968562397  0.7820584169060858  0.8119810402561314
  0.4307157039793115  0.7450080333429353  0.8099127077622169
  0.4110009127175711  0.7791733540378001  0.8099353061348958
  0.4357942464751291  0.7934295369530063  0.8441941982585334
  0.4110020990766514  0.7563800299816923  0.8421245369787067
  0.4555105489312271  0.7592636476933303  0.8441698722388641
  0.5000157436729559  0.7791733540378001  0.8099353061348958
  0.5197367858533489  0.7678415574238746  0.7715213560622944
  0.4752338930300808  0.8220525980844738  0.8099127077622169
  0.5248163816558815  0.8220565447748217  0.8099055001361315
  0.4802981926051123  0.7450119800332833  0.8099055001361315
  0.5197305349346963  0.7450080333429353  0.8099127077622169
  0.5445233278116245  0.7820584169060858  0.8119810402561314
  0.5000169300320356  0.7563800299816923  0.8421245369787067
  0.5248090774305135  0.7934295369530063  0.8441941982585334
  0.5445253798866119  0.7592636476933303  0.8441698722388641
  0.4752281696595027  0.7934259130469516  0.8442001239038328
  0.4358181950535904  0.8963499551899295  0.6988366625754564
  0.4358135249897276  0.8735167538932833  0.7372267322945931
  0.4358062207643598  0.8448897460714678  0.7715154304169950
  0.5248283559451125  0.8735167538932833  0.7372267322945931
  0.4555344975096887  0.8621840659302535  0.6988123365557871
  0.4752521182379643  0.8963463312838745  0.6988425882207558
  0.5248330260089754  0.8963499551899295  0.6988366625754564
  0.4752458673193117  0.8735128072029353  0.7372339399206785
  0.5248210517197445  0.8448897460714678  0.7715154304169950
  0.4752401439487336  0.8448861221654130  0.7715213560622944
  0.6087516168087335  0.7678415574238746  0.7715213560622944
  0.5890319440054703  0.7564740612830089  0.7393022724145930
  0.5693176936243598  0.7678451813299295  0.7715154304169950
  0.5693249978497276  0.7964721891517450  0.7372267322945931
  0.6087573401793116  0.7964682424613970  0.7372339399206785
  0.5890459703696885  0.7851395011887150  0.6988123365557871
  0.5890437352766513  0.8078402391001537  0.7694457691371681
  0.5890425489175711  0.8306335631562616  0.7372565382933574
  0.5693296679135907  0.8193053904483909  0.6988366625754564
  0.5445353021008552  0.8335186260245475  0.7393022724145930
  0.5445373541758426  0.8107238568117919  0.7714911043973257
  0.6087635910979642  0.8193017665423362  0.6988425882207558
  0.5642549749041181  0.8448861221654130  0.7715213560622944
  0.6335391908221865  0.7535889984147232  0.7372565382933574
  0.6780467749608551  0.7564740612830089  0.7393022724145930
  0.6583325245797448  0.7678451813299295  0.7715154304169950
  0.6780585662320361  0.8078402391001537  0.7694457691371681
  0.6780608013250733  0.7851395011887150  0.6988123365557871
  0.6583398288051125  0.7964721891517450  0.7372267322945931
  0.6335521851312271  0.8107238568117919  0.7714911043973257
  0.6583444988689755  0.8193053904483909  0.6988366625754564
  0.6138358826751290  0.8448897460714678  0.7715154304169950
  0.6780573798729559  0.8306335631562616  0.7372565382933574
  0.6335501330562395  0.8335186260245475  0.7393022724145930
  0.6138312126112661  0.8220565447748217  0.8099055001361315
  0.5693130235604968  0.7450119800332833  0.8099055001361315
  0.6087453658900809  0.7450080333429353  0.8099127077622169
  0.5642487239854653  0.8220525980844738  0.8099127077622169
  0.5890305746283404  0.7791733540378001  0.8099353061348958
  0.5890317609874204  0.7563800299816923  0.8421245369787067
  0.5642430006148874  0.7934259130469516  0.8442001239038328
  0.6583278545158814  0.7450119800332833  0.8099055001361315
  0.6335381587670088  0.7820584169060858  0.8119810402561314
  0.6780454055837252  0.7791733540378001  0.8099353061348958
  0.6335402108419966  0.7592636476933303  0.8441698722388641
  0.5642606982746963  0.8735128072029353  0.7372339399206785
  0.5445493284650732  0.8621840659302535  0.6988123365557871
  0.5642669491933489  0.8963463312838745  0.6988425882207558
  0.6138478569643600  0.8963499551899295  0.6988366625754564
  0.6138431869004966  0.8735167538932833  0.7372267322945931
  0.6335641594204577  0.8621840659302535  0.6988123365557871
  0.5445736264008555  0.9367305421337782  0.3759084332069007
  0.5248593760197443  0.9481016621806988  0.4081215912093026
  0.4110522313266117  0.9395201285440996  0.4807760330311719
  0.4307636011362348  0.9508488698167813  0.5191976363960632
  0.5197784320916191  0.9508488698167813  0.5191976363960632
  0.5000670622819964  0.9395201285440996  0.4807760330311719
  0.4803460897620356  0.9508528165071295  0.5191904287699777
  0.5693609207174199  0.9508528165071295  0.5191904287699777
  0.5890818932373809  0.9395201285440996  0.4807760330311719
  0.7670830029166513  0.6031653941155383  0.1880156264048604
  0.7473569612643598  0.5631703363453141  0.1900852876846872
  0.6977760534933487  0.5631667124392591  0.1900912133299869
  0.7867908844487334  0.5631667124392591  0.1900912133299869
  0.7670698422683405  0.5744985090531847  0.2285051634025883
  0.7225625954516246  0.5773835719214705  0.2305508975238238
  0.7422760173362349  0.5659175439813969  0.3011613328714479
  0.7670710286274206  0.5517051849970769  0.2606943942463990
  0.7225646475266119  0.5545888027087150  0.2627397295065566
  0.7028436750066509  0.5659214906717449  0.3011541252453623
  0.7028483450705135  0.5887546919683910  0.2627640555262256
  0.7422822682548873  0.5887510680623361  0.2627699811715254
  0.7225612260744942  0.6000828646762616  0.3011839312441267
  0.7670688102131626  0.6029679275445473  0.3032296653653622
  0.7670828365773813  0.6316333674502536  0.2627397295065566
  0.7225743867228051  0.6287497497386154  0.2606943942463990
  0.7918751503151290  0.6402149010868525  0.1900852876846872
  0.8560846732237253  0.5744985090531847  0.2285051634025883
  0.7918704802512662  0.6173816997902066  0.2284753574038238
  0.8115774264070091  0.5773835719214705  0.2305508975238238
  0.8313028225808502  0.6173777530998583  0.2284825650299094
  0.8115914527712274  0.6060490118271765  0.1900609616650181
  0.8560858595828049  0.5517051849970769  0.2606943942463990
  0.8115794784819966  0.5545888027087150  0.2627397295065566
  0.7918585059620354  0.5659214906717449  0.3011541252453623
  0.8312908482916193  0.5659175439813969  0.3011613328714479
  0.7918631760258983  0.5887546919683910  0.2627640555262256
  0.8312970992102721  0.5887510680623361  0.2627699811715254
  0.8115760570298790  0.6000828646762616  0.3011839312441267
  0.8560836411685472  0.6029679275445473  0.3032296653653622
  0.8560976675327658  0.6316333674502536  0.2627397295065566
  0.8115892176781896  0.6287497497386154  0.2606943942463990
  0.7670948108666118  0.6830935765687147  0.1900609616650181
  0.7670913894144944  0.7285876385362615  0.2285051634025883
  0.7225841425977787  0.7314727014045475  0.2305508975238238
  0.7225863610120360  0.6802099588570767  0.1880156264048604
  0.7473785084105137  0.7172594658283910  0.1900852876846872
  0.6977976006395029  0.7172558419223359  0.1900912133299869
  0.6977913497208501  0.6944223178413970  0.2284825650299094
  0.7473738383466508  0.6944262645317448  0.2284753574038238
  0.7670807845023938  0.6544281366630089  0.2305508975238238
  0.6977856263502720  0.6657956328038747  0.2627699811715254
  0.6977793754316192  0.6429621087229352  0.3011613328714479
  0.7473665341212830  0.6657992567099296  0.2627640555262256
  0.7473618640574201  0.6429660554132834  0.3011541252453623
  0.7670794151252637  0.6771274294178001  0.3011839312441267
  0.7225721683085473  0.6800124922860860  0.3032296653653622
  0.7422975644823886  0.7200066734644739  0.3011613328714479
  0.7225861946727660  0.7086779321917920  0.2627397295065566
  0.7670925757735745  0.7057943144801538  0.2606943942463990
  0.7028652221528048  0.7200106201548219  0.3011541252453623
  0.8115880313191099  0.6515430737947232  0.2285051634025883
  0.7868061806762349  0.6944223178413970  0.2284825650299094
  0.8116010256281505  0.7086779321917920  0.2627397295065566
  0.7867942063870041  0.6429621087229352  0.3011613328714479
  0.7868004573056565  0.6657956328038747  0.2627699811715254
  0.7918800531081895  0.7200106201548219  0.3011541252453623
  0.8115869992639321  0.6800124922860860  0.3032296653653622
  0.8313123954377734  0.7200066734644739  0.3011613328714479
  0.8363766950128049  0.6429660554132834  0.3011541252453623
  0.8363813650766676  0.6657992567099296  0.2627640555262256
  0.8560942460806482  0.6771274294178001  0.3011839312441267
  0.8758090373423885  0.6429621087229352  0.3011613328714479
  0.7225624124335742  0.5772895406201536  0.3333731620879373
  0.7473498897681892  0.5915058462948217  0.3738328930869007
  0.7670708622881501  0.5801731583317919  0.3354184973480949
  0.7225601940193166  0.6285522831676243  0.3759084332069007
  0.7670674408360327  0.6256672202993385  0.3738626990856652
  0.6977736520610408  0.6143354236854129  0.3354487490130639
  0.7473545598320519  0.6143390475914680  0.3354428233677642
  0.6977674011423884  0.5915018996044737  0.3738401007129863
  0.7670568359239321  0.5515077184260859  0.3759084332069007
  0.7670686271951129  0.6028738962432308  0.4060519299294759
  0.7225622460943040  0.6057575139548689  0.4080972651896335
  0.7225482197300863  0.5770920740491627  0.4485872010484391
  0.7028459436382061  0.6399234032145448  0.4081215912093026
  0.6977616777718103  0.5628752145669514  0.4081275168546022
  0.7028412735743429  0.6170902019178989  0.4465116609284391
  0.7225502718050733  0.5542973048364074  0.4807760330311719
  0.7225600110012667  0.6284582518663075  0.4787306977710143
  0.7422736159039269  0.6170862552275508  0.4465188685545248
  0.7422798668225800  0.6399197793084901  0.4081275168546022
  0.7670684608558422  0.6313418695779457  0.4807760330311719
  0.7670554665468020  0.5742070111808770  0.4465414669272036
  0.7670566529058820  0.5514136871247692  0.4787306977710143
  0.7867765087271951  0.5628752145669514  0.4081275168546022
  0.7473425855428214  0.5628788384730065  0.4081215912093026
  0.8115770770496887  0.6057575139548689  0.4080972651896335
  0.7867884830164256  0.6143354236854129  0.3354487490130639
  0.8115750249747014  0.6285522831676243  0.3759084332069007
  0.7867822320977732  0.5915018996044737  0.3738401007129863
  0.8363647207235739  0.5915058462948217  0.3738328930869007
  0.8115772433889590  0.5772895406201536  0.3333731620879373
  0.8363693907874367  0.6143390475914680  0.3354428233677642
  0.8560716668793171  0.5515077184260859  0.3759084332069007
  0.8560822717914173  0.6256672202993385  0.3738626990856652
  0.8560834581504977  0.6028738962432308  0.4060519299294759
  0.8758033139718101  0.6143354236854129  0.3354487490130639
  0.8757970630531580  0.5915018996044737  0.3738401007129863
  0.8560856932435348  0.5801731583317919  0.3354184973480949
  0.8363574164982062  0.5628788384730065  0.4081215912093026
  0.8115651027604580  0.5542973048364074  0.4807760330311719
  0.8560714838612667  0.5514136871247692  0.4787306977710143
  0.8757913396825798  0.5628752145669514  0.4081275168546022
  0.8560702975021866  0.5742070111808770  0.4465414669272036
  0.8115630506854709  0.5770920740491627  0.4485872010484391
  0.8560832918112272  0.6313418695779457  0.4807760330311719
  0.7918607745935906  0.6399234032145448  0.4081215912093026
  0.8312946977779643  0.6399197793084901  0.4081275168546022
  0.7670806014843436  0.6543341053616921  0.3333731620879373
  0.7670804351450732  0.6828020786964074  0.4080972651896335
  0.7225742203835348  0.6572177230733305  0.3354184973480949
  0.7422855901931577  0.6685464643460122  0.3738401007129863
  0.7028532478635738  0.6685504110363601  0.3738328930869007
  0.7225719852904978  0.6799184609847690  0.4060519299294759
  0.7422918411118105  0.6913799884269515  0.3354487490130639
  0.7028579179274368  0.6913836123330063  0.3354428233677642
  0.7225839595797283  0.7313786701032307  0.3333731620879373
  0.7670783830700862  0.7055968479091628  0.3759084332069007
  0.7225707989314176  0.7027117850408771  0.3738626990856652
  0.7670924094343041  0.7342622878148687  0.3354184973480949
  0.7867918049546961  0.6941308199690892  0.4465188685545248
  0.7225588246421865  0.6512515759224153  0.4465414669272036
  0.7670664087808555  0.6541366387907013  0.4485872010484391
  0.6977769739993116  0.6941308199690892  0.4465188685545248
  0.7473594626251123  0.6941347666594372  0.4465116609284391
  0.7670782000520361  0.7055028166078462  0.4787306977710143
  0.7225718189512269  0.7083864343194843  0.4807760330311719
  0.7473641326889751  0.7169679679560834  0.4081215912093026
  0.7225697668762397  0.7311812035322397  0.4485872010484391
  0.7670770136929557  0.7282961406639538  0.4465414669272036
  0.6977832249179644  0.7169643440500284  0.4081275168546022
  0.8560952661004582  0.6828020786964074  0.4080972651896335
  0.7918680788189586  0.6685504110363601  0.3738328930869007
  0.8115868162458821  0.6799184609847690  0.4060519299294759
  0.8115890513389195  0.6572177230733305  0.3354184973480949
  0.8313004211485424  0.6685464643460122  0.3738401007129863
  0.8560954324397284  0.6543341053616921  0.3333731620879373
  0.8313066720671950  0.6913799884269515  0.3354487490130639
  0.7918727488828216  0.6913836123330063  0.3354428233677642
  0.8115856298868022  0.7027117850408771  0.3738626990856652
  0.8115987905351129  0.7313786701032307  0.3333731620879373
  0.8561072403896887  0.7342622878148687  0.3354184973480949
  0.8560932140254706  0.7055968479091628  0.3759084332069007
  0.8758066359100809  0.6941308199690892  0.4465188685545248
  0.8560812397362400  0.6541366387907013  0.4485872010484391
  0.8115736555975712  0.6512515759224153  0.4465414669272036
  0.8560930310074204  0.7055028166078462  0.4787306977710143
  0.8363742935804970  0.6941347666594372  0.4465116609284391
  0.8115866499066114  0.7083864343194843  0.4807760330311719
  0.7867980558733492  0.7169643440500284  0.4081275168546022
  0.8758128868287335  0.7169643440500284  0.4081275168546022
  0.8560918446483404  0.7282961406639538  0.4465414669272036
  0.8115845978316248  0.7311812035322397  0.4485872010484391
  0.8363789636443598  0.7169679679560834  0.4081215912093026
  0.7423095387716195  0.7714668825829353  0.2284825650299094
  0.7028771964420355  0.7714708292732834  0.2284753574038238
  0.7028698922166674  0.7428438214514680  0.2627640555262256
  0.7225959338689587  0.7828388792216920  0.2606943942463990
  0.7225827732206479  0.7541719941593384  0.3011839312441267
  0.7423038154010412  0.7428401975454130  0.2627699811715254
  0.6977951992071953  0.7684245531684899  0.3354487490130639
  0.7670903573593165  0.7570570570276243  0.3032296653653622
  0.7473761069782060  0.7684281770745449  0.3354428233677642
  0.6978009225777733  0.7970512382060123  0.3011613328714479
  0.7473834112035740  0.7970551848963604  0.3011541252453623
  0.7671021486304977  0.8084232348447692  0.3333731620879373
  0.7225957675296887  0.8113068525564072  0.3354184973480949
  0.6978071734964258  0.8198847622869515  0.2627699811715254
  0.7671043837235352  0.7857224969333304  0.2627397295065566
  0.7918847231720525  0.7428438214514680  0.2627640555262256
  0.8115976041760327  0.7541719941593384  0.3011839312441267
  0.7868157535331578  0.7970512382060123  0.3011613328714479
  0.8363909379335908  0.7684281770745449  0.3354428233677642
  0.7868100301625799  0.7684245531684899  0.3354487490130639
  0.7423133882579641  0.8454691179100284  0.3354487490130639
  0.7028794650735907  0.8454727418160832  0.3354428233677642
  0.7225937154547012  0.8341016217691627  0.3032296653653622
  0.7868037792439269  0.7455910290875507  0.3738401007129863
  0.7473714369143430  0.7455949757778987  0.3738328930869007
  0.6977889482885423  0.7455910290875507  0.3738401007129863
  0.7670901743412670  0.7569630257263076  0.4060519299294759
  0.7670889879821866  0.7797563497824155  0.3738626990856652
  0.7225817411654707  0.7826414126507013  0.3759084332069007
  0.7423071373393118  0.8226355938290892  0.3738401007129863
  0.7028747950097279  0.8226395405194372  0.3738328930869007
  0.7225935324366515  0.8340075904678460  0.4060519299294759
  0.7225923460775711  0.8568009145239539  0.3738626990856652
  0.7225815581474203  0.7825473813493846  0.4787306977710143
  0.7225837932404581  0.7598466434379457  0.4080972651896335
  0.7028628207204968  0.7711793314009757  0.4465116609284391
  0.7422951630500808  0.7711753847106277  0.4465188685545248
  0.7028674907843599  0.7940125326976218  0.4081215912093026
  0.7670900080019966  0.7854309990610229  0.4807760330311719
  0.7423014139687336  0.7940089087915668  0.4081275168546022
  0.7225803717883406  0.8053407054054924  0.4465414669272036
  0.7670879559270091  0.8082257682737782  0.4485872010484391
  0.6977985211454655  0.8482199494521661  0.4465188685545248
  0.7670997471981895  0.8595919460909228  0.4787306977710143
  0.7473810097712663  0.8482238961425141  0.4465116609284391
  0.7671019822912273  0.8368912081794843  0.4080972651896335
  0.7918896259651125  0.8226395405194372  0.3738328930869007
  0.8363862678697278  0.7455949757778987  0.3738328930869007
  0.8115965721208555  0.7826414126507013  0.3759084332069007
  0.8561050052966513  0.7569630257263076  0.4060519299294759
  0.8115963891028053  0.7825473813493846  0.4787306977710143
  0.8115986241958424  0.7598466434379457  0.4080972651896335
  0.8313099940054651  0.7711753847106277  0.4465188685545248
  0.7918776516758816  0.7711793314009757  0.4465116609284391
  0.7918823217397445  0.7940125326976218  0.4081215912093026
  0.8561048389573809  0.7854309990610229  0.4807760330311719
  0.8313162449241184  0.7940089087915668  0.4081275168546022
  0.7868133521008500  0.8482199494521661  0.4465188685545248
  0.8115952027437249  0.8053407054054924  0.4465414669272036
  0.7473856798351289  0.8710570974391603  0.4081215912093026
  0.7225933660973808  0.8624755638025612  0.4807760330311719
  0.6978047720641178  0.8710534735331054  0.4081275168546022
  0.7225913140223937  0.8852703330153165  0.4485872010484391
  0.7422678925333490  0.5884595701900285  0.4808062846961408
  0.7028292992851121  0.5656299927994373  0.5191904287699777
  0.7028339693489754  0.5884631940960833  0.4808003590508411
  0.7422616416146962  0.5656260461090892  0.5191976363960632
  0.7670544344916245  0.6026764296722399  0.5212659688899777
  0.6977649997100807  0.6426706108506277  0.5191976363960632
  0.7225468503529557  0.5997913668039540  0.5192202347687421
  0.7473474883358819  0.6426745575409757  0.5191904287699777
  0.7670662257628049  0.6540426074893844  0.5514094656125528
  0.7225480367120357  0.5769980427478459  0.5514094656125528
  0.7670424602023937  0.5512162205537783  0.5939447367315162
  0.7670564865666117  0.5798816604594842  0.5534548008727104
  0.7867678563762346  0.5912104017321661  0.5918764042376018
  0.7670542514735746  0.6025823983709230  0.6240882334540911
  0.7473355140466508  0.5912143484225141  0.5918691966115160
  0.6977592763395030  0.6140439258131054  0.5534850525376792
  0.7867741072948872  0.6140439258131054  0.5534850525376792
  0.7670530651144941  0.6253757224270308  0.5918990026102805
  0.7473401841105136  0.6140475497191602  0.5534791268923797
  0.7225458182977786  0.6282607852953167  0.5939447367315162
  0.7225598446619962  0.6569262252010226  0.5534548008727104
  0.7867798306654655  0.6426706108506277  0.5191976363960632
  0.8363623192912660  0.6426745575409757  0.5191904287699777
  0.7918441302404968  0.5656299927994373  0.5191904287699777
  0.8312764725700811  0.5656260461090892  0.5191976363960632
  0.8757946616208503  0.6426706108506277  0.5191976363960632
  0.8312827234887338  0.5884595701900285  0.4808062846961408
  0.8115616813083401  0.5997913668039540  0.5192202347687421
  0.8560692654470092  0.6026764296722399  0.5212659688899777
  0.8115628676674205  0.5769980427478459  0.5514094656125528
  0.8560572911577785  0.5512162205537783  0.5939447367315162
  0.8560690824289590  0.6025823983709230  0.6240882334540911
  0.8757826873316193  0.5912104017321661  0.5918764042376018
  0.8560713175219965  0.5798816604594842  0.5534548008727104
  0.8363503450020353  0.5912143484225141  0.5918691966115160
  0.8757889382502719  0.6140439258131054  0.5534850525376792
  0.8363550150658982  0.6140475497191602  0.5534791268923797
  0.8560678960698789  0.6253757224270308  0.5918990026102805
  0.8115746756173809  0.6569262252010226  0.5534548008727104
  0.8115606492531630  0.6282607852953167  0.5939447367315162
  0.8560810567181895  0.6540426074893844  0.5514094656125528
  0.7670650394037249  0.6768359315454924  0.5192202347687421
  0.6977712506287335  0.6655041349315669  0.4808062846961408
  0.7473521583997446  0.6655077588376217  0.4808003590508411
  0.7867860815841180  0.6655041349315669  0.4808062846961408
  0.7225577925870091  0.6797209944137782  0.5212659688899777
  0.7422831887608501  0.7197151755921661  0.5191976363960632
  0.7028508464312662  0.7197191222825141  0.5191904287699777
  0.7028555164951290  0.7425523235791601  0.4808003590508411
  0.7422894396795027  0.7425486996731054  0.4808062846961408
  0.7670759816377783  0.7567655591553167  0.5212659688899777
  0.7225683974991096  0.7538804962870308  0.5192202347687421
  0.7422712144716193  0.6682549664737046  0.5918764042376018
  0.7225576095689591  0.6796269631124614  0.6240882334540911
  0.7028388721420354  0.6682589131640525  0.5918691966115160
  0.7028435422058983  0.6910921144606987  0.5534791268923797
  0.7422774653902721  0.6910884905546437  0.5534850525376792
  0.7225564232098788  0.7024202871685693  0.5918990026102805
  0.7670640073485478  0.7053053500368551  0.5939447367315162
  0.7225695838581898  0.7310871722309228  0.5514094656125528
  0.7473570611928044  0.7453034779055909  0.5918691966115160
  0.7670757986197283  0.7566715278539998  0.6240882334540911
  0.7670780337127654  0.7339707899425610  0.5534548008727104
  0.8560798703591098  0.6768359315454924  0.5192202347687421
  0.8758009125395029  0.6655041349315669  0.4808062846961408
  0.8363669893551289  0.6655077588376217  0.4808003590508411
  0.8115726235423937  0.6797209944137782  0.5212659688899777
  0.8312980197162347  0.7197151755921661  0.5191976363960632
  0.7918656773866505  0.7197191222825141  0.5191904287699777
  0.8115844148135741  0.7310871722309228  0.5514094656125528
  0.8115832284544944  0.7538804962870308  0.5192202347687421
  0.8560908125931629  0.7567655591553167  0.5212659688899777
  0.7918703474505138  0.7425523235791601  0.4808003590508411
  0.8313042706348873  0.7425486996731054  0.4808062846961408
  0.7918583731612828  0.6910921144606987  0.5534791268923797
  0.7918537030974202  0.6682589131640525  0.5918691966115160
  0.7867894035223887  0.7452995312152431  0.5918764042376018
  0.8115724405243439  0.6796269631124614  0.6240882334540911
  0.8115712541652633  0.7024202871685693  0.5918990026102805
  0.8312860454270038  0.6682549664737046  0.5918764042376018
  0.8312922963456564  0.6910884905546437  0.5534850525376792
  0.8363718921481892  0.7453034779055909  0.5918691966115160
  0.8758042344777730  0.7452995312152431  0.5918764042376018
  0.8560928646681497  0.7339707899425610  0.5534548008727104
  0.8560906295751132  0.7566715278539998  0.6240882334540911
  0.8560788383039322  0.7053053500368551  0.5939447367315162
  0.7225338440085475  0.5768005761768551  0.6666235045730544
  0.7473282098212831  0.5625873406006987  0.6261578947339180
  0.7867621330056569  0.5625837166946439  0.6261638203792175
  0.7670410908252634  0.5739155133085693  0.6645777704518190
  0.7225478703727657  0.6054660160825612  0.6261335687142489
  0.7422592401823885  0.6167947573552431  0.6645551720791402
  0.7028268978528045  0.6167987040455912  0.6645479644530545
  0.7422654911010416  0.6396282814361822  0.6261638203792175
  0.7028315679166676  0.6396319053422371  0.6261578947339180
  0.7225444489206481  0.6509600780501079  0.6645777704518190
  0.7670422771843436  0.5511221892524614  0.6967670012956295
  0.7422472658931580  0.5653345482367815  0.7372339399206785
  0.7225358960835347  0.5540058069640996  0.6988123365557871
  0.7028149235635738  0.5653384949271297  0.7372267322945931
  0.7422535168118104  0.5881680723177207  0.6988425882207558
  0.7028195936274367  0.5881716962237756  0.6988366625754564
  0.7867654549439272  0.6423791129783200  0.7372339399206785
  0.7670540851343041  0.6310503717056382  0.6988123365557871
  0.7225456352797283  0.6281667539939999  0.6967670012956295
  0.7225324746314173  0.5994998689316462  0.7372565382933574
  0.6977506239885423  0.6423791129783200  0.7372339399206785
  0.7473331126143430  0.6423830596686678  0.7372267322945931
  0.7670400587700860  0.6023849317999320  0.7393022724145930
  0.8560559217806482  0.5739155133085693  0.6645777704518190
  0.8757769639610412  0.5625837166946439  0.6261638203792175
  0.8363430407766675  0.5625873406006987  0.6261578947339180
  0.8115486749639325  0.5768005761768551  0.6666235045730544
  0.8115627013281500  0.6054660160825612  0.6261335687142489
  0.7918417288081890  0.6167987040455912  0.6645479644530545
  0.8312740711377731  0.6167947573552431  0.6645551720791402
  0.7918463988720524  0.6396319053422371  0.6261578947339180
  0.8312803220564261  0.6396282814361822  0.6261638203792175
  0.8312620968485424  0.5653345482367815  0.7372339399206785
  0.8560571081397284  0.5511221892524614  0.6967670012956295
  0.8115507270389195  0.5540058069640996  0.6988123365557871
  0.7918297545189583  0.5653384949271297  0.7372267322945931
  0.7918344245828215  0.5881716962237756  0.6988366625754564
  0.8312683477671949  0.5881680723177207  0.6988425882207558
  0.8115473055868017  0.5994998689316462  0.7372565382933574
  0.8560548897254705  0.6023849317999320  0.7393022724145930
  0.8115604662351128  0.6281667539939999  0.6967670012956295
  0.8560689160896884  0.6310503717056382  0.6988123365557871
  0.8363479435697275  0.6423830596686678  0.7372267322945931
  0.7670638243304975  0.7052113187355383  0.6967670012956295
  0.7670520330593167  0.6538451409183936  0.6666235045730544
  0.7670660594235349  0.6825105808240995  0.6261335687142489
  0.7867774292331577  0.6938393220967816  0.6645551720791402
  0.7473450869035737  0.6938432687871297  0.6645479644530545
  0.6977625982777734  0.6938393220967816  0.6645551720791402
  0.7225574432296886  0.7080949364471766  0.6988123365557871
  0.6977688491964260  0.7166728461777208  0.6261638203792175
  0.7473497569674369  0.7166764700837756  0.6261578947339180
  0.7225553911547016  0.7308897056599321  0.6666235045730544
  0.7670626379714173  0.7280046427916463  0.6645777704518190
  0.6977568749071951  0.6652126370592591  0.6988425882207558
  0.7473377826782059  0.6652162609653142  0.6988366625754564
  0.7867717058625798  0.6652126370592591  0.6988425882207558
  0.7670506636821866  0.6765444336731846  0.7372565382933574
  0.7225434168654706  0.6794294965414706  0.7393022724145930
  0.7422688130393115  0.7194236777198585  0.7372339399206785
  0.7422750639579643  0.7422572018007976  0.6988425882207558
  0.7225540217775708  0.7535889984147232  0.7372565382933574
  0.7028364707097274  0.7194276244102065  0.7372267322945931
  0.7670616059162398  0.7564740612830089  0.7393022724145930
  0.7028411407735906  0.7422608257068526  0.6988366625754564
  0.8560786552858820  0.7052113187355383  0.6967670012956295
  0.8363599178589582  0.6938432687871297  0.6645479644530545
  0.8560808903789192  0.6825105808240995  0.6261335687142489
  0.8757922601885423  0.6938393220967816  0.6645551720791402
  0.8115592798760326  0.6509600780501079  0.6645777704518190
  0.8560668640147017  0.6538451409183936  0.6666235045730544
  0.8115722741850735  0.7080949364471766  0.6988123365557871
  0.7867836801518105  0.7166728461777208  0.6261638203792175
  0.8757985111071953  0.7166728461777208  0.6261638203792175
  0.8560774689268020  0.7280046427916463  0.6645777704518190
  0.8363645879228216  0.7166764700837756  0.6261578947339180
  0.8115702221100859  0.7308897056599321  0.6666235045730544
  0.8363526136335905  0.6652162609653142  0.6988366625754564
  0.8757865368179644  0.6652126370592591  0.6988425882207558
  0.8115582478208554  0.6794294965414706  0.7393022724145930
  0.7918513016651122  0.7194276244102065  0.7372267322945931
  0.8312898949133488  0.7422572018007976  0.6988425882207558
  0.7918559717289751  0.7422608257068526  0.6988366625754564
  0.7225793397331626  0.8338101238968552  0.5212659688899777
  0.7473690354820354  0.7967636870240525  0.5191904287699777
  0.6977927977748873  0.8195932644146436  0.4808062846961408
  0.7028723935774200  0.8738082517655911  0.5191904287699777
  0.7670865865498789  0.8309250610285692  0.5192202347687421
  0.7473737055458982  0.8195968883206989  0.4808003590508411
  0.7423047359070043  0.8738043050752431  0.5191976363960632
  0.7670877729089590  0.8081317369724614  0.5514094656125528
  0.7225813918081501  0.8110153546840995  0.5534548008727104
  0.7867956544410413  0.7681330552961821  0.5534850525376792
  0.7473617312566675  0.7681366792022370  0.5534791268923797
  0.7670746122606482  0.7794648519101076  0.5918990026102805
  0.7422927616177731  0.8223440959567816  0.5918764042376018
  0.7028604192881893  0.8223480426471294  0.5918691966115160
  0.7225779703560327  0.8565094166516461  0.5918990026102805
  0.7422990125364255  0.8451776200377206  0.5534850525376792
  0.7670855544947017  0.8593944795199321  0.5939447367315162
  0.7028650893520522  0.8451812439437758  0.5534791268923797
  0.8115962227635346  0.8110153546840995  0.5534548008727104
  0.7868013778116192  0.7967597403337046  0.5191976363960632
  0.8363838664374199  0.7967636870240525  0.5191904287699777
  0.7868076287302720  0.8195932644146436  0.4808062846961408
  0.8115941706885476  0.8338101238968552  0.5212659688899777
  0.8363765622120520  0.7681366792022370  0.5534791268923797
  0.8115821963993171  0.7823499147783934  0.5939447367315162
  0.7918752502435736  0.8223480426471294  0.5918691966115160
  0.7918799203074367  0.8451812439437758  0.5534791268923797
  0.7028770636412829  0.8966414530622371  0.4808003590508411
  0.7225911310043435  0.8851763017139997  0.5514094656125528
  0.7225791567151127  0.8337160925955382  0.6240882334540911
  0.7670876065696886  0.8365997103071763  0.6261335687142489
  0.6977903963425799  0.8707619756607976  0.6261638203792175
  0.7422870382471948  0.7937174109192592  0.6261638203792175
  0.7422807873285426  0.7708838868383200  0.6645551720791402
  0.6977841454239273  0.8479284515798585  0.6645551720791402
  0.7028484449989584  0.7708878335286680  0.6645479644530545
  0.7225659960668019  0.8050492075331847  0.6645777704518190
  0.7473546597604969  0.7964721891517450  0.7372267322945931
  0.7225671824258819  0.7822558834770768  0.6967670012956295
  0.7670756322804579  0.7851395011887150  0.6988123365557871
  0.6977721711346961  0.7964682424613970  0.7372339399206785
  0.6977784220533487  0.8193017665423362  0.6988425882207558
  0.7473593298243598  0.8193053904483909  0.6988366625754564
  0.8115842484743041  0.7595551455656381  0.6261335687142489
  0.7918632759543431  0.7708878335286680  0.6645479644530545
  0.7918679460182061  0.7937210348253141  0.6261578947339180
  0.8313018692025798  0.7937174109192592  0.6261638203792175
  0.8312956182839270  0.7708838868383200  0.6645551720791402
  0.8808780069812832  0.5887546919683910  0.2627640555262256
  0.8808733369174202  0.5659214906717449  0.3011541252453623
  0.9005908879852635  0.6000828646762616  0.3011839312441267
  0.9253795516789585  0.5915058462948217  0.3738328930869007
  0.9005898559300863  0.6285522831676243  0.3759084332069007
  0.9005920743443437  0.5772895406201536  0.3333731620879373
  0.9005919080050735  0.6057575139548689  0.4080972651896335
  0.8808756055489751  0.6399234032145448  0.4081215912093026
  0.9005884865529560  0.6512515759224153  0.4465414669272036
  0.9202975544441182  0.5884595701900285  0.4808062846961408
  0.8808709354851125  0.6170902019178989  0.4465116609284391
  0.9005896729120360  0.6284582518663075  0.4787306977710143
  0.9203095287333490  0.6399197793084901  0.4081275168546022
  0.9005778816408553  0.5770920740491627  0.4485872010484391
  0.9203032778146962  0.6170862552275508  0.4465188685545248
  0.9005799337158426  0.5542973048364074  0.4807760330311719
  0.8808636312597444  0.5884631940960833  0.4808003590508411
  0.9253722474535907  0.5628788384730065  0.4081215912093026
  0.9450863148166515  0.5514136871247692  0.4787306977710143
  0.9450851284575713  0.5742070111808770  0.4465414669272036
  0.8808875798382059  0.6913836123330063  0.3354428233677642
  0.9006038822943040  0.6572177230733305  0.3354184973480949
  0.8808829097743431  0.6685504110363601  0.3738328930869007
  0.9006016472012669  0.6799184609847690  0.4060519299294759
  0.8808851784058985  0.7425523235791601  0.4808003590508411
  0.9006014808619964  0.7083864343194843  0.4807760330311719
  0.9253818203105136  0.6655077588376217  0.4808003590508411
  0.9450721221131635  0.5512162205537783  0.5939447367315162
  0.9202913035254656  0.5656260461090892  0.5191976363960632
  0.8808589611958816  0.5656299927994373  0.5191904287699777
  0.9450861484773808  0.5798816604594842  0.5534548008727104
  0.9005776986228052  0.5769980427478459  0.5514094656125528
  0.9450840964023938  0.6026764296722399  0.5212659688899777
  0.9005765122637249  0.5997913668039540  0.5192202347687421
  0.9253698460212829  0.6140475497191602  0.5534791268923797
  0.9253651759574201  0.5912143484225141  0.5918691966115160
  0.8808732041166675  0.6910921144606987  0.5534791268923797
  0.9253771502466508  0.6426745575409757  0.5191904287699777
  0.9005874544977784  0.6797209944137782  0.5212659688899777
  0.9005895065727657  0.6569262252010226  0.5534548008727104
  0.8808685340528043  0.6682589131640525  0.5918691966115160
  0.9005860851206481  0.7024202871685693  0.5918990026102805
  0.9005754802085477  0.6282607852953167  0.5939447367315162
  0.8808805083420352  0.7197191222825141  0.5191904287699777
  0.9253578717320523  0.5625873406006987  0.6261578947339180
  0.9005635059193168  0.5768005761768551  0.6666235045730544
  0.9005775322835348  0.6054660160825612  0.6261335687142489
  0.8808565597635738  0.6167987040455912  0.6645479644530545
  0.9005741108314174  0.6509600780501079  0.6645777704518190
  0.9202951530118104  0.6396282814361822  0.6261638203792175
  0.8808612298274368  0.6396319053422371  0.6261578947339180
  0.9005655579943039  0.5540058069640996  0.6988123365557871
  0.8808445854743429  0.5653384949271297  0.7372267322945931
  0.8808492555382058  0.5881716962237756  0.6988366625754564
  0.9005872714797283  0.6796269631124614  0.6240882334540911
  0.7225336609904975  0.5767065448755384  0.7694457691371681
  0.6977449006179641  0.6137524279407975  0.7715213560622944
  0.7473258083889752  0.6137560518468526  0.7715154304169950
  0.7670421108450733  0.5795901625871768  0.7714911043973257
  0.7473211383251120  0.5909228505502063  0.8099055001361315
  0.6977386496993115  0.5909189038598583  0.8099127077622169
  0.7670386893929554  0.6250842245547231  0.8099353061348958
  0.7225314425762397  0.6279692874230091  0.8119810402561314
  0.7670280844808552  0.5509247226814705  0.8119810402561314
  0.7225334946512271  0.6051745182102537  0.8441698722388641
  0.7670398757520358  0.6022909004986152  0.8421245369787067
  0.7473138340997443  0.5622958427283911  0.8441941982585334
  0.6977329263287334  0.5622922188223360  0.8442001239038328
  0.7225194682870093  0.5765090783045476  0.8846598080976698
  0.7422511153795026  0.6393367835638747  0.8442001239038328
  0.7028125221312659  0.6165072061732833  0.8825842679776698
  0.7028171921951289  0.6393404074699294  0.8441941982585334
  0.8115484919458821  0.5767065448755384  0.7694457691371681
  0.8363406393443598  0.6137560518468526  0.7715154304169950
  0.8560569418004581  0.5795901625871768  0.7714911043973257
  0.7867597315733491  0.6137524279407975  0.7715213560622944
  0.7867534806546963  0.5909189038598583  0.8099127077622169
  0.8115462735316246  0.6279692874230091  0.8119810402561314
  0.7867477572841179  0.5622922188223360  0.8442001239038328
  0.7028244964204969  0.6679674152917450  0.8099055001361315
  0.7225454689404580  0.6566347273287151  0.7714911043973257
  0.7422568387500807  0.6679634686013969  0.8099127077622169
  0.7670518500412670  0.6537511096170769  0.7694457691371681
  0.7422630896687333  0.6907969926823361  0.7715213560622944
  0.7028291664843599  0.6908006165883910  0.7715154304169950
  0.7225420474883405  0.7021287892962617  0.8099353061348958
  0.7670496316270090  0.7050138521645474  0.8119810402561314
  0.7225552081366514  0.7307956743586154  0.7694457691371681
  0.6977601968454652  0.7450080333429353  0.8099127077622169
  0.6977664477641180  0.7678415574238746  0.7715213560622944
  0.7225432338474205  0.6793354652401539  0.8421245369787067
  0.7918393273758816  0.6679674152917450  0.8099055001361315
  0.8115602998958426  0.6566347273287151  0.7714911043973257
  0.7918439974397444  0.6908006165883910  0.7715154304169950
  0.7670636579912272  0.7336792920702535  0.7714911043973257
  0.7473473555351289  0.7678451813299295  0.7715154304169950
  0.3022470164204967  0.2836190852009756  0.1557965895622853
  0.3416856096687333  0.3064486625915668  0.1174124454884481
  0.3664612093929557  0.2407358944639537  0.1558263955610498
  0.3416793587500809  0.2836151385106276  0.1558037971883708
  0.2132537326112661  0.4377082146840525  0.1557965895622853
  0.2526860749408503  0.4377042679937045  0.1558037971883708
  0.2329712836791096  0.4718695886885692  0.1558263955610498
  0.2081894330362350  0.5147488327352432  0.1558037971883708
  0.3219777281366512  0.3464473442678461  0.1153368585633220
  0.3664841259162392  0.3721257311922397  0.0851933618407469
  0.2577503745158815  0.3606636499425142  0.1557965895622853
  0.2774679255837250  0.3948250239470308  0.1558263955610498
  0.2774573206716247  0.3206655220737782  0.1578721296822853
  0.2971889677641182  0.3834932273331053  0.1174124454884481
  0.2971827168454654  0.3606597032521662  0.1558037971883708
  0.3219645674883405  0.3177804592054924  0.1558263955610498
  0.3219755097223939  0.3977100868153166  0.1578721296822853
  0.3467652054712662  0.3606636499425142  0.1557965895622853
  0.3467698755351291  0.3834968512391603  0.1174065198431484
  0.3664721516270090  0.3206655220737782  0.1578721296822853
  0.3664827565391097  0.3948250239470308  0.1558263955610498
  0.3664861779912272  0.3493309619794843  0.1173821938234796
  0.3022732336305136  0.4605414159806987  0.1174065198431484
  0.3022685635666507  0.4377082146840525  0.1557965895622853
  0.2774810862320358  0.4234919090093844  0.1153368585633220
  0.2526923258595029  0.4605377920746438  0.1174124454884481
  0.3219874840116244  0.4491702959337783  0.0851933618407469
  0.3219895360866116  0.4263755267210227  0.1173821938234796
  0.3664959171874204  0.4234919090093844  0.1153368585633220
  0.3417071568148874  0.4605377920746438  0.1174124454884481
  0.3417009058962349  0.4377042679937045  0.1558037971883708
  0.3467771797604967  0.4121238590609757  0.0831178217207467
  0.3664947308283402  0.4462852330654923  0.0831476277195110
  0.2577719216620353  0.5147527794255912  0.1557965895622853
  0.2774788678177783  0.4747546515568551  0.1578721296822853
  0.2972042639916194  0.5147488327352432  0.1558037971883708
  0.2774928941819963  0.5034200914625611  0.1173821938234796
  0.3022805378558818  0.4891684238025142  0.0831178217207467
  0.3219861146344942  0.4718695886885692  0.1558263955610498
  0.3219992752828051  0.5005364737509230  0.1153368585633220
  0.3467867526174199  0.5147527794255912  0.1557965895622853
  0.3219980889237253  0.5233297978070309  0.0831476277195110
  0.3417128801854656  0.4891644771121661  0.0831250293468325
  0.3664936987731631  0.4747546515568551  0.1578721296822853
  0.4109687935316246  0.2436209573322397  0.1578721296822853
  0.4357584892804970  0.2065745204594372  0.1557965895622853
  0.4554760403483405  0.2407358944639537  0.1558263955610498
  0.4751908316100808  0.2065705737690892  0.1558037971883708
  0.3912618473758814  0.2836190852009756  0.1557965895622853
  0.3912665174397444  0.3064522864976217  0.1174065198431484
  0.4109828198958424  0.2722863972379457  0.1173821938234796
  0.4306941897054657  0.2836151385106276  0.1558037971883708
  0.4307004406241182  0.3064486625915668  0.1174124454884481
  0.4802766783312662  0.2836190852009756  0.1557965895622853
  0.4802813483951289  0.3064522864976217  0.1174065198431484
  0.4554892009966512  0.2694027795263074  0.1153368585633220
  0.5444908713037249  0.2407358944639537  0.1558263955610498
  0.5247733202358817  0.2065745204594372  0.1557965895622853
  0.4999836244870089  0.2436209573322397  0.1578721296822853
  0.5445040319520359  0.2694027795263074  0.1153368585633220
  0.4999976508512272  0.2722863972379457  0.1173821938234796
  0.5197090206608500  0.2836151385106276  0.1558037971883708
  0.5197152715795024  0.3064486625915668  0.1174124454884481
  0.5642056625654656  0.2065705737690892  0.1558037971883708
  0.5890124818066119  0.2722863972379457  0.1173821938234796
  0.5889984554423937  0.2436209573322397  0.1578721296822853
  0.5692915092866510  0.2836190852009756  0.1557965895622853
  0.5692961793505137  0.3064522864976217  0.1174065198431484
  0.6087238516162348  0.2836151385106276  0.1558037971883708
  0.6087301025348871  0.3064486625915668  0.1174124454884481
  0.4555227224320364  0.4749521181278461  0.0426580907217834
  0.4803148698305135  0.5120016250991601  0.0447277520016100
  0.3912738216651124  0.3350792943194373  0.0831178217207467
  0.4357920107158817  0.4121238590609757  0.0831178217207467
  0.4802886526204969  0.3350792943194373  0.0831178217207467
  0.4752306039641181  0.4349534364515669  0.0447336776469100
  0.3862095220900811  0.4121199123706276  0.0831250293468325
  0.4307061639946962  0.3350753476290892  0.0831250293468325
  0.4752243530454656  0.4121199123706276  0.0831250293468325
  0.4109913727329560  0.3692406683239540  0.0831476277195110
  0.4554989568716246  0.3721257311922397  0.0851933618407469
  0.4109793984437249  0.3177804592054924  0.1558263955610498
  0.4109925590920360  0.3464473442678461  0.1153368585633220
  0.3861975478008500  0.3606597032521662  0.1558037971883708
  0.3862037987195026  0.3834932273331053  0.1174124454884481
  0.4110043670419964  0.4263755267210227  0.1173821938234796
  0.4109903406777782  0.3977100868153166  0.1578721296822853
  0.4357800364266508  0.3606636499425142  0.1557965895622853
  0.4357847064905134  0.3834968512391603  0.1174065198431484
  0.4554869825823936  0.3206655220737782  0.1578721296822853
  0.4752186296748877  0.3834932273331053  0.1174124454884481
  0.4554975874944940  0.3948250239470308  0.1558263955610498
  0.4555010089466114  0.3493309619794843  0.1173821938234796
  0.4752123787562347  0.3606597032521662  0.1558037971883708
  0.4555107481428051  0.4234919090093844  0.1153368585633220
  0.4999942293991095  0.3177804592054924  0.1558263955610498
  0.4110023149670091  0.4491702959337783  0.0851933618407469
  0.3912953688112659  0.4891684238025142  0.0831178217207467
  0.3665056730623936  0.5262148606753166  0.0851933618407469
  0.4110129198791094  0.5233297978070309  0.0831476277195110
  0.4110141062381898  0.5005364737509230  0.1153368585633220
  0.4307277111408500  0.4891644771121661  0.0831250293468325
  0.4555095617837249  0.4462852330654923  0.0831476277195110
  0.4307339620595027  0.5119980011931053  0.0447336776469100
  0.4803101997666506  0.4891684238025142  0.0831178217207467
  0.4555205040177782  0.5262148606753166  0.0851933618407469
  0.4110009455898790  0.4718695886885692  0.1558263955610498
  0.3665077251373809  0.5034200914625611  0.1173821938234796
  0.3862190949470039  0.5147488327352432  0.1558037971883708
  0.3912833945220354  0.4377082146840525  0.1557965895622853
  0.3912880645858983  0.4605414159806987  0.1174065198431484
  0.4307157368516192  0.4377042679937045  0.1558037971883708
  0.4307219877702720  0.4605377920746438  0.1174124454884481
  0.4358015835728044  0.5147527794255912  0.1557965895622853
  0.4555085297285473  0.4747546515568551  0.1578721296822853
  0.4555225560927655  0.5034200914625611  0.1173821938234796
  0.4752339259023888  0.5147488327352432  0.1558037971883708
  0.4803028955412825  0.4605414159806987  0.1174065198431484
  0.4802982254774196  0.4377082146840525  0.1557965895622853
  0.5445375533874203  0.4749521181278461  0.0426580907217834
  0.5248115117351290  0.4349570603576217  0.0447277520016100
  0.5197487930148874  0.5119980011931053  0.0447336776469100
  0.5000311722866115  0.4778357358394842  0.0447034259819412
  0.5693297007858983  0.5120016250991601  0.0447277520016100
  0.5445137878270089  0.3721257311922397  0.0851933618407469
  0.5197209949500812  0.3350753476290892  0.0831250293468325
  0.5248068416712661  0.4121238590609757  0.0831178217207467
  0.5000062036883400  0.3692406683239540  0.0831476277195110
  0.5000073900474202  0.3464473442678461  0.1153368585633220
  0.5000191979973806  0.4263755267210227  0.1173821938234796
  0.5445158399019961  0.3493309619794843  0.1173821938234796
  0.5247995374458981  0.3834968512391603  0.1174065198431484
  0.5247948673820352  0.3606636499425142  0.1557965895622853
  0.5445124184498787  0.3948250239470308  0.1558263955610498
  0.5445018135377784  0.3206655220737782  0.1578721296822853
  0.5000051716331628  0.3977100868153166  0.1578721296822853
  0.5890210346437248  0.3692406683239540  0.0831476277195110
  0.5693034835758817  0.3350792943194373  0.0831178217207467
  0.5642391840008504  0.4121199123706276  0.0831250293468325
  0.6087358259054659  0.3350753476290892  0.0831250293468325
  0.5890200025885476  0.3977100868153166  0.1578721296822853
  0.5890090603544943  0.3177804592054924  0.1558263955610498
  0.5642334606302720  0.3834932273331053  0.1174124454884481
  0.5890222210028050  0.3464473442678461  0.1153368585633220
  0.5445255790981894  0.4234919090093844  0.1153368585633220
  0.5890340289527655  0.4263755267210227  0.1173821938234796
  0.5642272097116194  0.3606597032521662  0.1558037971883708
  0.5197425420962348  0.4891644771121661  0.0831250293468325
  0.5000171459223938  0.4491702959337783  0.0851933618407469
  0.5000277508344946  0.5233297978070309  0.0831476277195110
  0.5445243927391097  0.4462852330654923  0.0831476277195110
  0.5445353349731630  0.5262148606753166  0.0851933618407469
  0.5890425817898789  0.5233297978070309  0.0831476277195110
  0.5693250307220353  0.4891684238025142  0.0831178217207467
  0.5890319768777785  0.4491702959337783  0.0851933618407469
  0.6087573730516196  0.4891644771121661  0.0831250293468325
  0.5248164145281888  0.5147527794255912  0.1557965895622853
  0.5000157765452632  0.4718695886885692  0.1558263955610498
  0.5197305678070039  0.4377042679937045  0.1558037971883708
  0.5000289371935743  0.5005364737509230  0.1153368585633220
  0.5197368187256569  0.4605377920746438  0.1174124454884481
  0.5445373870481499  0.5034200914625611  0.1173821938234796
  0.5445233606839320  0.4747546515568551  0.1578721296822853
  0.5642487568577731  0.5147488327352432  0.1558037971883708
  0.5890306075006480  0.4718695886885692  0.1558263955610498
  0.5693177264966673  0.4605414159806987  0.1174065198431484
  0.5693130564328044  0.4377082146840525  0.1557965895622853
  0.5890437681489586  0.5005364737509230  0.1153368585633220
  0.6087453987623886  0.4377042679937045  0.1558037971883708
  0.6087516496810412  0.4605377920746438  0.1174124454884481
  0.6335057022591096  0.2407358944639537  0.1558263955610498
  0.6977386825716195  0.2836151385106276  0.1558037971883708
  0.6780370519581898  0.3464473442678461  0.1153368585633220
  0.6335306708573810  0.3493309619794843  0.1173821938234796
  0.6583110103058984  0.3064522864976217  0.1174065198431484
  0.6335166444931627  0.3206655220737782  0.1578721296822853
  0.7225314754485475  0.3206655220737782  0.1578721296822853
  0.6583063402420353  0.2836190852009756  0.1557965895622853
  0.6780238913098791  0.3177804592054924  0.1558263955610498
  0.6532420406670038  0.3606597032521662  0.1558037971883708
  0.6335272494052635  0.3948250239470308  0.1558263955610498
  0.6138143684012829  0.3834968512391603  0.1174065198431484
  0.6138096983374199  0.3606636499425142  0.1557965895622853
  0.6335286187823936  0.3721257311922397  0.0851933618407469
  0.6532482915856563  0.3834932273331053  0.1174124454884481
  0.6780348335439319  0.3977100868153166  0.1578721296822853
  0.7028245292928043  0.3606636499425142  0.1557965895622853
  0.7028291993566677  0.3834968512391603  0.1174065198431484
  0.7225420803606483  0.3948250239470308  0.1558263955610498
  0.6583278873881891  0.4377082146840525  0.1557965895622853
  0.6138216726266504  0.4121238590609757  0.0831178217207467
  0.6532540149562347  0.4121199123706276  0.0831250293468325
  0.6335404100535742  0.4234919090093844  0.1153368585633220
  0.6335392236944940  0.4462852330654923  0.0831476277195110
  0.6583325574520521  0.4605414159806987  0.1174065198431484
  0.6780454384560327  0.4718695886885692  0.1558263955610498
  0.6977602297177730  0.4377042679937045  0.1558037971883708
  0.6780488599081502  0.4263755267210227  0.1173821938234796
  0.6780468078331628  0.4491702959337783  0.0851933618407469
  0.7225552410089590  0.4234919090093844  0.1153368585633220
  0.6977664806364255  0.4605377920746438  0.1174124454884481
  0.6532635878131579  0.5147488327352432  0.1558037971883708
  0.6335381916393168  0.4747546515568551  0.1578721296822853
  0.6335522180035351  0.5034200914625611  0.1173821938234796
  0.6138312454835736  0.5147527794255912  0.1557965895622853
  0.6780574127452632  0.5233297978070309  0.0831476277195110
  0.7028460764389584  0.5147527794255912  0.1557965895622853
  0.7225530225947012  0.4747546515568551  0.1578721296822853
  0.6977722040070039  0.4891644771121661  0.0831250293468325
  0.7225670489589194  0.5034200914625611  0.1173821938234796
  0.7422568716223885  0.3606597032521662  0.1558037971883708
  0.7670496644993168  0.3977100868153166  0.1578721296822853
  0.7473473884074369  0.4605414159806987  0.1174065198431484
  0.7473427183435739  0.4377082146840525  0.1557965895622853
  0.7867750606731577  0.4377042679937045  0.1558037971883708
  0.7670602694114175  0.4718695886885692  0.1558263955610498
  0.7422784187685426  0.5147488327352432  0.1558037971883708
  0.2329822259131630  0.5517992162983935  0.1578721296822853
  0.2132752797574200  0.5917973441671294  0.1557965895622853
  0.2527076220870040  0.5917933974767815  0.1558037971883708
  0.2577765917258985  0.5375859807222371  0.1174065198431484
  0.2774894727298788  0.5489141534301077  0.1558263955610498
  0.2775026333781895  0.5775810384924613  0.1153368585633220
  0.2972105149102721  0.5375823568161823  0.1174124454884481
  0.2329928308252635  0.6259587181716462  0.1558263955610498
  0.2577934688081890  0.6688419089086678  0.1557965895622853
  0.2775110198760328  0.7030032829131846  0.1558263955610498
  0.2775004149639322  0.6288437810399320  0.1578721296822853
  0.2972258111377735  0.6688379622183199  0.1558037971883708
  0.3467987269066510  0.5662129885440526  0.0831178217207467
  0.3665162779744943  0.6003743625485694  0.0831476277195110
  0.3862310692362348  0.5662090418537045  0.0831250293468325
  0.3220110832327656  0.5804646562040996  0.1173821938234796
  0.3022947807766679  0.6146305454637757  0.1174065198431484
  0.3219970568685475  0.5517992162983935  0.1578721296822853
  0.3022901107128045  0.5917973441671294  0.1557965895622853
  0.3417287039610414  0.6146269215577207  0.1174124454884481
  0.3467914226812828  0.5375859807222371  0.1174065198431484
  0.3665043036852632  0.5489141534301077  0.1558263955610498
  0.3665174643335741  0.5775810384924613  0.1153368585633220
  0.3913049416681891  0.5917973441671294  0.1557965895622853
  0.3862253458656567  0.5375823568161823  0.1174124454884481
  0.4110118878239323  0.5517992162983935  0.1578721296822853
  0.3913169159574202  0.6432575532855911  0.0831178217207467
  0.3220186040147012  0.7058883457814704  0.1578721296822853
  0.3220208224289590  0.6546256032339999  0.1153368585633220
  0.3468129698274364  0.6916751102053141  0.1174065198431484
  0.3665292722835350  0.6575092209456380  0.1173821938234796
  0.3862406420931578  0.6688379622183199  0.1558037971883708
  0.3862468930118106  0.6916714862992590  0.1174124454884481
  0.4555311089298786  0.6003743625485694  0.0831476277195110
  0.4358135578620351  0.5662129885440526  0.0831178217207467
  0.4555345303819964  0.5548803005810228  0.0447034259819412
  0.4752459001916197  0.5662090418537045  0.0831250293468325
  0.5000386930685474  0.6032594254168552  0.0851933618407469
  0.5000409114828056  0.5519966828693845  0.0426580907217834
  0.4555191346406481  0.5489141534301077  0.1558263955610498
  0.4110224927360329  0.6259587181716462  0.1558263955610498
  0.4358062536366678  0.5375859807222371  0.1174065198431484
  0.4307372839977733  0.5917933974767815  0.1558037971883708
  0.4110259141881501  0.5804646562040996  0.1173821938234796
  0.4555322952889587  0.5775810384924613  0.1153368585633220
  0.4752401768210414  0.5375823568161823  0.1174124454884481
  0.4803197726235737  0.5917973441671294  0.1557965895622853
  0.5000373236914173  0.6259587181716462  0.1558263955610498
  0.4803244426874366  0.6146305454637757  0.1174065198431484
  0.5000267187793169  0.5517992162983935  0.1578721296822853
  0.5000407451435347  0.5804646562040996  0.1173821938234796
  0.4803317469128042  0.6432575532855911  0.0831178217207467
  0.5000492979806478  0.6774189272901078  0.0831476277195110
  0.4555406817868017  0.7030032829131846  0.1558263955610498
  0.4358278007828212  0.6916751102053141  0.1174065198431484
  0.4555300768747014  0.6288437810399320  0.1578721296822853
  0.4110334349700860  0.7058883457814704  0.1578721296822853
  0.4358231307189585  0.6688419089086678  0.1557965895622853
  0.4555420511639319  0.6803039901583936  0.0851933618407469
  0.4555441032389192  0.6575092209456380  0.1173821938234796
  0.4752554730485424  0.6688379622183199  0.1558037971883708
  0.4752617239671955  0.6916714862992590  0.1174124454884481
  0.5000482659254706  0.7058883457814704  0.1578721296822853
  0.5000504843397280  0.6546256032339999  0.1153368585633220
  0.3417440001885425  0.7458825269598585  0.1558037971883708
  0.4307588311439270  0.7458825269598585  0.1558037971883708
  0.3913264888143430  0.7458864736502064  0.1557965895622853
  0.4110474613343042  0.7345537856871764  0.1173821938234796
  0.4110440398821867  0.7800478476547231  0.1558263955610498
  0.4555516240208555  0.7829329105230090  0.1578721296822853
  0.5000588708375709  0.7800478476547231  0.1558263955610498
  0.4555538424351128  0.7316701679755384  0.1153368585633220
  0.4803413197697279  0.7458864736502064  0.1557965895622853
  0.5445493613373812  0.5548803005810228  0.0447034259819412
  0.5248283888174198  0.5662129885440526  0.0831178217207467
  0.5890535240239322  0.6032594254168552  0.0851933618407469
  0.5445459398852633  0.6003743625485694  0.0831476277195110
  0.5642607311470040  0.5662090418537045  0.0831250293468325
  0.5197583658718106  0.6146269215577207  0.1174124454884481
  0.5248210845920522  0.5375859807222371  0.1174065198431484
  0.5197521149531575  0.5917933974767815  0.1558037971883708
  0.5445339655960324  0.5489141534301077  0.1558263955610498
  0.5445471262443435  0.5775810384924613  0.1153368585633220
  0.5642550077764261  0.5375823568161823  0.1174124454884481
  0.5693346035789580  0.5917973441671294  0.1557965895622853
  0.5693392736428214  0.6146305454637757  0.1174065198431484
  0.5890415497347012  0.5517992162983935  0.1578721296822853
  0.6087669459085423  0.5917933974767815  0.1558037971883708
  0.5890555760989191  0.5804646562040996  0.1173821938234796
  0.6087731968271953  0.6146269215577207  0.1174124454884481
  0.5197640892423889  0.6432536065952431  0.0831250293468325
  0.5693465778681890  0.6432575532855911  0.0831178217207467
  0.6087789201977732  0.6432536065952431  0.0831250293468325
  0.5445589341943040  0.6575092209456380  0.1173821938234796
  0.5445568821193166  0.6803039901583936  0.0851933618407469
  0.5890653152951127  0.6546256032339999  0.1153368585633220
  0.5248426317382059  0.6916751102053141  0.1174065198431484
  0.5642765549225798  0.6916714862992590  0.1174124454884481
  0.5248379616743429  0.6688419089086678  0.1557965895622853
  0.5642703040039267  0.6688379622183199  0.1558037971883708
  0.5445555127421865  0.7030032829131846  0.1558263955610498
  0.5890630968808553  0.7058883457814704  0.1578721296822853
  0.5890521546468021  0.6259587181716462  0.1558263955610498
  0.5445449078300861  0.6288437810399320  0.1578721296822853
  0.5197736620993121  0.7458825269598585  0.1558037971883708
  0.5000622922896885  0.7345537856871764  0.1173821938234796
  0.5445664549762398  0.7829329105230090  0.1578721296822853
  0.5445686733904972  0.7316701679755384  0.1153368585633220
  0.5693561507251121  0.7458864736502064  0.1557965895622853
  0.5890737017929557  0.7800478476547231  0.1558263955610498
  0.6087884930546964  0.7458825269598585  0.1558037971883708
  0.5890771232450732  0.7345537856871764  0.1173821938234796
  0.6335607708406481  0.6003743625485694  0.0831476277195110
  0.6138432197728045  0.5662129885440526  0.0831178217207467
  0.6532755621023884  0.5662090418537045  0.0831250293468325
  0.6335619571997279  0.5775810384924613  0.1153368585633220
  0.6138359155474366  0.5375859807222371  0.1174065198431484
  0.6583541045982062  0.6146305454637757  0.1174065198431484
  0.6780563806900861  0.5517992162983935  0.1578721296822853
  0.6583494345343428  0.5917973441671294  0.1557965895622853
  0.6335487965514172  0.5489141534301077  0.1558263955610498
  0.6335597387854709  0.6288437810399320  0.1578721296822853
  0.6780669856021868  0.6259587181716462  0.1558263955610498
  0.7422846696871948  0.5375823568161823  0.1174124454884481
  0.7028507465028213  0.5375859807222371  0.1174065198431484
  0.7225636275068019  0.5489141534301077  0.1558263955610498
  0.7225767881551126  0.5775810384924613  0.1153368585633220
  0.6780704070543039  0.5804646562040996  0.1173821938234796
  0.6977817768639271  0.5917933974767815  0.1558037971883708
  0.6977880277825796  0.6146269215577207  0.1174124454884481
  0.7225745697408553  0.6288437810399320  0.1578721296822853
  0.7670712116454704  0.5517992162983935  0.1578721296822853
  0.7867966078193118  0.5917933974767815  0.1558037971883708
  0.7473642654897277  0.5917973441671294  0.1557965895622853
  0.7670818165575711  0.6259587181716462  0.1558263955610498
  0.6780801462504975  0.6546256032339999  0.1153368585633220
  0.6335737651496888  0.6575092209456380  0.1173821938234796
  0.6532913858779641  0.6916714862992590  0.1174124454884481
  0.6532851349593115  0.6688379622183199  0.1558037971883708
  0.6138527926297277  0.6688419089086678  0.1557965895622853
  0.6138574626935906  0.6916751102053141  0.1174065198431484
  0.6780779278362402  0.7058883457814704  0.1578721296822853
  0.6335703436975708  0.7030032829131846  0.1558263955610498
  0.7225851746529556  0.7030032829131846  0.1558263955610498
  0.7028676235851126  0.6688419089086678  0.1557965895622853
  0.7422999659146963  0.6688379622183199  0.1558037971883708
  0.6583709816804970  0.7458864736502064  0.1557965895622853
  0.4999565464360002  0.0893752648655178  0.2910471949185425
  0.2329455750052311  0.2949246034670562  0.2183684270770040
  0.1884130102329234  0.2175885408532102  0.4364047306016194
  0.1884106088006159  0.2687572520993640  0.5817622662846963
  0.2774278411883082  0.2175885408532102  0.4364047306016194
  0.2774158668990770  0.1661283317347487  0.5090834984431578
  0.2774338145068282  0.3201445848530083  0.5635925715625184
  0.1884489331006156  0.3719691682085948  0.2183684270770040
  0.2329635226129822  0.4489408565853160  0.2728775001963647
  0.1439498897636925  0.5001824441962871  0.3637259627600809
  0.3219819531067694  0.4490137329501332  0.2183684270770040
  0.2774817116637515  0.5259854213268546  0.2728775001963647
  0.3664965426191361  0.5259854213268546  0.2728775001963647
  0.2329395740345207  0.3460204383483929  0.4182350358794416
  0.3664642192898466  0.3716776703362871  0.4364047306016194
  0.3219675773852310  0.4487222350778256  0.4364047306016194
  0.3664701926083669  0.4742337143360854  0.5635925715625184
  0.5889917264314442  0.1922228067376236  0.2001987323548262
  0.5890048988267697  0.2949246034670562  0.2183684270770040
  0.5889773507099055  0.1919313088653159  0.4182350358794416
  0.4109967840621543  0.4490137329501332  0.2183684270770040
  0.4109943826298463  0.5001824441962871  0.3637259627600809
  0.4554790502452315  0.3716776703362871  0.4364047306016194
  0.4554874249960595  0.4230650030899314  0.4182350358794416
  0.4554850235637516  0.4742337143360854  0.5635925715625184
  0.1883986345113852  0.2172970429809025  0.6544410341262348
  0.2329251983129824  0.3457289404760852  0.6362713394040570
  0.3219065078329824  0.1401796018745468  0.7089501072455954
  0.2774098659283671  0.2172241666160853  0.7089501072455954
  0.3664246968837516  0.2172241666160853  0.7089501072455954
  0.3219316545175392  0.2943416077224408  0.6544410341262348
  0.3664222954514439  0.2683928778622391  0.8543076429286723
  0.4554407259452310  0.2684657542270563  0.7997985698093115
  0.3664594164252312  0.4740150928285947  0.7271198019677731
  0.4999553154575976  0.3454374426037775  0.8543076429286723
  0.4999768626037517  0.4995265720868546  0.8543076429286723
  0.5444747026144617  0.4737235949562870  0.9451561054923885
  0.6334620183252893  0.0634265350053161  0.4909138037209800
  0.6334596168929825  0.1145952462514699  0.6362713394040570
  0.6334859669037516  0.1663469532422391  0.3455562680379031
  0.7225043973975395  0.1664198296070562  0.2910471949185425
  0.7225019959652308  0.2175885408532102  0.4364047306016194
  0.7670201850160004  0.2946331055947485  0.4364047306016194
  0.8560433907222130  0.3460204383483929  0.4182350358794416
  0.6780281045329827  0.3463119362207006  0.2001987323548262
  0.7670561078836924  0.4490137329501332  0.2183684270770040
  0.8560553650114440  0.3974806474668545  0.3455562680379031
  0.8115623226452309  0.4745980885732102  0.2910471949185425
  0.7670537064513846  0.5001824441962871  0.3637259627600809
  0.9005855283514439  0.5259854213268546  0.2728775001963647
  0.8115347745283671  0.3716047939714698  0.4909138037209800
  0.9005747521683080  0.5257667998193640  0.4364047306016194
  0.7669962364375387  0.1917126873578256  0.5817622662846963
  0.6779897802329822  0.2431000201114699  0.5635925715625184
  0.7224756459544617  0.1658368338624410  0.7271198019677731
  0.8115120240560005  0.3199259633455179  0.7271198019677731
  0.6334943364344620  0.3713861724639792  0.6544410341262348
  0.7225211416790772  0.4228463815824409  0.5817622662846963
  0.8115359726344620  0.4228463815824409  0.5817622662846963
  0.9005591783406743  0.4742337143360854  0.5635925715625184
  0.2329886692975386  0.6031028624332101  0.2183684270770040
  0.3220118750037514  0.6544901951868545  0.2001987323548262
  0.4555245459698466  0.6286872180562870  0.2910471949185425
  0.4110398783544616  0.7571919919162871  0.2183684270770040
  0.4110482531052900  0.8085793246699314  0.2001987323548262
  0.4555424935775976  0.7827034711745469  0.3455562680379031
  0.6335721554883671  0.7827034711745469  0.3455562680379031
  0.5890635392945206  0.8082878267976238  0.4182350358794416
  0.6335733535944619  0.8339450587855179  0.4364047306016194
  0.6335817283452903  0.8853323915391622  0.4182350358794416
  0.3664953392929234  0.6283957201839795  0.5090834984431578
  0.4555185449991362  0.6797830529376238  0.4909138037209800
  0.3219735507037515  0.5512782790776238  0.5635925715625184
  0.4554945964206745  0.5768626347007008  0.6362713394040570
  0.4555077688160006  0.6795644314301333  0.6544410341262348
  0.5890431902544622  0.7054402849255179  0.5090834984431578
  0.5000163850098465  0.6539800758070564  0.5817622662846963
  0.5445309745222130  0.7309517641837777  0.6362713394040570
  0.6335242583314439  0.5768626347007008  0.6362713394040570
  0.5445561212067693  0.8851137700316717  0.5817622662846963
  0.6335577797668285  0.7824119733022392  0.5635925715625184
  0.4109859802268284  0.6024469903237776  0.7089501072455954
  0.4999924364313848  0.5510596575701333  0.7271198019677731
  0.6335254564375385  0.6281042223116716  0.7271198019677731
  0.5890252149945208  0.7050759106883930  0.7816288750871337
  0.6780280716606747  0.6536157015699315  0.8543076429286723
  0.6335230550052311  0.6792729335578256  0.8724773376508501
  0.4555257164237516  0.8335806845483931  0.7089501072455954
  0.5890503616790773  0.8592379165362871  0.7271198019677731
  0.8115838697913854  0.6286872180562870  0.2910471949185425
  0.8115682959637517  0.5771541325730084  0.4182350358794416
  0.8560745107252899  0.6027384881960853  0.4909138037209800
  0.7670943993113851  0.8595294144085949  0.5090834984431578
  0.7225702092899055  0.8335806845483931  0.7089501072455954
  0.9450809669298462  0.5513511554424410  0.5090834984431578
  0.2774757383452312  0.4234293773270564  0.1456896592354655
  0.5890288474052310  0.3978450217039794  0.0730108913939266
  0.6335434369175975  0.4748167100807006  0.1275199645132876
  0.2774972854913849  0.5775185068101334  0.1456896592354655
  0.3220238492929821  0.7059504043053161  0.1275199645132876
  0.7225798150191360  0.6289058395637775  0.1275199645132876
