Cl F  Mn O  P 
 1.0000000000000000
    65.0000000000000000    0.0000000000000000    0.0000000000000000
     0.0000000000000000   65.0000000000000000    0.0000000000000000
     0.0000000000000000    0.0000000000000000   65.0000000000000000
 Cl  F   Mn  O   P  
 256  45 3201 6313  99
Direct
  0.4751644815993110  0.1548188667783198  0.4465188685545251
  0.4554496903375707  0.1889841874731848  0.4465414669272036
  0.4554508766966509  0.1661908634170767  0.4787306977710146
  0.4802430240951284  0.2032403703883909  0.4808003590508411
  0.5444645212929555  0.1889841874731848  0.4465414669272036
  0.5247469702251120  0.1548228134686678  0.4465116609284394
  0.5444657076520356  0.1661908634170767  0.4787306977710146
  0.5196769472795023  0.2032367464823361  0.4808062846961408
  0.1439335241650732  0.3746238197302535  0.4080972651896339
  0.1439314720900858  0.3974185889430090  0.3759084332069008
  0.1686972192604966  0.2574517338332833  0.5191904287699780
  0.1439075235116240  0.2944981707060857  0.5212659688899779
  0.1636329196854653  0.3344923518844739  0.5191976363960634
  0.1439181284237246  0.3686576725793383  0.5192202347687425
  0.0797205798043594  0.4858342737314679  0.4081215912093027
  0.0994368822604575  0.4516683844717920  0.4080972651896339
  0.1636511448933484  0.4087860850838747  0.4081275168546026
  0.1439396755698786  0.5227468020624154  0.5192202347687425
  0.1636544668316190  0.4885814813675508  0.5191976363960634
  0.3665077251373806  0.5034200914625613  0.1173821938234798
  0.3467914226812827  0.5375859807222372  0.1174065198431490
  0.1884541146481498  0.4004996732256383  0.2627397295065569
  0.3664622294127652  0.2464105437425614  0.2627397295065569
  0.3664482030485470  0.2177451038368551  0.3032296653653624
  0.3467412568928043  0.2577432317055910  0.3011541252453627
  0.3861735992223881  0.2577392850152430  0.3011613328714481
  0.3861798501410406  0.2805728090961822  0.2627699811715255
  0.3467459269566672  0.2805764330022372  0.2627640555262259
  0.3664588079606478  0.2919046057101079  0.3011839312441269
  0.1884520625731624  0.4232944424383936  0.2305508975238240
  0.1687378121920517  0.4346655624853141  0.2627640555262259
  0.2526836735085420  0.4888729792398585  0.3011613328714481
  0.3022781364235733  0.5403371350486681  0.2284753574038241
  0.2329688822468016  0.5230382999347234  0.3011839312441269
  0.3219850825793163  0.5003390071799321  0.2305508975238240
  0.3417047553825792  0.5117065033207977  0.2627699811715255
  0.3665043036852633  0.5489141534301080  0.1558263955610500
  0.3862190949470038  0.5147488327352432  0.1558037971883711
  0.3467867526174195  0.5147527794255911  0.1557965895622855
  0.3417104787531577  0.5403331883583200  0.2284825650299098
  0.3219968738504970  0.5517051849970769  0.2606943942463993
  0.1687211678389578  0.3603721520702065  0.3738328930869010
  0.1884399052658817  0.3717402020186151  0.4060519299294760
  0.1884387189068018  0.3945335260747233  0.3738626990856653
  0.1884147703283401  0.2916131078378000  0.5192202347687425
  0.1884257125623935  0.3715427354476243  0.5212659688899779
  0.3467339526674362  0.2291162238837759  0.3354428233677643
  0.3664599943197275  0.2691112816539997  0.3333731620879377
  0.4554606325716241  0.2689138150830091  0.4485872010484396
  0.4357536864158809  0.3089119429517450  0.4465116609284394
  0.4357463821905133  0.2802849351299295  0.4808003590508411
  0.4554724238428041  0.3202799929001537  0.4787306977710146
  0.2329700686058815  0.5002449758786153  0.3333731620879377
  0.2774785184604576  0.5031285935902536  0.3354184973480950
  0.2577622160043594  0.5372944828499295  0.3354428233677643
  0.1884472597085473  0.5256318649307012  0.5212659688899779
  0.2774761170281500  0.5542973048364074  0.4807760330311722
  0.2577551445081886  0.5656299927994372  0.5191904287699780
  0.2971937377564254  0.5884595701900285  0.4808062846961408
  0.2774726955760322  0.5997913668039538  0.5192202347687425
  0.3664875265314167  0.5997913668039538  0.5192202347687425
  0.3219802797147010  0.6026764296722398  0.5212659688899779
  0.3220066297254702  0.6544281366630090  0.2305508975238240
  0.3022996835697274  0.6944262645317449  0.2284753574038241
  0.3417320258993112  0.6944223178413970  0.2284825650299098
  0.1687642621312658  0.6685504110363604  0.3738328930869010
  0.2081966044608496  0.6685464643460123  0.3738401007129865
  0.2132871212458979  0.7684281770745450  0.3354428233677643
  0.2330013716270086  0.7570570570276244  0.3032296653653624
  0.2527267678008496  0.7970512382060123  0.3011613328714481
  0.2330131628981893  0.8084232348447692  0.3333731620879377
  0.2972329825623881  0.8226355938290892  0.3738401007129865
  0.2578006402328041  0.8226395405194373  0.3738328930869010
  0.1884829995581894  0.6799184609847692  0.4060519299294760
  0.2081908810902717  0.6399197793084901  0.4081275168546026
  0.2972272591918100  0.7940089087915668  0.4081275168546026
  0.2577933360074365  0.7940125326976218  0.4081215912093027
  0.2775193776597278  0.8340075904678461  0.4060519299294760
  0.3220184209966509  0.7057943144801537  0.2606943942463993
  0.3417263025287333  0.6657956328038748  0.2627699811715255
  0.3665210479668015  0.8053407054054924  0.4465414669272036
  0.3862358392285422  0.7711753847106277  0.4465188685545251
  0.4110306841804577  0.7854309990610226  0.4807760330311722
  0.3913143817243594  0.8195968883206988  0.4808003590508411
  0.4555488732312269  0.8624755638025612  0.4807760330311722
  0.4555468211562394  0.8852703330153167  0.4485872010484396
  0.5693057522074364  0.4090812068622373  0.1900852876846875
  0.5247924659497277  0.4118323611886680  0.3011541252453627
  0.5890200025885471  0.3977100868153167  0.1578721296822855
  0.6087396753918101  0.4090775829561824  0.1900912133299871
  0.4751803053748868  0.2802813112238745  0.4808062846961408
  0.5247612131458976  0.2802849351299295  0.4808003590508411
  0.5247565430820351  0.2574517338332833  0.5191904287699780
  0.5444775156019961  0.2461190458702535  0.4807760330311722
  0.5889827103437243  0.2660287522147231  0.4465414669272036
  0.5444740941498782  0.2916131078378000  0.5192202347687425
  0.5445112033766509  0.4232004111370768  0.3333731620879377
  0.5000048222758422  0.4260840288487152  0.3354184973480950
  0.6086975016054650  0.2318634315198584  0.4465188685545251
  0.6334902944823931  0.2689138150830091  0.4485872010484396
  0.6334923465573805  0.2461190458702535  0.4807760330311722
  0.6334889251052630  0.2916131078378000  0.5192202347687425
  0.7028077521389580  0.4115408633163603  0.5191904287699780
  0.5000027702008549  0.4488787980614706  0.3032296653653624
  0.5890316275204575  0.4775442379671765  0.2627397295065569
  0.5890295754454704  0.5003390071799321  0.2305508975238240
  0.5445219913068017  0.4974539443116461  0.2285051634025885
  0.5693153250643596  0.5117101272268527  0.2627640555262259
  0.6087453987623882  0.4377042679937047  0.1558037971883711
  0.5197224430041179  0.4602462942023362  0.3354487490130640
  0.5693129236320519  0.5628788384730063  0.4081215912093027
  0.5693202278574199  0.5915058462948219  0.3738328930869010
  0.7028243964920520  0.4858342737314679  0.4081215912093027
  0.6335214144854705  0.5256318649307012  0.5212659688899779
  0.5890389652843432  0.6028738962432307  0.4060519299294760
  0.6087525701870039  0.5915018996044737  0.3738401007129865
  0.6138144683297272  0.5656299927994372  0.5191904287699780
  0.6532468106593112  0.5656260461090892  0.5191976363960634
  0.7422400944685421  0.4115369166260122  0.5191976363960634
  0.7422463453871949  0.4343704407069515  0.4808062846961408
  0.7473618640574199  0.6429660554132833  0.3011541252453627
  0.7225386468731625  0.4744631536845475  0.3759084332069008
  0.7422640430470036  0.5144573348629354  0.3738401007129865
  0.7422583196764256  0.4858306498254131  0.4081275168546026
  0.7867702578085423  0.5400416904860122  0.4465188685545251
  0.7225253032068016  0.4457022373208770  0.5192202347687425
  0.7670328873454704  0.4485873001891629  0.5212659688899779
  0.7867582835193113  0.4885814813675508  0.5191976363960634
  0.7473259411897274  0.4885854280578988  0.5191904287699780
  0.7670806014843434  0.6543341053616921  0.3333731620879377
  0.7670554665468016  0.5742070111808770  0.4465414669272036
  0.7670566529058818  0.5514136871247691  0.4787306977710146
  0.7918488003043599  0.5884631940960834  0.4808003590508411
  0.8560702975021866  0.5742070111808770  0.4465414669272036
  0.8363527464343429  0.5400456371763603  0.4465116609284394
  0.8312827234887333  0.5884595701900285  0.4808062846961408
  0.8560714838612663  0.5514136871247691  0.4787306977710146
  0.4803365169051121  0.8482238961425143  0.4465116609284394
  0.4752664939595023  0.8966378291561823  0.4808062846961408
  0.5000552543320357  0.8595919460909230  0.4787306977710146
  0.5000540679729557  0.8823852701470308  0.4465414669272036
  0.7225742203835344  0.6572177230733304  0.3354184973480950
  0.7670794151252632  0.6771274294178001  0.3011839312441269
  0.7473737055458980  0.8195968883206988  0.4808003590508411
  0.7670879559270086  0.8082257682737783  0.4485872010484396
  0.8115726235423935  0.6797209944137781  0.5212659688899779
  0.8312980197162345  0.7197151755921661  0.5191976363960634
  0.7918656773866505  0.7197191222825140  0.5191904287699780
  0.7868076287302718  0.8195932644146436  0.4808062846961408
  0.1242148202766671  0.4599584202360833  0.5534791268923799
  0.1439408619289587  0.4999534780063076  0.5514094656125530
  0.1439277012806477  0.4712865929439540  0.5918990026102811
  0.2577407687866504  0.5653384949271295  0.7372267322945933
  0.2774595062135741  0.5767065448755384  0.7694457691371686
  0.2329531251127653  0.5795901625871767  0.7714911043973262
  0.1687330093274365  0.5370029849776219  0.5534791268923799
  0.2577527430758811  0.6167987040455911  0.6645479644530550
  0.2526707458410407  0.6137524279407977  0.7715213560622949
  0.2329425322360322  0.4712865929439540  0.5918990026102811
  0.2081549582225792  0.4855391519531054  0.6261638203792179
  0.3664611765206477  0.5480396598131848  0.8099353061348961
  0.3912545102782056  0.5622958427283909  0.8441941982585338
  0.2971850854054649  0.6167947573552430  0.6645551720791406
  0.2774596892316241  0.5768005761768552  0.6666235045730549
  0.2971793620348870  0.5881680723177207  0.6988425882207565
  0.3912737887928044  0.6423830596686679  0.7372267322945933
  0.3664861451189191  0.6566347273287151  0.7714911043973262
  0.4109913398606479  0.6765444336731848  0.7372565382933578
  0.3664840930439318  0.6794294965414707  0.7393022724145932
  0.3862037658471945  0.6907969926823361  0.7715213560622949
  0.5000157436729554  0.7791733540378001  0.8099353061348961
  0.3664887128904971  0.5769980427478459  0.5514094656125530
  0.3219823317896883  0.5798816604594843  0.5534548008727108
  0.5197185606454652  0.6935478242244738  0.8825914756037559
  0.3416999525179637  0.6140439258131054  0.5534850525376794
  0.5197305349346961  0.7450080333429354  0.8099127077622176
  0.4555119303437247  0.7024202871685694  0.5918990026102811
  0.4803052641012825  0.7166764700837757  0.6261578947339183
  0.4752267216054651  0.6682549664737046  0.5918764042376020
  0.5000215665573806  0.6825105808240997  0.6261335687142492
  0.5000195144823936  0.7053053500368551  0.5939447367315165
  0.6138071641043592  0.5370029849776219  0.5534791268923799
  0.6335332057566510  0.5769980427478459  0.5514094656125530
  0.7473331126143428  0.6423830596686679  0.7372267322945933
  0.7473377826782055  0.6652162609653143  0.6988366625754568
  0.7670506636821861  0.6765444336731848  0.7372565382933578
  0.7225229017744940  0.4968709485670308  0.6645777704518194
  0.6780156549577780  0.4997560114353167  0.6666235045730549
  0.6977353277610410  0.5111235075761824  0.6988425882207565
  0.6532410872887331  0.5369993610715669  0.5534850525376794
  0.7867654549439266  0.6423791129783200  0.7372339399206790
  0.7670540851343036  0.6310503717056380  0.6988123365557876
  0.7867717058625794  0.6652126370592593  0.6988425882207565
  0.7918583731612826  0.6910921144606988  0.5534791268923799
  0.8115844148135741  0.7310871722309229  0.5514094656125530
  0.7473186369643595  0.4599584202360833  0.5534791268923799
  0.6977377291933483  0.4599547963300284  0.5534850525376794
  0.7670445122773806  0.5284214513410228  0.6261335687142492
  0.8115497070191094  0.5483311576854925  0.5918990026102811
  0.7670424602023933  0.5512162205537783  0.5939447367315165
  0.7867621330056562  0.5625837166946438  0.6261638203792179
  0.8312922963456562  0.6910884905546437  0.5534850525376794
  0.7867525601487331  0.4599547963300284  0.5534850525376794
  0.1242101502128041  0.4371252189394371  0.5918691966115164
  0.1439193147828046  0.3458643485232306  0.5514094656125530
  0.3467316511635731  0.4624180766902065  0.8825842679776702
  0.1636424925423882  0.4371212722490891  0.5918764042376020
  0.2132249811681887  0.4371252189394371  0.5918691966115164
  0.2132176769428209  0.4084982111176216  0.6261578947339183
  0.1884373374943035  0.4513768865994846  0.6261335687142492
  0.3912425359889747  0.5108356336099296  0.9168729661000723
  0.1884159566874200  0.2688197837816920  0.5514094656125530
  0.1439095755866114  0.2717034014933303  0.5534548008727108
  0.3861639934931576  0.4624141299998585  0.8825914756037559
  0.4109588384450730  0.4766697443502534  0.9168486400804030
  0.2329319273239317  0.3971270910707012  0.5939447367315165
  0.2526516001271946  0.4084945872115668  0.6261638203792179
  0.3861759677823881  0.5138743391183198  0.8099127077622176
  0.4109567863700858  0.4994645135630090  0.8846598080976704
  0.4109708127343035  0.5281299534687151  0.8441698722388645
  0.3664215036804574  0.1943673388794843  0.7714911043973262
  0.3861391244087335  0.2285296042331053  0.7715213560622949
  0.3912115487866502  0.1289469599732832  0.5918691966115164
  0.4109302862135739  0.1403150099216921  0.6240882334540916
  0.3664239051127650  0.1431986276333307  0.6261335687142492
  0.4109290998544938  0.1631083339778002  0.5918990026102811
  0.3861415258410406  0.1773608929869515  0.6261638203792179
  0.4999546900258817  0.2429439302863076  0.6967670012956300
  0.4999535036668015  0.2657372543424154  0.6645777704518194
  0.5247468374243593  0.2799934372576218  0.6988366625754568
  0.4357128607551287  0.0747355965283910  0.5534791268923799
  0.5247252902782055  0.1259043077745448  0.6988366625754568
  0.5196682949285419  0.2315719336475507  0.6645551720791406
  0.5444610878054702  0.2686223172107012  0.6666235045730549
  0.7670183286058817  0.4482017710155383  0.8421245369787069
  0.7028053507066506  0.4627095745625140  0.6645479644530550
  0.7225240881335740  0.4740776245109229  0.6967670012956300
  0.6780177070327651  0.4769612422225613  0.6988123365557876
  0.5444395406593163  0.1145331877276242  0.6666235045730549
  0.6137401212335900  0.1259043077745448  0.6988366625754568
  0.6779843519366510  0.2429439302863076  0.6967670012956300
  0.6334901114643432  0.2688197837816920  0.5514094656125530
  0.5889837303635345  0.2717034014933303  0.5534548008727108
  0.6779831655775709  0.2657372543424154  0.6645777704518194
  0.7027764993351285  0.2799934372576218  0.6988366625754568
  0.6087013510918102  0.3058656668469513  0.5534850525376794
  0.7867319335085422  0.4368297743767814  0.8099127077622176
  0.7225264895658816  0.4229089132647691  0.5514094656125530
  0.6780201084650729  0.4257925309764073  0.5534548008727108
  0.6531797677885421  0.1545273689060121  0.6645551720791406
  0.6334543716147009  0.1145331877276242  0.6666235045730549
  0.6976979568393114  0.2315719336475507  0.6645551720791406
  0.7472804454651123  0.2315758803378987  0.6645479644530550
  0.7669991828920357  0.2429439302863076  0.6967670012956300
  0.7669979965329552  0.2657372543424154  0.6645777704518194
  0.7422104225195022  0.2799898133515668  0.6988425882207565
  0.3861702772841179  0.1779438887315671  0.1900912133299871
  0.1636592696962342  0.3862440588752430  0.2284825650299098
  0.0549284324058817  0.4487847667601537  0.4060519299294760
  0.0746420373085418  0.4374127701213969  0.3738401007129865
  0.3220208224289586  0.6546256032339999  0.1153368585633223
  0.3468129698274363  0.6916751102053142  0.1174065198431490
  0.3665292722835344  0.6575092209456379  0.1173821938234798
  0.4110474613343036  0.7345537856871764  0.1173821938234798
  0.3913264888143428  0.7458864736502064  0.1557965895622855
  0.4307588311439267  0.7458825269598585  0.1558037971883711
  0.4110440398821864  0.7800478476547231  0.1558263955610500
  0.5248115117351292  0.4349570603576218  0.0447277520016107
  0.8560631260775707  0.4204093795701078  0.2285051634025885
  0.7867966078193113  0.5917933974767815  0.1558037971883711
  0.8115914527712269  0.6060490118271767  0.1900609616650183
  0.7670818165575709  0.6259587181716461  0.1558263955610500
  0.7918751503151288  0.6402149010868526  0.1900852876846875
  0.8808564598351288  0.4346655624853141  0.2627640555262259
  0.7473810097712661  0.8482238961425143  0.4465116609284394
  0.7670997471981895  0.8595919460909230  0.4787306977710146
  0.7868133521008496  0.8482199494521662  0.4465188685545251
  0.5248090774305135  0.7934295369530063  0.8441941982585338
  0.5445233278116240  0.7820584169060859  0.8119810402561316
  0.6137903869505132  0.5878801983514680  0.9168729661000723
  0.6532243101348871  0.5878765744454131  0.9168788917453718
  0.9450861484773808  0.5798816604594843  0.5534548008727108
  0.3219440074896883  0.4766697443502534  0.9168486400804030
  0.3219419554147009  0.4994645135630090  0.8846598080976704
  0.3416616282179636  0.5108320097038741  0.9168788917453718
  0.3467005311604965  0.2057000268425141  0.8099055001361318
  0.3664180822283400  0.2398614008470308  0.8099353061348961
  0.3861328734900802  0.2056960801521661  0.8099127077622176
  0.6335066894066114  0.5537143090917920  0.9168486400804030
  0.5889539589006474  0.2654457564701077  0.8826140739764347
  0.4999331428797278  0.0888548008032306  0.6967670012956300
  0.4554257417591093  0.0860637692362616  0.5918990026102811
  0.6779797320900858  0.3453753840799321  0.8846598080976704
  0.7918104760043596  0.4852512779868527  0.8441941982585338
  0.4751405330208498  0.0518984485413969  0.5918764042376020
  0.5247230216466503  0.0519023952317449  0.5918691966115164
  0.5196467477823883  0.0774828041644738  0.6645551720791406
  0.5444405727144939  0.0860637692362616  0.5918990026102811
  0.8115247263854705  0.4738801579399321  0.8119810402561316
  0.6531740444179642  0.1259006838684900  0.6988425882207565
  0.7669860222437247  0.2142770452239539  0.7372565382933578
  0.2106724286202740  0.2049053683655901  0.3183008666735646
  0.2106592736660821  0.1790288823130398  0.4636594171702766
  0.2106580528987353  0.2046138704932822  0.5363371701981798
  0.2996884803430052  0.1793203801853478  0.2456231136456615
  0.2996765060537742  0.1278601710668861  0.3183018814871999
  0.2996872595756582  0.2049053683655901  0.3183008666735646
  0.3664462345334593  0.1408014341791530  0.2456238620189339
  0.3441958757695047  0.1793210127425132  0.2456220988320258
  0.3887033112983899  0.1793203801853478  0.2456231136456615
  0.3219416195184614  0.1921132389061538  0.2819636964753847
  0.3441839014802738  0.1278608036240515  0.3183008666735646
  0.3219376183396133  0.1663857898022299  0.3183026298604723
  0.3887020905310430  0.2049053683655901  0.3183008666735646
  0.2774090547461535  0.1147771762923078  0.5000000000000000
  0.3219176709400000  0.0891928206692309  0.4273212321584619
  0.2996752852864277  0.1534451592471286  0.3909796345151029
  0.2774210290353844  0.1662373854107692  0.4273212321584619
  0.2996741046214665  0.1790288823130398  0.4636594171702766
  0.2996728838541200  0.2046138704932822  0.5363371701981798
  0.3664358599907688  0.1662373854107692  0.4273212321584619
  0.3886889355768513  0.1790288823130398  0.4636594171702766
  0.3886877148095043  0.2046138704932822  0.5363371701981798
  0.4554730397780746  0.1922616432976141  0.1729450941773954
  0.4332107067248894  0.1793210127425132  0.2456220988320258
  0.4554610654888441  0.1408014341791530  0.2456238620189339
  0.4554650666676922  0.1665288832830769  0.2092849286338465
  0.4777181422537743  0.1793203801853478  0.2456231136456615
  0.5444878707334594  0.1922616432976141  0.1729450941773954
  0.5222255376802738  0.1793210127425132  0.2456220988320258
  0.5444758964442284  0.1408014341791530  0.2456238620189339
  0.5444798976230765  0.1665288832830769  0.2092849286338465
  0.5667329732091591  0.1793203801853478  0.2456231136456615
  0.6112403686356586  0.1793210127425132  0.2456220988320258
  0.6334907273996132  0.1408014341791530  0.2456238620189339
  0.4331867581464280  0.0764005945055900  0.3909796345151029
  0.4776941936753133  0.0763999619484244  0.3909806493287383
  0.4777169214864277  0.2049053683655901  0.3183008666735646
  0.4777061679645438  0.1278601710668861  0.3183018814871999
  0.4331987324356585  0.1278608036240515  0.3183008666735646
  0.4332095260599282  0.2049047358084247  0.3183018814871999
  0.4109524492949976  0.1663857898022299  0.3183026298604723
  0.4331975517706973  0.1534445266899629  0.3909806493287383
  0.4777049471971968  0.1534451592471286  0.3909796345151029
  0.4999672802503824  0.1663857898022299  0.3183026298604723
  0.5444679233338461  0.1150686741646152  0.2819636964753847
  0.5667209989199281  0.1278601710668861  0.3183018814871999
  0.5222015891018124  0.0764005945055900  0.3909796345151029
  0.5667090246306976  0.0763999619484244  0.3909806493287383
  0.5667317524418121  0.2049053683655901  0.3183008666735646
  0.5889861123846153  0.1921132389061538  0.2819636964753847
  0.5889821112057672  0.1663857898022299  0.3183026298604723
  0.6112391879706973  0.2049047358084247  0.3183018814871999
  0.6112283943464276  0.1278608036240515  0.3183008666735646
  0.5222123827260821  0.1534445266899629  0.3909806493287383
  0.5667197781525816  0.1534451592471286  0.3909796345151029
  0.5889741380953843  0.1406530297876921  0.3546424643169235
  0.6112272136814668  0.1534445266899629  0.3909806493287383
  0.4776929729079664  0.1019849501286669  0.4636584023566415
  0.4331855774814668  0.1019843175715013  0.4636594171702766
  0.4109285007165362  0.0634653715653068  0.4636601655435494
  0.4999433316719215  0.0634653715653068  0.4636601655435494
  0.4554586640565363  0.1919701454253066  0.3909813977020106
  0.4109404750057667  0.1149255806837682  0.3909813977020106
  0.4554506909461535  0.1662373854107692  0.4273212321584619
  0.4331843567141199  0.1275693057517438  0.5363371701981798
  0.4554387166569230  0.1147771762923078  0.5000000000000000
  0.4999569057076922  0.1918217410338459  0.5000000000000000
  0.4777025457648886  0.2046138704932822  0.5363371701981798
  0.5667078038633506  0.1019849501286669  0.4636584023566415
  0.5222004084368511  0.1019843175715013  0.4636594171702766
  0.5444535476123074  0.1147771762923078  0.5000000000000000
  0.5889581626273057  0.0634653715653068  0.4636601655435494
  0.5444655219015383  0.1662373854107692  0.4273212321584619
  0.5444734950119207  0.1919701454253066  0.3909813977020106
  0.5889701369165362  0.1149255806837682  0.3909813977020106
  0.5221991876695047  0.1275693057517438  0.5363371701981798
  0.5667173767202739  0.2046138704932822  0.5363371701981798
  0.5889717366630766  0.1918217410338459  0.5000000000000000
  0.6112140186248890  0.1275693057517438  0.5363371701981798
  0.6780009433399996  0.1921132389061538  0.2819636964753847
  0.7002432253018124  0.1278608036240515  0.3183008666735646
  0.6334883259673054  0.1919701454253066  0.3909813977020106
  0.6779889690507691  0.1406530297876921  0.3546424643169235
  0.7447614143525816  0.2049053683655901  0.3183008666735646
  0.7447494400633508  0.1534451592471286  0.3909796345151029
  0.7225031569226903  0.1919701454253066  0.3909813977020106
  0.8115179878780746  0.1919701454253066  0.3909813977020106
  0.6779769947615382  0.0891928206692309  0.4273212321584619
  0.6557226348187355  0.1019849501286669  0.4636584023566415
  0.7002300703476207  0.1019843175715013  0.4636594171702766
  0.6334683785676921  0.1147771762923078  0.5000000000000000
  0.7224832095230769  0.1147771762923078  0.5000000000000000
  0.6557334284430052  0.1790288823130398  0.4636594171702766
  0.7002288495802738  0.1275693057517438  0.5363371701981798
  0.6557322076756578  0.2046138704932822  0.5363371701981798
  0.7447482593983900  0.1790288823130398  0.4636594171702766
  0.7447470386310430  0.2046138704932822  0.5363371701981798
  0.8337618695864277  0.2046138704932822  0.5363371701981798
  0.1439414778642287  0.3719351284037682  0.2456238620189339
  0.1661865803399284  0.3589938652915014  0.3183018814871999
  0.1216791448110430  0.3589944978486670  0.3183008666735646
  0.1439175292857670  0.2690147101668452  0.3909813977020106
  0.1216671705218124  0.3075342887302054  0.3909796345151029
  0.0994248885600000  0.3717867240123077  0.3546424643169235
  0.0994328616703824  0.3975194840268453  0.3183026298604723
  0.1216779641460823  0.3845782209145783  0.3909806493287383
  0.0994129142707689  0.3203265148938462  0.4273212321584619
  0.1216551962325813  0.2560740796117441  0.4636584023566415
  0.1439055549965363  0.2175545010483835  0.4636601655435494
  0.1439311033215383  0.3973710796353845  0.4273212321584619
  0.1216659898568516  0.3331180117961168  0.4636594171702766
  0.1662093081510432  0.4874992717086671  0.2456220988320258
  0.1217019127245437  0.4874986391515014  0.2456231136456615
  0.1661973338618125  0.4360390625902055  0.3183008666735646
  0.1216899384353131  0.4360384300330399  0.3183018814871999
  0.1439510507211517  0.4745640487683837  0.3183026298604723
  0.0771932965306975  0.5130829947745783  0.3183018814871999
  0.0994544088165364  0.5516086135099221  0.3183026298604723
  0.1662201017753130  0.5645432038930398  0.2456231136456615
  0.1217006919571971  0.5130836273317441  0.3183008666735646
  0.1662188810079663  0.5901281920732825  0.3183008666735646
  0.1217114855814669  0.5901275595161168  0.3183018814871999
  0.0771920757633510  0.5386679829548210  0.3909796345151029
  0.1439430776107690  0.4488312887538462  0.3546424643169235
  0.0994424345273054  0.5001484043914606  0.3909813977020106
  0.1216887176679662  0.4616234182132824  0.3909796345151029
  0.1216995112922361  0.5386673503976552  0.3909806493287383
  0.0994464357061536  0.5258758534953847  0.3546424643169235
  0.1439606235780749  0.5771929691329992  0.3909813977020106
  0.1439646247569228  0.6029204182369231  0.3546424643169235
  0.1661841789076208  0.4101625765376551  0.4636594171702766
  0.1216875370030051  0.4872071412791937  0.4636594171702766
  0.1216767433787354  0.4101632090948209  0.4636584023566415
  0.0994304602380747  0.4486881952729991  0.4636601655435494
  0.1216982905248891  0.5642523385778979  0.4636584023566415
  0.1216863162356584  0.5127921294594363  0.5363371701981798
  0.1439486492888439  0.5257327600145376  0.4636601655435494
  0.4109883721626902  0.3207664171576143  0.1002663263358568
  0.4332454489276208  0.3592853631638090  0.1002655779625846
  0.4555065612134594  0.3978109818991529  0.1002663263358568
  0.2997339760676206  0.4363299279053476  0.1002655779625846
  0.2774984464488442  0.5519001113822297  0.1002663263358568
  0.2997555232137746  0.5904190573884243  0.1002655779625846
  0.3887488070230052  0.4363299279053476  0.1002655779625846
  0.3665132774042285  0.5519001113822297  0.1002663263358568
  0.4555281083596133  0.5519001113822297  0.1002663263358568
  0.3887703541691591  0.5904190573884243  0.1002655779625846
  0.2997112081541198  0.3078257866025133  0.1729433309904875
  0.3219535938076923  0.2435734480246155  0.2092849286338465
  0.2106844029095045  0.2563655774840516  0.2456220988320258
  0.2106832222445437  0.2819493005499628  0.3183018814871999
  0.1884301466584614  0.2691578036476922  0.2819636964753847
  0.3219495926288438  0.2178459989206912  0.2456238620189339
  0.2996992338648891  0.2563655774840516  0.2456220988320258
  0.2774529507242287  0.2948905636622298  0.2456238620189339
  0.2774409764349978  0.2434303545437681  0.3183026298604723
  0.2996980531999284  0.2819493005499628  0.3183018814871999
  0.2329603099984612  0.3976625775076923  0.2092849286338465
  0.2774649250134596  0.3463507727806913  0.1729450941773954
  0.2997220017783898  0.3848697187868859  0.1729443458041228
  0.2106951965337746  0.3334095096684245  0.2456231136456615
  0.2329483357092307  0.3462023683892308  0.2819636964753847
  0.1884476926257672  0.3975194840268453  0.3183026298604723
  0.2997100274891588  0.3334095096684245  0.2456231136456615
  0.2997207810110432  0.4104547069671287  0.2456220988320258
  0.3442078500587352  0.2307812218609747  0.1729433309904875
  0.3442186436830049  0.3078251540453474  0.1729443458041228
  0.3219615669180751  0.2693062080391527  0.1729450941773954
  0.3219655680969228  0.2950336571430768  0.1366061607923080
  0.3887260391095046  0.3078257866025133  0.1729433309904875
  0.3887152855876204  0.2307805893038088  0.1729443458041228
  0.4109763978734590  0.2693062080391527  0.1729450941773954
  0.4109803990523075  0.2950336571430768  0.1366061607923080
  0.4332334746383896  0.3078251540453474  0.1729443458041228
  0.3887140648202743  0.2563655774840516  0.2456220988320258
  0.3887128841553127  0.2819493005499628  0.3183018814871999
  0.3664677816796130  0.2948905636622298  0.2456238620189339
  0.4554706383457668  0.2434303545437681  0.3183026298604723
  0.4332215003491591  0.2563649449268859  0.2456231136456615
  0.4332202795818122  0.2819499331071285  0.3183008666735646
  0.4109739964411517  0.3204749192853066  0.3183026298604723
  0.4554945869242287  0.3463507727806913  0.1729450941773954
  0.4554985881030768  0.3720782218846154  0.1366061607923080
  0.3887368327337745  0.3848697187868859  0.1729443458041228
  0.4109899719092308  0.3976625775076923  0.2092849286338465
  0.4554866138138459  0.3206180127661539  0.2092849286338465
  0.3887248584445436  0.3334095096684245  0.2456231136456615
  0.3219631666646151  0.3462023683892308  0.2819636964753847
  0.3664773545365366  0.3975194840268453  0.3183026298604723
  0.3887236376771966  0.3589944978486670  0.3183008666735646
  0.4332322538710429  0.3334101422255902  0.2456220988320258
  0.4554921854919209  0.3975194840268453  0.3183026298604723
  0.2107179243448892  0.4619149160855902  0.1729433309904875
  0.1884636680938460  0.4747071422492308  0.2092849286338465
  0.1884716412042286  0.5004399022637682  0.1729450941773954
  0.2329722842876921  0.4491227866261539  0.1366061607923080
  0.2774864721596133  0.5004399022637682  0.1729450941773954
  0.2997327553002737  0.4619149160855902  0.1729433309904875
  0.2107047693906977  0.4360384300330399  0.3183018814871999
  0.1884596669149979  0.4489796931453068  0.2456238620189339
  0.2107167436799284  0.4874986391515014  0.2456231136456615
  0.2329698828553844  0.5002914978723078  0.2819636964753847
  0.2774744978703823  0.4489796931453068  0.2456238620189339
  0.2997315746353129  0.4874986391515014  0.2456231136456615
  0.2552241391064274  0.4874992717086671  0.2456220988320258
  0.2107287179691591  0.5389588482699629  0.1729443458041228
  0.2997435489245439  0.5389588482699629  0.1729443458041228
  0.2329778559657672  0.5260242578868451  0.2456238620189339
  0.1884732409507690  0.5773360626138461  0.2819636964753847
  0.2107263165368513  0.5901275595161168  0.3183018814871999
  0.2552349327306976  0.5645432038930398  0.2456231136456615
  0.2997303538679660  0.5130836273317441  0.3183008666735646
  0.2774840707273055  0.5516086135099221  0.3183026298604723
  0.2774880719061536  0.5773360626138461  0.2819636964753847
  0.2997411474922361  0.5901275595161168  0.3183018814871999
  0.3887475862556585  0.4619149160855902  0.1729433309904875
  0.3219871152430769  0.4491227866261539  0.1366061607923080
  0.4110019461984612  0.4491227866261539  0.1366061607923080
  0.4555161340703828  0.5004399022637682  0.1729450941773954
  0.3887344313014668  0.4360384300330399  0.3183018814871999
  0.3887356119664276  0.4104547069671287  0.2456220988320258
  0.3664893288257671  0.4489796931453068  0.2456238620189339
  0.3887464055906979  0.4874986391515014  0.2456231136456615
  0.3219847138107694  0.5002914978723078  0.2819636964753847
  0.4332418267279661  0.4360390625902055  0.3183008666735646
  0.4555041597811517  0.4489796931453068  0.2456238620189339
  0.4109955435873058  0.4745640487683837  0.3183026298604723
  0.4332526203522360  0.5130829947745783  0.3183018814871999
  0.3887583798799282  0.5389588482699629  0.1729443458041228
  0.4555201352492304  0.5261673513676923  0.1366061607923080
  0.4110234933446151  0.6032119161092306  0.1366061607923080
  0.4332657753064277  0.5389594808271286  0.1729433309904875
  0.4110194921657670  0.5774844670053068  0.1729450941773954
  0.4110115190553844  0.5517517069907693  0.2092849286338465
  0.3664989016826903  0.5516086135099221  0.3183026298604723
  0.3665108759719210  0.6030688226283837  0.2456238620189339
  0.3887571591125815  0.5645438364502054  0.2456220988320258
  0.4555137326380750  0.5516086135099221  0.3183026298604723
  0.3887559784476209  0.5901275595161168  0.3183018814871999
  0.2106712479553134  0.2304890914315015  0.3909806493287383
  0.1884181723692304  0.2176975945292307  0.3546424643169235
  0.2329363614199998  0.2947421592707693  0.3546424643169235
  0.2996860789106979  0.2304890914315015  0.3909806493287383
  0.2106820014771967  0.3075342887302054  0.3909796345151029
  0.1884397195153841  0.3717867240123077  0.3546424643169235
  0.2106927951014671  0.3845782209145783  0.3909806493287383
  0.2774505492919205  0.3460592749083838  0.3909813977020106
  0.2996968324325814  0.3075342887302054  0.3909796345151029
  0.2997076260568520  0.3845782209145783  0.3909806493287383
  0.2329243871307689  0.2432819501523076  0.4273212321584619
  0.2106700271879660  0.2560740796117441  0.4636584023566415
  0.1884237440473056  0.2945990657899221  0.4636601655435494
  0.2774385750026900  0.2945990657899221  0.4636601655435494
  0.3219392180861536  0.2432819501523076  0.4273212321584619
  0.2996848581433509  0.2560740796117441  0.4636584023566415
  0.2329459342769230  0.3973710796353845  0.4273212321584619
  0.2106915743341200  0.4101632090948209  0.4636584023566415
  0.2106808208122357  0.3331180117961168  0.4636594171702766
  0.2106796000448894  0.3587029999763591  0.5363371701981798
  0.2997064052895046  0.4101632090948209  0.4636584023566415
  0.2996956517676206  0.3331180117961168  0.4636594171702766
  0.2996944310002737  0.3587029999763591  0.5363371701981798
  0.3887009098660826  0.2304890914315015  0.3909806493287383
  0.3219511923753841  0.2947421592707693  0.3546424643169235
  0.4554626652353844  0.2176975945292307  0.3546424643169235
  0.4332083052925813  0.2304897239886670  0.3909796345151029
  0.4109620221519208  0.2690147101668452  0.3909813977020106
  0.3887116633879657  0.3075342887302054  0.3909796345151029
  0.3664693814261529  0.3717867240123077  0.3546424643169235
  0.4554842123815381  0.3717867240123077  0.3546424643169235
  0.3887224570122363  0.3845782209145783  0.3909806493287383
  0.3664574071369229  0.3203265148938462  0.4273212321584619
  0.3886996890987348  0.2560740796117441  0.4636584023566415
  0.4554722380923072  0.3203265148938462  0.4273212321584619
  0.3664454328476919  0.2688663057753845  0.5000000000000000
  0.4109500478626899  0.2175545010483835  0.4636601655435494
  0.4554602638030771  0.2688663057753845  0.5000000000000000
  0.3887104827230054  0.3331180117961168  0.4636594171702766
  0.3219567640534592  0.3716436305314607  0.4636601655435494
  0.3887092619556584  0.3587029999763591  0.5363371701981798
  0.4109715950088440  0.3716436305314607  0.4636601655435494
  0.2329579085661537  0.4488312887538462  0.3546424643169235
  0.2107035486233509  0.4616234182132824  0.3909796345151029
  0.1884492923723074  0.4744156443769232  0.4273212321584619
  0.3219727395215382  0.4488312887538462  0.3546424643169235
  0.2997183795787355  0.4616234182132824  0.3909796345151029
  0.2774720964380746  0.5001484043914606  0.3909813977020106
  0.1884612666615382  0.5258758534953847  0.3546424643169235
  0.2107143422476206  0.5386673503976552  0.3909806493287383
  0.2329794557123075  0.6029204182369231  0.3546424643169235
  0.2997291732030052  0.5386673503976552  0.3909806493287383
  0.2107023679583900  0.4872071412791937  0.4636594171702766
  0.2329555071338459  0.5000000000000000  0.5000000000000000
  0.1884373180830768  0.4229554352584615  0.5000000000000000
  0.2774521490384613  0.4229554352584615  0.5000000000000000
  0.2774601221488441  0.4486881952729991  0.4636601655435494
  0.2997171989137745  0.4872071412791937  0.4636594171702766
  0.3219703380892305  0.5000000000000000  0.5000000000000000
  0.2107011471910431  0.5127921294594363  0.5363371701981798
  0.2107131214802739  0.5642523385778979  0.4636584023566415
  0.1884588652292307  0.5770445647415385  0.5000000000000000
  0.1884668383396133  0.6027773247560759  0.4636601655435494
  0.2997159781464278  0.5127921294594363  0.5363371701981798
  0.2552205570091592  0.5642517060207322  0.4636594171702766
  0.2997279524356585  0.5642523385778979  0.4636584023566415
  0.2774816692949978  0.6027773247560759  0.4636601655435494
  0.2552193362418122  0.5898366942009747  0.5363371701981798
  0.3664869273934594  0.5001484043914606  0.3909813977020106
  0.4332406460630055  0.4616227856561168  0.3909806493287383
  0.4555017583488442  0.5001484043914606  0.3909813977020106
  0.3887440041583899  0.5386673503976552  0.3909806493287383
  0.3219823123784614  0.5514602091184616  0.4273212321584619
  0.4555057595276922  0.5258758534953847  0.3546424643169235
  0.4110091176230767  0.6029204182369231  0.3546424643169235
  0.4109971433338460  0.5514602091184616  0.4273212321584619
  0.3664669799938460  0.4229554352584615  0.5000000000000000
  0.3442126200510431  0.4357475647178978  0.5363371701981798
  0.3664749531042287  0.4486881952729991  0.4636601655435494
  0.4554818109492303  0.4229554352584615  0.5000000000000000
  0.3887308091018123  0.5127921294594363  0.5363371701981798
  0.3219783111996133  0.5257327600145376  0.4636601655435494
  0.3442353879645439  0.5642517060207322  0.4636594171702766
  0.3664885271399997  0.5770445647415385  0.5000000000000000
  0.4109931421549979  0.5257327600145376  0.4636601655435494
  0.4332489981525816  0.5898366942009747  0.5363371701981798
  0.1884852152399999  0.6287962717323076  0.2092849286338465
  0.1662308552971970  0.6415884011917442  0.2456220988320258
  0.2107394714910433  0.6160040455686671  0.1729433309904875
  0.2329994031119209  0.6801133873699220  0.2456238620189339
  0.2552456862525815  0.6415884011917442  0.2456220988320258
  0.2552564798768515  0.7186323333761169  0.2456231136456615
  0.4110314664549979  0.6289446761237681  0.1002663263358568
  0.4555416823953846  0.6802564808507694  0.1366061607923080
  0.2997638753033506  0.7186329659332823  0.2456220988320258
  0.2552576605418123  0.6930486103102055  0.1729433309904875
  0.3665228502611517  0.6545290317468452  0.1729450941773954
  0.3887679527368514  0.6415877686345782  0.2456231136456615
  0.4555297081061536  0.6287962717323076  0.2092849286338465
  0.3887799270260823  0.6930479777530395  0.1729443458041228
  0.4110290650226902  0.6801133873699220  0.2456238620189339
  0.2775175921626901  0.7571579521114606  0.2456238620189339
  0.3220357812134593  0.8342025168529990  0.2456238620189339
  0.2552672333987355  0.7956775306748209  0.2456220988320258
  0.3442820643541200  0.7956775306748209  0.2456220988320258
  0.3665364242969230  0.7828854012153846  0.2092849286338465
  0.4332968953095045  0.7956775306748209  0.2456220988320258
  0.4555592283626901  0.8086181612299221  0.1729450941773954
  0.4110506121688441  0.8342025168529990  0.2456238620189339
  0.1662296746322361  0.6671721242576554  0.3183018814871999
  0.1439725978673055  0.6286531782514605  0.3183026298604723
  0.1884907869180749  0.7056977429929989  0.3183026298604723
  0.2329874288226902  0.6286531782514605  0.3183026298604723
  0.2107370700587354  0.6671727568148209  0.3183008666735646
  0.2329914300015383  0.6543806273553845  0.2819636964753847
  0.2997519010141201  0.6671727568148209  0.3183008666735646
  0.2552445055876206  0.6671721242576554  0.3183018814871999
  0.2775056178734594  0.7056977429929989  0.3183026298604723
  0.2774976447630768  0.6799649829784616  0.3546424643169235
  0.1884947880969227  0.7314251920969230  0.2819636964753847
  0.2107478636830052  0.7442166889991938  0.3183018814871999
  0.1662404281541200  0.7442173215563593  0.3183008666735646
  0.2775096190523075  0.7314251920969230  0.2819636964753847
  0.2997626946383898  0.7442166889991938  0.3183018814871999
  0.2552552591095045  0.7442173215563593  0.3183008666735646
  0.2330010028584612  0.7570095477200002  0.3546424643169235
  0.2552660527337745  0.8212612537407321  0.3183018814871999
  0.2775271650196133  0.8597868724760759  0.3183026298604723
  0.0994639816734595  0.6542375338745375  0.3909813977020106
  0.0772028693876205  0.6157119151391937  0.3909806493287383
  0.1217102648141202  0.6157125476963594  0.3909796345151029
  0.1217210584383900  0.6927564798807323  0.3909806493287383
  0.1662177003430052  0.6157119151391937  0.3909806493287383
  0.1662284538648893  0.6927571124378978  0.3909796345151029
  0.2107250957695047  0.6157125476963594  0.3909796345151029
  0.1884708395184611  0.6285047738600000  0.4273212321584619
  0.1662164795756584  0.6412969033194363  0.4636584023566415
  0.2107239151045436  0.6412962707622708  0.4636594171702766
  0.1217090841491592  0.6412962707622708  0.4636594171702766
  0.1439701964349980  0.6798218894976146  0.4636601655435494
  0.2107226943371970  0.6668812589425130  0.5363371701981798
  0.2552432848202738  0.6927571124378978  0.3909796345151029
  0.2997399267248891  0.6157125476963594  0.3909796345151029
  0.2552313105310431  0.6412969033194363  0.4636584023566415
  0.2997375252925814  0.6668812589425130  0.5363371701981798
  0.2329770542799998  0.6540891294830768  0.5000000000000000
  0.2329890285692305  0.7055493386015387  0.4273212321584619
  0.1439821707242285  0.7312820986160760  0.3909813977020106
  0.1885003597749978  0.8083266633576146  0.3909813977020106
  0.2552540784445437  0.7698010446222706  0.3909806493287383
  0.2997614738710431  0.7698016771794363  0.3909796345151029
  0.2552408833879661  0.7439258236840516  0.5363371701981798
  0.2552421041553128  0.7183408355038090  0.4636594171702766
  0.1884883854857672  0.7568664542391529  0.4636601655435494
  0.2107454622506973  0.7953854002453475  0.4636594171702766
  0.2997590724387355  0.8209703884255901  0.5363371701981798
  0.2552528576771966  0.7953860328025132  0.4636584023566415
  0.2775032164411514  0.7568664542391529  0.4636601655435494
  0.3220062609569228  0.6543806273553845  0.2819636964753847
  0.3665244500076920  0.7314251920969230  0.2819636964753847
  0.3665124757184614  0.6799649829784616  0.3546424643169235
  0.3442581157756584  0.6927571124378978  0.3909796345151029
  0.4555392809630770  0.7314251920969230  0.2819636964753847
  0.3220238069242286  0.7827423077345375  0.3183026298604723
  0.3442700900648895  0.7442173215563593  0.3183008666735646
  0.3220278081030767  0.8084697568384616  0.2819636964753847
  0.3442808836891590  0.8212612537407321  0.3183018814871999
  0.3665419959749978  0.8597868724760759  0.3183026298604723
  0.3220158338138460  0.7570095477200002  0.3546424643169235
  0.3442796629218125  0.8468462419209748  0.3909796345151029
  0.4110426390584612  0.8084697568384616  0.2819636964753847
  0.3887882791156585  0.8212618862978979  0.3183008666735646
  0.4332957146445440  0.8212612537407321  0.3183018814871999
  0.3887763048264276  0.7698016771794363  0.3909796345151029
  0.4110306647692308  0.7570095477200002  0.3546424643169235
  0.3220118326349979  0.7312820986160760  0.3909813977020106
  0.4555153323846152  0.6285047738600000  0.4273212321584619
  0.3887535770153132  0.6412962707622708  0.4636594171702766
  0.3442461414864277  0.6412969033194363  0.4636584023566415
  0.3665100742861538  0.7311336942246155  0.5000000000000000
  0.3442569351106976  0.7183408355038090  0.4636594171702766
  0.3219998583457672  0.6798218894976146  0.4636601655435494
  0.4555249052415382  0.7311336942246155  0.5000000000000000
  0.3665300216857671  0.8083266633576146  0.3909813977020106
  0.3442689093999285  0.7698010446222706  0.3909806493287383
  0.3220254066707690  0.8596384680846154  0.4273212321584619
  0.3665220485753843  0.7825939033430770  0.4273212321584619
  0.3442676886325816  0.7953860328025132  0.4636584023566415
  0.3442557143433506  0.7439258236840516  0.5363371701981798
  0.3665180473965364  0.7568664542391529  0.4636601655435494
  0.3220134323815382  0.8081782589661539  0.5000000000000000
  0.4332825195879663  0.7953860328025132  0.4636584023566415
  0.4555368795307690  0.7825939033430770  0.4273212321584619
  0.3887870984506978  0.8468456093638090  0.3909806493287383
  0.4110402376261535  0.8596384680846154  0.4273212321584619
  0.4332705452987354  0.7439258236840516  0.5363371701981798
  0.4110282633369230  0.8081782589661539  0.5000000000000000
  0.3887739033941199  0.8209703884255901  0.5363371701981798
  0.4110362364473054  0.8339110189806914  0.4636601655435494
  0.3887990727399284  0.8983058184822706  0.3183018814871999
  0.4555608281092305  0.8855143215799999  0.2819636964753847
  0.3220333797811516  0.8853712280991529  0.3909813977020106
  0.3442772614895048  0.8980149531671286  0.5363371701981798
  0.4333052875014667  0.9238901741053475  0.3909806493287383
  0.3887978519725817  0.9238908066625131  0.3909796345151029
  0.4555584266769229  0.9366830328261539  0.4273212321584619
  0.4332920924448893  0.8980149531671286  0.5363371701981798
  0.4333040667341200  0.9494751622855900  0.4636584023566415
  0.5000032031180748  0.3207664171576143  0.1002663263358568
  0.5667569217876205  0.2822407984222705  0.1002655779625846
  0.5222602798830053  0.3592853631638090  0.1002655779625846
  0.5445213921688440  0.3978109818991529  0.1002663263358568
  0.5445429393149979  0.5519001113822297  0.1002663263358568
  0.5667784689337746  0.4363299279053476  0.1002655779625846
  0.6335577702703824  0.5519001113822297  0.1002663263358568
  0.4777851851245439  0.5904190573884243  0.1002655779625846
  0.5890611283657671  0.6289446761237681  0.1002663263358568
  0.6780544121749980  0.4748555466406913  0.1002663263358568
  0.6557932998891594  0.4363299279053476  0.1002655779625846
  0.6558148470353130  0.5904190573884243  0.1002655779625846
  0.6780759593211516  0.6289446761237681  0.1002663263358568
  0.4777301165430052  0.2307805893038088  0.1729443458041228
  0.4777408700648894  0.3078257866025133  0.1729433309904875
  0.4999912288288438  0.2693062080391527  0.1729450941773954
  0.5222375119695047  0.2307812218609747  0.1729433309904875
  0.5222483055937744  0.3078251540453474  0.1729443458041228
  0.5667557010202739  0.3078257866025133  0.1729433309904875
  0.5890060597842286  0.2693062080391527  0.1729450941773954
  0.4999832557184614  0.2435734480246155  0.2092849286338465
  0.4999792545396133  0.2178459989206912  0.2456238620189339
  0.5667437267310435  0.2563655774840516  0.2456220988320258
  0.5889940854949981  0.2178459989206912  0.2456238620189339
  0.5444894704799997  0.2691578036476922  0.2819636964753847
  0.5667425460660822  0.2819493005499628  0.3183018814871999
  0.5445134190584613  0.3720782218846154  0.1366061607923080
  0.5222590591156586  0.3848703513440516  0.1729433309904875
  0.5445014447692306  0.3206180127661539  0.2092849286338465
  0.5445094178796133  0.3463507727806913  0.1729450941773954
  0.5667664946445437  0.3848697187868859  0.1729443458041228
  0.5000127759749979  0.4233953375222298  0.1729450941773954
  0.5222459041614667  0.3589938652915014  0.3183018814871999
  0.4777384686325816  0.3589944978486670  0.3183008666735646
  0.5000008016857672  0.3719351284037682  0.2456238620189339
  0.4777504429218121  0.4104547069671287  0.2456220988320258
  0.5667532995879662  0.3589944978486670  0.3183008666735646
  0.5667652738771971  0.4104547069671287  0.2456220988320258
  0.5445110176261538  0.4232469331307692  0.2819636964753847
  0.6112523429248891  0.2307812218609747  0.1729433309904875
  0.5890100609630766  0.2950336571430768  0.1366061607923080
  0.7002779675045435  0.3078251540453474  0.1729443458041228
  0.6557705319756585  0.3078257866025133  0.1729433309904875
  0.6780129176292305  0.2435734480246155  0.2092849286338465
  0.6557585576864278  0.2563655774840516  0.2456220988320258
  0.6335122745457673  0.2948905636622298  0.2456238620189339
  0.6335162757246150  0.3206180127661539  0.2092849286338465
  0.6557573770214665  0.2819493005499628  0.3183018814871999
  0.6335282500138461  0.3720782218846154  0.1366061607923080
  0.6557813255999284  0.3848697187868859  0.1729443458041228
  0.6780424378857670  0.4233953375222298  0.1729450941773954
  0.6112619157818124  0.3334101422255902  0.2456220988320258
  0.6112607351168514  0.3589938652915014  0.3183018814871999
  0.5890156326411518  0.3719351284037682  0.2456238620189339
  0.6112727094060821  0.4104540744099628  0.2456231136456615
  0.6335258485815386  0.4232469331307692  0.2819636964753847
  0.6557693513106975  0.3334095096684245  0.2456231136456615
  0.6557681305433511  0.3589944978486670  0.3183008666735646
  0.6780304635965363  0.3719351284037682  0.2456238620189339
  0.6557801048325816  0.4104547069671287  0.2456220988320258
  0.5222231362479665  0.2304897239886670  0.3909796345151029
  0.4777157408214665  0.2304890914315015  0.3909806493287383
  0.4999768531073056  0.2690147101668452  0.3909813977020106
  0.4999808542861537  0.2947421592707693  0.3546424643169235
  0.4777264943433505  0.3075342887302054  0.3909796345151029
  0.5444774961907688  0.2176975945292307  0.3546424643169235
  0.5667305717768513  0.2304890914315015  0.3909806493287383
  0.5222339298722362  0.3075336561730401  0.3909806493287383
  0.4999688799969227  0.2432819501523076  0.4273212321584619
  0.4777145200541200  0.2560740796117441  0.4636584023566415
  0.5222219555830052  0.2560734470545782  0.4636594171702766
  0.4999648788180747  0.2175545010483835  0.4636601655435494
  0.5889797097734595  0.2175545010483835  0.4636601655435494
  0.5667293510095048  0.2560740796117441  0.4636584023566415
  0.5444830678688439  0.2945990657899221  0.4636601655435494
  0.5444870690476920  0.3203265148938462  0.4273212321584619
  0.5444990433369229  0.3717867240123077  0.3546424643169235
  0.4777372879676207  0.3845782209145783  0.3909806493287383
  0.5667521189230049  0.3845782209145783  0.3909806493287383
  0.4777253136783897  0.3331180117961168  0.4636594171702766
  0.5222327091048893  0.3331186443532823  0.4636584023566415
  0.4777240929110432  0.3587029999763591  0.5363371701981798
  0.4777360672002739  0.4101632090948209  0.4636584023566415
  0.5889932838092307  0.3459108705169231  0.5000000000000000
  0.5667401446337745  0.3331180117961168  0.4636594171702766
  0.5667508981556585  0.4101632090948209  0.4636584023566415
  0.6334923271461536  0.2176975945292307  0.3546424643169235
  0.5889956852415380  0.2947421592707693  0.3546424643169235
  0.6112379672033508  0.2304897239886670  0.3909796345151029
  0.6557454027322360  0.2304890914315015  0.3909806493287383
  0.6557561562541200  0.3075342887302054  0.3909796345151029
  0.6780105161969228  0.2947421592707693  0.3546424643169235
  0.6335098731134592  0.3460592749083838  0.3909813977020106
  0.6335138742923077  0.3717867240123077  0.3546424643169235
  0.6112595143495047  0.3845788534717440  0.3909796345151029
  0.6557669498783897  0.3845782209145783  0.3909806493287383
  0.6335218474026900  0.3975194840268453  0.3183026298604723
  0.6780280621642288  0.4231038396499222  0.3909813977020106
  0.6335019000030767  0.3203265148938462  0.4273212321584619
  0.6112475400602740  0.3331186443532823  0.4636584023566415
  0.7002623710156584  0.3331186443532823  0.4636584023566415
  0.6557441819648892  0.2560740796117441  0.4636584023566415
  0.6779945407288447  0.2175545010483835  0.4636601655435494
  0.6557549755891593  0.3331180117961168  0.4636594171702766
  0.6334978988242291  0.2945990657899221  0.4636601655435494
  0.5890052580984612  0.3973710796353845  0.4273212321584619
  0.5890012569196131  0.3716436305314607  0.4636601655435494
  0.6112583336845437  0.4101625765376551  0.4636594171702766
  0.6557657291110432  0.4101632090948209  0.4636584023566415
  0.6780200890538459  0.3973710796353845  0.4273212321584619
  0.6780160878749979  0.3716436305314607  0.4636601655435494
  0.7002731646399281  0.4101625765376551  0.4636594171702766
  0.6335114728599999  0.4229554352584615  0.5000000000000000
  0.6557537548218114  0.3587029999763591  0.5363371701981798
  0.6780081147646150  0.3459108705169231  0.5000000000000000
  0.5222698527399283  0.4619142835284245  0.1729443458041228
  0.5000167771538460  0.4491227866261539  0.1366061607923080
  0.4777624172110432  0.4619149160855902  0.1729433309904875
  0.5890316081092307  0.4491227866261539  0.1366061607923080
  0.5445229919153847  0.4747071422492308  0.2092849286338465
  0.5667772481664278  0.4619149160855902  0.1729433309904875
  0.5222686319725813  0.4874992717086671  0.2456220988320258
  0.5222674513076205  0.5130829947745783  0.3183018814871999
  0.4777600157787355  0.5130836273317441  0.3183008666735646
  0.5445189907365364  0.4489796931453068  0.2456238620189339
  0.5667640932122363  0.4360384300330399  0.3183018814871999
  0.5890292066769228  0.5002914978723078  0.2819636964753847
  0.5667748467341200  0.5130836273317441  0.3183008666735646
  0.4777732108353127  0.5389588482699629  0.1729443458041228
  0.5000263500107689  0.5517517069907693  0.2092849286338465
  0.5667880417906977  0.5389588482699629  0.1729443458041228
  0.5000383242999996  0.6032119161092306  0.1366061607923080
  0.5667987953125817  0.6160040455686671  0.1729433309904875
  0.5445445390615382  0.6287962717323076  0.2092849286338465
  0.4777719900679660  0.5645438364502054  0.2456220988320258
  0.5667856403583900  0.5901275595161168  0.3183018814871999
  0.5667868210233505  0.5645438364502054  0.2456220988320258
  0.4777827836922364  0.6415877686345782  0.2456231136456615
  0.4777708094030054  0.5901275595161168  0.3183018814871999
  0.5445405378826905  0.6030688226283837  0.2456238620189339
  0.5667976146476205  0.6415877686345782  0.2456231136456615
  0.6112846836953129  0.4619142835284245  0.1729443458041228
  0.6335457959811517  0.5004399022637682  0.1729450941773954
  0.7002995146506976  0.4619142835284245  0.1729443458041228
  0.6557920791218124  0.4619149160855902  0.1729433309904875
  0.6558028727460823  0.5389588482699629  0.1729443458041228
  0.7003102681725816  0.5389594808271286  0.1729433309904875
  0.6335378228707691  0.4747071422492308  0.2092849286338465
  0.6335338216919210  0.4489796931453068  0.2456238620189339
  0.7002982938833509  0.4874992717086671  0.2456220988320258
  0.6557908984568516  0.4874986391515014  0.2456231136456615
  0.6557896776895048  0.5130836273317441  0.3183008666735646
  0.5890411809661540  0.5517517069907693  0.2092849286338465
  0.6112822822630053  0.5130829947745783  0.3183018814871999
  0.6780440376323078  0.5002914978723078  0.2819636964753847
  0.6780560119215383  0.5517517069907693  0.2092849286338465
  0.6780520107426902  0.5260242578868451  0.2456238620189339
  0.7002971132183898  0.5130829947745783  0.3183018814871999
  0.6113062308414670  0.6160034130115012  0.1729443458041228
  0.5890491540765364  0.5774844670053068  0.1729450941773954
  0.6335593700169232  0.6287962717323076  0.2092849286338465
  0.6780639850319209  0.5774844670053068  0.1729450941773954
  0.6112942565522360  0.5645432038930398  0.2456231136456615
  0.6112930357848892  0.5901281920732825  0.3183008666735646
  0.6335553688380748  0.6030688226283837  0.2456238620189339
  0.6113050100741202  0.6415884011917442  0.2456220988320258
  0.7003078667402740  0.5901281920732825  0.3183008666735646
  0.6558124456030052  0.6415877686345782  0.2456231136456615
  0.7003198410295047  0.6415884011917442  0.2456220988320258
  0.6780655847784615  0.6543806273553845  0.2819636964753847
  0.5000024014323073  0.4488312887538462  0.3546424643169235
  0.4777480414895048  0.4616234182132824  0.3909796345151029
  0.5000103745426902  0.4745640487683837  0.3183026298604723
  0.5667628724448893  0.4616234182132824  0.3909796345151029
  0.5890252054980747  0.4745640487683837  0.3183026298604723
  0.5667736660691595  0.5386673503976552  0.3909806493287383
  0.5222662305402740  0.5386679829548210  0.3909796345151029
  0.5445285635934594  0.5516086135099221  0.3183026298604723
  0.5000239485784614  0.6029204182369231  0.3546424643169235
  0.4777695886356587  0.6157125476963594  0.3909796345151029
  0.5667844195910432  0.6157125476963594  0.3909796345151029
  0.4777468608245438  0.4872071412791937  0.4636594171702766
  0.5000000000000000  0.5000000000000000  0.5000000000000000
  0.4777456400571969  0.5127921294594363  0.5363371701981798
  0.5667616917799282  0.4872071412791937  0.4636594171702766
  0.5890148309553845  0.5000000000000000  0.5000000000000000
  0.5667604710125819  0.5127921294594363  0.5363371701981798
  0.4777684079706975  0.6412962707622708  0.4636594171702766
  0.5000119742892305  0.5514602091184616  0.4273212321584619
  0.4777576143464278  0.5642523385778979  0.4636584023566415
  0.5667724453018119  0.5642523385778979  0.4636584023566415
  0.5445261621611519  0.6027773247560759  0.4636601655435494
  0.5667832389260823  0.6412962707622708  0.4636594171702766
  0.6335314202596133  0.5001484043914606  0.3909813977020106
  0.6335354214384613  0.5258758534953847  0.3546424643169235
  0.6112810614956586  0.5386679829548210  0.3909796345151029
  0.6557777034002742  0.4616234182132824  0.3909796345151029
  0.7002851389291592  0.4616227856561168  0.3909806493287383
  0.6780320633430769  0.4488312887538462  0.3546424643169235
  0.6780400364534597  0.4745640487683837  0.3183026298604723
  0.6557884970245439  0.5386673503976552  0.3909806493287383
  0.7002958924510432  0.5386679829548210  0.3909796345151029
  0.6335194459703826  0.4486881952729991  0.4636601655435494
  0.7002839181618125  0.4872077738363594  0.4636584023566415
  0.6780376350211518  0.5257327600145376  0.4636601655435494
  0.6557765227353130  0.4872071412791937  0.4636594171702766
  0.6780416361999996  0.5514602091184616  0.4273212321584619
  0.6780296619107693  0.5000000000000000  0.5000000000000000
  0.5890387795338458  0.6029204182369231  0.3546424643169235
  0.5890467526442286  0.6286531782514605  0.3183026298604723
  0.6335433945488441  0.5516086135099221  0.3183026298604723
  0.6335529674057672  0.6542375338745375  0.3909813977020106
  0.6557992505464278  0.6157125476963594  0.3909796345151029
  0.6780496093103827  0.5771929691329992  0.3909813977020106
  0.6112798808306976  0.5642517060207322  0.4636594171702766
  0.6335449942953842  0.6285047738600000  0.4273212321584619
  0.6557872762571969  0.5642523385778979  0.4636584023566415
  0.6557980698814666  0.6412962707622708  0.4636594171702766
  0.7002947117860822  0.5642517060207322  0.4636594171702766
  0.5890363781015382  0.6540891294830768  0.5000000000000000
  0.6335409931165364  0.6027773247560759  0.4636601655435494
  0.6780512090569228  0.6540891294830768  0.5000000000000000
  0.7447853629310430  0.3078257866025133  0.1729433309904875
  0.7447733886418121  0.2563655774840516  0.2456220988320258
  0.7447722079768513  0.2819493005499628  0.3183018814871999
  0.7225271055011516  0.2948905636622298  0.2456238620189339
  0.8337870389322360  0.2819493005499628  0.3183018814871999
  0.8115419364565364  0.2948905636622298  0.2456238620189339
  0.7225430809692306  0.3720782218846154  0.1366061607923080
  0.7447961565553129  0.3848697187868859  0.1729443458041228
  0.7670572688411518  0.4233953375222298  0.1729450941773954
  0.7447841822660822  0.3334095096684245  0.2456231136456615
  0.7670373214415380  0.3462023683892308  0.2819636964753847
  0.7447829614987355  0.3589944978486670  0.3183008666735646
  0.7670452945519211  0.3719351284037682  0.2456238620189339
  0.7225406795369229  0.4232469331307692  0.2819636964753847
  0.7447949357879662  0.4104547069671287  0.2456220988320258
  0.8115555104923079  0.4232469331307692  0.2819636964753847
  0.8337990132214665  0.3334095096684245  0.2456231136456615
  0.8560521523969228  0.3462023683892308  0.2819636964753847
  0.8337977924541201  0.3589944978486670  0.3183008666735646
  0.8560601255073056  0.3719351284037682  0.2456238620189339
  0.8338097667433509  0.4104547069671287  0.2456220988320258
  0.7447602336876208  0.2304890914315015  0.3909806493287383
  0.7225151312119207  0.2434303545437681  0.3183026298604723
  0.7447709872095044  0.3075342887302054  0.3909796345151029
  0.8115299621673054  0.2434303545437681  0.3183026298604723
  0.8337750646430052  0.2304890914315015  0.3909806493287383
  0.7670253471523075  0.2947421592707693  0.3546424643169235
  0.7225247040688439  0.3460592749083838  0.3909813977020106
  0.7447817808337746  0.3845782209145783  0.3909806493287383
  0.8115515093134597  0.3975194840268453  0.3183026298604723
  0.7670093716842281  0.2175545010483835  0.4636601655435494
  0.7447590129202739  0.2560740796117441  0.4636584023566415
  0.7225047566692305  0.2688663057753845  0.5000000000000000
  0.8115315619138458  0.3203265148938462  0.4273212321584619
  0.8337738438756582  0.2560740796117441  0.4636584023566415
  0.8115195876246150  0.2688663057753845  0.5000000000000000
  0.7447685857771971  0.3587029999763591  0.5363371701981798
  0.7447698065445436  0.3331180117961168  0.4636594171702766
  0.7670229457199998  0.3459108705169231  0.5000000000000000
  0.7670309188303827  0.3716436305314607  0.4636601655435494
  0.7447805600664278  0.4101632090948209  0.4636584023566415
  0.7670349200092302  0.3973710796353845  0.4273212321584619
  0.7892879955953128  0.4101625765376551  0.4636594171702766
  0.8115411347707691  0.4229554352584615  0.5000000000000000
  0.8337834167325814  0.3587029999763591  0.5363371701981798
  0.8560361769288443  0.2690147101668452  0.3909813977020106
  0.8337858181648892  0.3075342887302054  0.3909796345151029
  0.8337966117891593  0.3845782209145783  0.3909806493287383
  0.9228114427445436  0.3845782209145783  0.3909806493287383
  0.9005663402688442  0.3975194840268453  0.3183026298604723
  0.8560242026396129  0.2175545010483835  0.4636601655435494
  0.8337846374999284  0.3331180117961168  0.4636594171702766
  0.9005463928692305  0.3203265148938462  0.4273212321584619
  0.9227994684553131  0.3331180117961168  0.4636594171702766
  0.8560497509646150  0.3973710796353845  0.4273212321584619
  0.8337953910218123  0.4101632090948209  0.4636584023566415
  0.8783028265506976  0.4101625765376551  0.4636594171702766
  0.9005559657261534  0.4229554352584615  0.5000000000000000
  0.7448069100771969  0.4619149160855902  0.1729433309904875
  0.7225606269365362  0.5004399022637682  0.1729450941773954
  0.7225526538261539  0.4747071422492308  0.2092849286338465
  0.7670668416980749  0.5260242578868451  0.2456238620189339
  0.8115674847815384  0.4747071422492308  0.2092849286338465
  0.7447937551230054  0.4360384300330399  0.3183018814871999
  0.7893011505495047  0.4360390625902055  0.3183008666735646
  0.7893119441737746  0.5130829947745783  0.3183018814871999
  0.7670788159873057  0.5774844670053068  0.1729450941773954
  0.7670708428769231  0.5517517069907693  0.2092849286338465
  0.7448284572233510  0.6160040455686671  0.1729433309904875
  0.7225742009723075  0.6287962717323076  0.2092849286338465
  0.8115890319276923  0.6287962717323076  0.2092849286338465
  0.7448164829341201  0.5645438364502054  0.2456220988320258
  0.7225701997934594  0.6030688226283837  0.2456238620189339
  0.7448272765583900  0.6415877686345782  0.2456231136456615
  0.7893226976956587  0.5901281920732825  0.3183008666735646
  0.7893239184630053  0.5645432038930398  0.2456231136456615
  0.8115850307488441  0.6030688226283837  0.2456238620189339
  0.7893346719848893  0.6415884011917442  0.2456220988320258
  0.7670804157338462  0.6543806273553845  0.2819636964753847
  0.8338205603676209  0.4874986391515014  0.2456231136456615
  0.8783159815048895  0.4360390625902055  0.3183008666735646
  0.8338085860783900  0.4360384300330399  0.3183018814871999
  0.8560816726534595  0.5260242578868451  0.2456238620189339
  0.8338193396002738  0.5130836273317441  0.3183008666735646
  0.9228341705556585  0.5130836273317441  0.3183008666735646
  0.8338421075137745  0.6415877686345782  0.2456231136456615
  0.7670468942984614  0.4488312887538462  0.3546424643169235
  0.7670548674088441  0.4745640487683837  0.3183026298604723
  0.7892999698845438  0.4616227856561168  0.3909806493287383
  0.8115610821703824  0.5001484043914606  0.3909813977020106
  0.7225502523938461  0.5258758534953847  0.3546424643169235
  0.7448033279799284  0.5386673503976552  0.3909806493287383
  0.7893107234064282  0.5386679829548210  0.3909796345151029
  0.8115650833492306  0.5258758534953847  0.3546424643169235
  0.7892987491171968  0.4872077738363594  0.4636584023566415
  0.7447913536906975  0.4872071412791937  0.4636594171702766
  0.8115491078811519  0.4486881952729991  0.4636601655435494
  0.7892867748279665  0.4357475647178978  0.5363371701981798
  0.7225342769257671  0.4486881952729991  0.4636601655435494
  0.7670444928661539  0.5000000000000000  0.5000000000000000
  0.7447901329233509  0.5127921294594363  0.5363371701981798
  0.7670524659765363  0.5257327600145376  0.4636601655435494
  0.8115730564596133  0.5516086135099221  0.3183026298604723
  0.7225598252507688  0.6285047738600000  0.4273212321584619
  0.7670564671553843  0.5514602091184616  0.4273212321584619
  0.7670644402657673  0.5771929691329992  0.3909813977020106
  0.7893215170306976  0.6157119151391937  0.3909806493287383
  0.8115746562061534  0.6285047738600000  0.4273212321584619
  0.7448021072125817  0.5642523385778979  0.4636584023566415
  0.7448129008368514  0.6412962707622708  0.4636594171702766
  0.8115626819169234  0.5770445647415385  0.5000000000000000
  0.7893083219741202  0.5898366942009747  0.5363371701981798
  0.8115706550273055  0.6027773247560759  0.4636601655435494
  0.7670660400123076  0.6540891294830768  0.5000000000000000
  0.8338181589353130  0.5386673503976552  0.3909806493287383
  0.8338073653110435  0.4616234182132824  0.3909796345151029
  0.8560696983642289  0.4745640487683837  0.3183026298604723
  0.8560617252538459  0.4488312887538462  0.3546424643169235
  0.9005759131257671  0.5001484043914606  0.3909813977020106
  0.9228329898906977  0.5386673503976552  0.3909806493287383
  0.8338061846460822  0.4872071412791937  0.4636594171702766
  0.8783135800725815  0.4872077738363594  0.4636584023566415
  0.9228210156014666  0.4872071412791937  0.4636594171702766
  0.8338049638787355  0.5127921294594363  0.5363371701981798
  0.8560593238215385  0.5000000000000000  0.5000000000000000
  0.9228197948341200  0.5127921294594363  0.5363371701981798
  0.8560792712211518  0.5771929691329992  0.3909813977020106
  0.8560712981107692  0.5514602091184616  0.4273212321584619
  0.9450861290661537  0.5514602091184616  0.4273212321584619
  0.8560912455103825  0.6286531782514605  0.3183026298604723
  0.8338289124571969  0.6157125476963594  0.3909796345151029
  0.9228437434125817  0.6157125476963594  0.3909796345151029
  0.9005775128723075  0.5770445647415385  0.5000000000000000
  0.9228317691233507  0.5642523385778979  0.4636584023566415
  0.8560808709676926  0.6540891294830768  0.5000000000000000
  0.8338277317922361  0.6412962707622708  0.4636594171702766
  0.9005854859826903  0.6027773247560759  0.4636601655435494
  0.9228425627476209  0.6412962707622708  0.4636594171702766
  0.6113182051306975  0.6674636221299630  0.1002655779625846
  0.5445565133507688  0.6802564808507694  0.1366061607923080
  0.4777947579814669  0.6930479777530395  0.1729443458041228
  0.5000598714461537  0.7573010455923076  0.1366061607923080
  0.5890747024015381  0.7573010455923076  0.1366061607923080
  0.5890627281123076  0.7058408364738462  0.2092849286338465
  0.5668095889368514  0.6930479777530395  0.1729443458041228
  0.5890707012226902  0.7315735964883836  0.1729450941773954
  0.5445740593180749  0.8086181612299221  0.1729450941773954
  0.6335713443061537  0.6802564808507694  0.1366061607923080
  0.6780775590676922  0.7058408364738462  0.2092849286338465
  0.7448392508476207  0.6930479777530395  0.1729443458041228
  0.6558351734141199  0.7700931750517440  0.1729433309904875
  0.6780855321780748  0.7315735964883836  0.1729450941773954
  0.5668083681695049  0.7186329659332823  0.2456220988320258
  0.5000438959780747  0.6801133873699220  0.2456238620189339
  0.4777935372141201  0.7186329659332823  0.2456220988320258
  0.4777815629248892  0.6671727568148209  0.3183008666735646
  0.5445421376292302  0.6799649829784616  0.3546424643169235
  0.5445501107396135  0.7056977429929989  0.3183026298604723
  0.5667963938802739  0.6671727568148209  0.3183008666735646
  0.4778043308383898  0.7956768981176552  0.2456231136456615
  0.5445620850288442  0.7571579521114606  0.2456238620189339
  0.4778031100710431  0.8212618862978979  0.3183008666735646
  0.4777923565491593  0.7442166889991938  0.3183018814871999
  0.5000534688349979  0.7827423077345375  0.3183026298604723
  0.5668071875045438  0.7442166889991938  0.3183018814871999
  0.6558231991248890  0.7186329659332823  0.2456220988320258
  0.6113145829310429  0.7442173215563593  0.3183008666735646
  0.6558220184599284  0.7442166889991938  0.3183018814871999
  0.6335649416949979  0.7056977429929989  0.3183026298604723
  0.6335569685846152  0.6799649829784616  0.3546424643169235
  0.5668191617937748  0.7956768981176552  0.2456231136456615
  0.5890723009692306  0.8084697568384616  0.2819636964753847
  0.6335769159842287  0.7571579521114606  0.2456238620189339
  0.6558339927491591  0.7956768981176552  0.2456231136456615
  0.5668179410264276  0.8212618862978979  0.3183008666735646
  0.5890603266799999  0.7570095477200002  0.3546424643169235
  0.6558327719818122  0.8212618862978979  0.3183008666735646
  0.4777803822599284  0.6927564798807323  0.3909806493287383
  0.5000414945457671  0.7312820986160760  0.3909813977020106
  0.5667939924479662  0.7183414680609749  0.4636584023566415
  0.5667952132153133  0.6927564798807323  0.3909806493287383
  0.5000295202565361  0.6798218894976146  0.4636601655435494
  0.5667820181587353  0.6668812589425130  0.5363371701981798
  0.5445596835965363  0.8083266633576146  0.3909813977020106
  0.5000430942923075  0.8081782589661539  0.5000000000000000
  0.4777887343495049  0.8209703884255901  0.5363371701981798
  0.5445477093073056  0.7568664542391529  0.4636601655435494
  0.5668047860722359  0.7953854002453475  0.4636594171702766
  0.5890483523907689  0.7055493386015387  0.4273212321584619
  0.5890563255011518  0.7312820986160760  0.3909813977020106
  0.6113026086418125  0.6927571124378978  0.3909796345151029
  0.6558100441706978  0.6927564798807323  0.3909806493287383
  0.6780631833461535  0.7055493386015387  0.4273212321584619
  0.6780591821673057  0.6798218894976146  0.4636601655435494
  0.6557968491141201  0.6668812589425130  0.5363371701981798
  0.6558088234033510  0.7183414680609749  0.4636584023566415
  0.6335745145519210  0.8083266633576146  0.3909813977020106
  0.6558207976925817  0.7698016771794363  0.3909796345151029
  0.6558196170276207  0.7953854002453475  0.4636594171702766
  0.6335625402626905  0.7568664542391529  0.4636601655435494
  0.5445756590646152  0.8855143215799999  0.2819636964753847
  0.4778150843602738  0.8727220954163595  0.2456220988320258
  0.5223225198891592  0.8727214628591937  0.2456231136456615
  0.4778139036953130  0.8983058184822706  0.3183018814871999
  0.5000670428707692  0.9110986772030769  0.3546424643169235
  0.5223212991218122  0.8983064510394363  0.3183008666735646
  0.5668299153156583  0.8727220954163595  0.2456220988320258
  0.6335864888411520  0.8597868724760759  0.3183026298604723
  0.5890818738261537  0.9110986772030769  0.3546424643169235
  0.4778126829279662  0.9238908066625131  0.3909796345151029
  0.5000550685815383  0.8596384680846154  0.4273212321584619
  0.5668275138833508  0.9238908066625131  0.3909796345151029
  0.5668167603614669  0.8468456093638090  0.3909806493287383
  0.5223069234002738  0.8980149531671286  0.5363371701981798
  0.5445692564534594  0.9109555837222300  0.4636601655435494
  0.5223188976895048  0.9494751622855900  0.4636584023566415
  0.6558315913168516  0.8468456093638090  0.3909806493287383
  0.6113217543556588  0.8980149531671286  0.5363371701981798
  0.6335840874088442  0.9109555837222300  0.4636601655435494
  0.7448380300802737  0.7186329659332823  0.2456220988320258
  0.7670883888442286  0.6801133873699220  0.2456238620189339
  0.6780735578888440  0.6801133873699220  0.2456238620189339
  0.7003306346537747  0.7186323333761169  0.2456231136456615
  0.7225837738292304  0.7314251920969230  0.2819636964753847
  0.7003186603645437  0.6671721242576554  0.3183018814871999
  0.7225717995399997  0.6799649829784616  0.3546424643169235
  0.7225797726503826  0.7056977429929989  0.3183026298604723
  0.7448368494153130  0.7442166889991938  0.3183018814871999
  0.7225917469396133  0.7571579521114606  0.2456238620189339
  0.6780951050349981  0.8342025168529990  0.2456238620189339
  0.6780871319246151  0.8084697568384616  0.2819636964753847
  0.7448488237045439  0.7956768981176552  0.2456231136456615
  0.7670899885907689  0.7570095477200002  0.3546424643169235
  0.7670979617011519  0.7827423077345375  0.3183026298604723
  0.7003402075106977  0.8212612537407321  0.3183018814871999
  0.7448476029371972  0.8212618862978979  0.3183008666735646
  0.7893334913199284  0.6671721242576554  0.3183018814871999
  0.8338408867464279  0.6671727568148209  0.3183008666735646
  0.8115866304953845  0.6799649829784616  0.3546424643169235
  0.8115946036057674  0.7056977429929989  0.3183026298604723
  0.7893442448418125  0.7442173215563593  0.3183008666735646
  0.6780711564565364  0.7312820986160760  0.3909813977020106
  0.7448248751260825  0.6927564798807323  0.3909806493287383
  0.7670780143015383  0.7055493386015387  0.4273212321584619
  0.7670859874119209  0.7312820986160760  0.3909813977020106
  0.7448116800695046  0.6668812589425130  0.5363371701981798
  0.7448236543587353  0.7183414680609749  0.4636584023566415
  0.7003150381648895  0.7439258236840516  0.5363371701981798
  0.7225893455073056  0.8083266633576146  0.3909813977020106
  0.6780727562030767  0.8081782589661539  0.5000000000000000
  0.7448344479830050  0.7953854002453475  0.4636594171702766
  0.8561008183673057  0.7312820986160760  0.3909813977020106
  0.7893322705525816  0.6927571124378978  0.3909796345151029
  0.8338384853141201  0.7183414680609749  0.4636584023566415
  0.8338265110248891  0.6668812589425130  0.5363371701981798
  0.7893298691202738  0.7439258236840516  0.5363371701981798
  0.8116041764626901  0.8083266633576146  0.3909813977020106
  0.8338504596033508  0.7698016771794363  0.3909796345151029
  0.8115922021734594  0.7568664542391529  0.4636601655435494
  0.7003389867433507  0.8468462419209748  0.3909796345151029
  0.6780847304923074  0.8596384680846154  0.4273212321584619
  0.7448464222722360  0.8468456093638090  0.3909806493287383
  0.7670995614476920  0.8596384680846154  0.4273212321584619
  0.7448452015048894  0.8724305975440518  0.4636584023566415
  0.7003365853110429  0.8980149531671286  0.5363371701981798
  0.8783447000756586  0.7439258236840516  0.5363371701981798
  0.0994320599846152  0.5255843556230769  0.5726787678415388
  0.0772004679553131  0.6668806263853476  0.5363381850118154
  0.0771777000418123  0.5383764850825133  0.6090159380397184
  0.0994376316626903  0.6024858268837684  0.6816964690681647
  0.0771884936660824  0.6154204172668861  0.6090169528533538
  0.0994496059519208  0.6539460360022298  0.6090177012266261
  0.0994416328415382  0.6282132759876924  0.6453575356830774
  0.0994536071307689  0.6796734851061539  0.5726787678415388
  0.0994615802411517  0.7054062451206912  0.5363389333850878
  0.1439382747461535  0.5511687112461540  0.6453575356830774
  0.1216839148033508  0.5639608407055902  0.6816947058812568
  0.1439502490353844  0.6026289203646155  0.5726787678415388
  0.1216958890925817  0.6154210498240517  0.6090159380397184
  0.1884564637969228  0.6282132759876924  0.6453575356830774
  0.1662021038541200  0.6410054054471287  0.6816947058812568
  0.1216947084276205  0.6410047728899629  0.6816957206948921
  0.1439558207134594  0.6795303916253067  0.6816964690681647
  0.1884684380861537  0.6796734851061539  0.5726787678415388
  0.1217186570060824  0.7439251911268859  0.5363381850118154
  0.1439677950026901  0.7309906007437683  0.6090177012266261
  0.1662140781433507  0.6924656145655903  0.6090159380397184
  0.1217066827168516  0.6924649820084244  0.6090169528533538
  0.1439598218923076  0.7052578407292307  0.6453575356830774
  0.1662128974783897  0.7180493376315015  0.6816957206948921
  0.2107202929048890  0.7180499701886670  0.6816947058812568
  0.2329746528476921  0.7052578407292307  0.6453575356830774
  0.1884444895076920  0.5767530668692308  0.7180363035246158
  0.1661901295648891  0.5895451963286671  0.7543734737227952
  0.2329507042692307  0.6023374224923078  0.7907150713661544
  0.2106963443264278  0.6151295519517441  0.8270522415643338
  0.1439438464242284  0.6280701825068451  0.7543752369097031
  0.1439478476030767  0.6537976316107692  0.7180363035246158
  0.1662009231891595  0.6665891285130399  0.7543744885364307
  0.2107083186156583  0.6665897610702055  0.7543734737227952
  0.2329626785584612  0.6537976316107692  0.7180363035246158
  0.1884620354749977  0.7051147472483836  0.7543752369097031
  0.1884660366538460  0.7308421963523076  0.7180363035246158
  0.2552265076664276  0.7436343258117440  0.7543734737227952
  0.2774808676092304  0.7308421963523076  0.7180363035246158
  0.2107191122399287  0.7436336932545785  0.7543744885364307
  0.2774688933199999  0.6793819872338462  0.7907150713661544
  0.2552145333771967  0.6921741166932824  0.8270522415643338
  0.1439717961815381  0.7567180498476922  0.5726787678415388
  0.1662248717676209  0.7695095467499629  0.6090169528533538
  0.1439797692919212  0.7824508098622298  0.5363389333850878
  0.1884780109430764  0.7823024054707692  0.6453575356830774
  0.1884740097642286  0.7565749563668451  0.6816964690681647
  0.2775048161876922  0.8337626145892308  0.5726787678415388
  0.2329866271369230  0.7567180498476922  0.5726787678415388
  0.2107322671941199  0.7695101793071286  0.6090159380397184
  0.1884859840534595  0.8080351654853067  0.6090177012266261
  0.2107310865291590  0.7950939023730398  0.6816957206948921
  0.2552384819556586  0.7950945349302057  0.6816947058812568
  0.2774928418984613  0.7823024054707692  0.6453575356830774
  0.3219990566599996  0.8078867610938462  0.7180363035246158
  0.2997446967171969  0.8206788905532824  0.7543734737227952
  0.3219870823707691  0.7564265519753847  0.7907150713661544
  0.2552504562448891  0.8465547440486670  0.6090159380397184
  0.3220230052384614  0.9108071793307692  0.5726787678415388
  0.2997566710064273  0.8721390996717440  0.6816947058812568
  0.3220110309492305  0.8593469702123079  0.6453575356830774
  0.2774569190307690  0.6279217781153847  0.8633938392076927
  0.3219751080815382  0.7049663428569232  0.8633938392076927
  0.0994200856953844  0.4741241465046154  0.6453575356830774
  0.0549138709338457  0.4485397908815383  0.5726787678415388
  0.0771657257525816  0.4869162759640517  0.6816947058812568
  0.1439263004569227  0.4997085021276924  0.7180363035246158
  0.1216719405141199  0.5125006315871287  0.7543734737227952
  0.1884325152184610  0.5252928577507692  0.7907150713661544
  0.2329387299799998  0.5508772133738461  0.8633938392076927
  0.0549378195123075  0.5514602091184616  0.4273212321584619
  0.0549258452230766  0.5000000000000000  0.5000000000000000
  0.0994440342738458  0.5770445647415385  0.5000000000000000
  0.0994560085630768  0.6285047738600000  0.4273212321584619
  0.0772016486202736  0.6412969033194363  0.4636584023566415
  0.0771896743310431  0.5898366942009747  0.5363371701981798
  0.1439622233246151  0.6540891294830768  0.5000000000000000
  0.1439741976138460  0.7055493386015387  0.4273212321584619
  0.1884923866646152  0.7825939033430770  0.4273212321584619
  0.1217078633818119  0.6668812589425130  0.5363371701981798
  0.1217198376710432  0.7183414680609749  0.4636584023566415
  0.1884804123753843  0.7311336942246155  0.5000000000000000
  0.1662260524325815  0.7439258236840516  0.5363371701981798
  0.2330105757153844  0.8596384680846154  0.4273212321584619
  0.1662380267218125  0.7953860328025132  0.4636584023566415
  0.2329986014261539  0.8081782589661539  0.5000000000000000
  0.2107442414833507  0.8209703884255901  0.5363371701981798
  0.2775167904769236  0.8852228237076923  0.5000000000000000
  0.0549218440442286  0.4742725508960760  0.5363389333850878
  0.1216743419464277  0.4613319203409748  0.6090159380397184
  0.1216851355706975  0.5383758525253475  0.6090169528533538
  0.2329531057015382  0.5511687112461540  0.6453575356830774
  0.1439342735673056  0.5254412621422299  0.6816964690681647
  0.2106867714695045  0.5125006315871287  0.7543734737227952
  0.3219655352246152  0.6023374224923078  0.7907150713661544
  0.1884404883288441  0.5510256177653068  0.7543752369097031
  0.3664717499861537  0.6279217781153847  0.8633938392076927
  0.4777779808276205  0.7439251911268859  0.5363381850118154
  0.5222734019648893  0.6924656145655903  0.6090159380397184
  0.6335521657199997  0.7823024054707692  0.6453575356830774
  0.5000271188242288  0.7309906007437683  0.6090177012266261
  0.5667796167264275  0.7180499701886670  0.6816947058812568
  0.6112858314879661  0.7436343258117440  0.7543734737227952
  0.6335641400092304  0.8337626145892308  0.5726787678415388
  0.5000390931134595  0.7824508098622298  0.5363389333850878
  0.5668023846399286  0.8465541114915014  0.6090169528533538
  0.6112978057771968  0.7950945349302057  0.6816947058812568
  0.5890515226365364  0.8336195211083836  0.6816964690681647
  0.6558040205387353  0.8206788905532824  0.7543734737227952
  0.6335577373980749  0.8592038767314605  0.7543752369097031
  0.5890634969257672  0.8850797302268453  0.6090177012266261
  0.6558159948279660  0.8721390996717440  0.6816947058812568
  0.4332382446306973  0.5127914969022705  0.5363381850118154
  0.5445062147615384  0.5255843556230769  0.5726787678415388
  0.4109811678657672  0.4742725508960760  0.5363389333850878
  0.4777336657679662  0.4613319203409748  0.6090159380397184
  0.4777444593922361  0.5383758525253475  0.6090169528533538
  0.6335186442846151  0.5767530668692308  0.7180363035246158
  0.4999935973888440  0.5254412621422299  0.6816964690681647
  0.5667460952910430  0.5125006315871287  0.7543734737227952
  0.5667568889153130  0.5895445637715013  0.7543744885364307
  0.7225310738076922  0.6279217781153847  0.8633938392076927
  0.5890060269119211  0.5766099733883837  0.8270540047512417
  0.6557585248141200  0.5636693428332825  0.8997310094058724
  0.6335122416734595  0.6021943290114606  0.8997327725927803
  0.6335306185738461  0.6282132759876924  0.6453575356830774
  0.5000055716780747  0.5769014712606912  0.6090177012266261
  0.5667580695802739  0.5639608407055902  0.6816947058812568
  0.5667688632045436  0.6410047728899629  0.6816957206948921
  0.7225430480969228  0.6793819872338462  0.7907150713661544
  0.5890180012011518  0.6280701825068451  0.7543752369097031
  0.6557704991033509  0.6151295519517441  0.8270522415643338
  0.6557812927276206  0.6921734841361168  0.8270532563779691
  0.6335425928630768  0.6796734851061539  0.5726787678415388
  0.5000175459673056  0.6283616803791529  0.5363389333850878
  0.5667700438695046  0.6154210498240517  0.6090159380397184
  0.5667808374937745  0.6924649820084244  0.6090169528533538
  0.7225550223861538  0.7308421963523076  0.7180363035246158
  0.5890299754903824  0.6795303916253067  0.6816964690681647
  0.6557824733925814  0.6665897610702055  0.7543734737227952
  0.6557932670168516  0.7436336932545785  0.7543744885364307
  0.5667928117830054  0.7439251911268859  0.5363381850118154
  0.7225669966753843  0.7823024054707692  0.6453575356830774
  0.5890419497796131  0.7309906007437683  0.6090177012266261
  0.6557944476818124  0.7180499701886670  0.6816947058812568
  0.6558052413060823  0.7950939023730398  0.6816957206948921
  0.6780543793026902  0.7821593119899219  0.7543752369097031
  0.7225789709646152  0.8337626145892308  0.5726787678415388
  0.5890539240688440  0.7824508098622298  0.5363389333850878
  0.6558064219710430  0.7695101793071286  0.6090159380397184
  0.6558172155953129  0.8465541114915014  0.6090169528533538
  0.6780663535919211  0.8336195211083836  0.6816964690681647
  0.6335210457169227  0.5255843556230769  0.5726787678415388
  0.5667484967233507  0.4613319203409748  0.6090159380397184
  0.5667592903476208  0.5383758525253475  0.6090169528533538
  0.5890084283442285  0.5254412621422299  0.6816964690681647
  0.6557609262464273  0.5125006315871287  0.7543734737227952
  0.6557717198706977  0.5895445637715013  0.7543744885364307
  0.7670396900015383  0.6023374224923078  0.7907150713661544
  0.6780208578673058  0.5766099733883837  0.8270540047512417
  0.7225454495292306  0.6282132759876924  0.6453575356830774
  0.5890204026334595  0.5769014712606912  0.6090177012266261
  0.6557729005356584  0.5639608407055902  0.6816947058812568
  0.6557836941599283  0.6410047728899629  0.6816957206948921
  0.7002791152971968  0.5895451963286671  0.7543734737227952
  0.6780328321565363  0.6280701825068451  0.7543752369097031
  0.7447853300587357  0.6151295519517441  0.8270522415643338
  0.7447961236830054  0.6921734841361168  0.8270532563779691
  0.7225574238184611  0.6796734851061539  0.5726787678415388
  0.5890323769226904  0.6283616803791529  0.5363389333850878
  0.6557848748248891  0.6154210498240517  0.6090159380397184
  0.6557956684491593  0.6924649820084244  0.6090169528533538
  0.7002910895864279  0.6410054054471287  0.6816947058812568
  0.6780448064457673  0.6795303916253067  0.6816964690681647
  0.7447973043479662  0.6665897610702055  0.7543734737227952
  0.7448080979722363  0.7436336932545785  0.7543744885364307
  0.6558076427383898  0.7439251911268859  0.5363381850118154
  0.7670756128692303  0.7567180498476922  0.5726787678415388
  0.6780567807349974  0.7309906007437683  0.6090177012266261
  0.7448092786371969  0.7180499701886670  0.6816947058812568
  0.7448200722614668  0.7950939023730398  0.6816957206948921
  0.6780687550242288  0.7824508098622298  0.5363389333850878
  0.7448320465506977  0.8465541114915014  0.6090169528533538
  0.7893274676879664  0.7950945349302057  0.6816947058812568
  0.7225869440749980  0.8594953746037681  0.5363389333850878
  0.5667915910156585  0.7695101793071286  0.6090159380397184
  0.6780783278811515  0.8850797302268453  0.6090177012266261
  0.7448212529264275  0.7695101793071286  0.6090159380397184
  0.2996992009925816  0.5636693428332825  0.8997310094058724
  0.0994400330949979  0.5513171156376144  0.5363389333850878
  0.2774712947523076  0.6282132759876924  0.6453575356830774
  0.1439462478565363  0.5769014712606912  0.6090177012266261
  0.2997111752818123  0.6151295519517441  0.8270522415643338
  0.2997219689060824  0.6921734841361168  0.8270532563779691
  0.4109899390369228  0.7049663428569232  0.8633938392076927
  0.3442173900433508  0.6407139075748209  0.8997310094058724
  0.2774832690415384  0.6796734851061539  0.5726787678415388
  0.1439582221457671  0.6283616803791529  0.5363389333850878
  0.2107107200479663  0.6154210498240517  0.6090159380397184
  0.2107215136722360  0.6924649820084244  0.6090169528533538
  0.3664956985646152  0.7308421963523076  0.7180363035246158
  0.2329706516688440  0.6795303916253067  0.6816964690681647
  0.2997339431953129  0.7436336932545785  0.7543744885364307
  0.2774768664303826  0.7051147472483836  0.7543752369097031
  0.3219830811919208  0.7306991028714607  0.8270540047512417
  0.3665076728538461  0.7823024054707692  0.6453575356830774
  0.2997459174845438  0.7950939023730398  0.6816957206948921
  0.3219950554811515  0.7821593119899219  0.7543752369097031
  0.3887475533833507  0.7692186814348211  0.8270522415643338
  0.2552516770122360  0.8209697558684246  0.5363381850118154
  0.4110258619046153  0.8593469702123079  0.6453575356830774
  0.4555320766661534  0.8849313258353845  0.7180363035246158
  0.2997698660630052  0.8980143206099629  0.5363381850118154
  0.2775127892980747  0.8594953746037681  0.5363389333850878
  0.3220190040596131  0.8850797302268453  0.6090177012266261
  0.2774617218953844  0.5255843556230769  0.5726787678415388
  0.1439366749996133  0.4742725508960760  0.5363389333850878
  0.2106999665260821  0.5383758525253475  0.6090169528533538
  0.3664741514184613  0.5767530668692308  0.7180363035246158
  0.2329491045226901  0.5254412621422299  0.6816964690681647
  0.2997016024248891  0.5125006315871287  0.7543734737227952
  0.2774553192842286  0.5510256177653068  0.7543752369097031
  0.3442078171864276  0.5380849872102055  0.8270522415643338
  0.3442186108106975  0.6151289193945781  0.8270532563779691
  0.4554865809415381  0.6279217781153847  0.8633938392076927
  0.2107119408153129  0.5898360616438091  0.5363381850118154
  0.3664861257076922  0.6282132759876924  0.6453575356830774
  0.2329610788119208  0.5769014712606912  0.6090177012266261
  0.2997135767141200  0.5639608407055902  0.6816947058812568
  0.4109923404692305  0.6537976316107692  0.7180363035246158
  0.3442197914756583  0.5895451963286671  0.7543734737227952
  0.3442305850999283  0.6665891285130399  0.7543744885364307
  0.5000047699923075  0.7049663428569232  0.8633938392076927
  0.2552301298660821  0.6668806263853476  0.5363381850118154
  0.3664980999969229  0.6796734851061539  0.5726787678415388
  0.2329730531011517  0.6283616803791529  0.5363389333850878
  0.2997255510033507  0.6154210498240517  0.6090159380397184
  0.2774792678626903  0.6539460360022298  0.6090177012266261
  0.3442317657648892  0.6410054054471287  0.6816947058812568
  0.3442425593891589  0.7180493376315015  0.6816957206948921
  0.4555105295199999  0.7308421963523076  0.7180363035246158
  0.3219854826242288  0.6795303916253067  0.6816964690681647
  0.3664916973857671  0.7051147472483836  0.7543752369097031
  0.4109979121473058  0.7306991028714607  0.8270540047512417
  0.2997483189168513  0.7439251911268859  0.5363381850118154
  0.2774912421519209  0.7054062451206912  0.5363389333850878
  0.3665036716749980  0.7565749563668451  0.6816964690681647
  0.4555344780984613  0.8337626145892308  0.5726787678415388
  0.3887619291048894  0.7695101793071286  0.6090159380397184
  0.4332681438664277  0.7950945349302057  0.6816947058812568
  0.4332789374906974  0.8721384671145783  0.6816957206948921
  0.5445469076215381  0.8849313258353845  0.7180363035246158
  0.4332801181556586  0.8465547440486670  0.6090159380397184
  0.4110338350149977  0.8850797302268453  0.6090177012266261
  0.2552085827199282  0.5127914969022705  0.5363381850118154
  0.3664765528507692  0.5255843556230769  0.5726787678415388
  0.2997040038571970  0.4613319203409748  0.6090159380397184
  0.2997147974814667  0.5383758525253475  0.6090169528533538
  0.2774577207165364  0.4998569065191529  0.6090177012266261
  0.4554889823738458  0.5767530668692308  0.7180363035246158
  0.3219639354780747  0.5254412621422299  0.6816964690681647
  0.4554825797626902  0.6021943290114606  0.8997327725927803
  0.3219759097673054  0.5769014712606912  0.6090177012266261
  0.3887284076695048  0.5639608407055902  0.6816947058812568
  0.3887392012937745  0.6410047728899629  0.6816957206948921
  0.5000071714246153  0.6537976316107692  0.7180363035246158
  0.5445133861861537  0.6793819872338462  0.7907150713661544
  0.4777408371925816  0.6151295519517441  0.8270522415643338
  0.4555129309523077  0.6796734851061539  0.5726787678415388
  0.3219878840565363  0.6283616803791529  0.5363389333850878
  0.3887403819587353  0.6154210498240517  0.6090159380397184
  0.3887511755830054  0.6924649820084244  0.6090169528533538
  0.4777528114818121  0.6665897610702055  0.7543734737227952
  0.5890315752369230  0.7564265519753847  0.7907150713661544
  0.4555065283411516  0.7051147472483836  0.7543752369097031
  0.5000127431026902  0.7306991028714607  0.8270540047512417
  0.3887631498722359  0.7439251911268859  0.5363381850118154
  0.4110122878688440  0.7309906007437683  0.6090177012266261
  0.4555185026303823  0.7565749563668451  0.6816964690681647
  0.5445309321534594  0.8077436676129991  0.8270540047512417
  0.4332813389230051  0.8209697558684246  0.5363381850118154
  0.5445493090538461  0.8337626145892308  0.5726787678415388
  0.4110242621580747  0.7824508098622298  0.5363389333850878
  0.5445429064426903  0.8592038767314605  0.7543752369097031
  0.5890674981046151  0.9108071793307692  0.5726787678415388
  0.5668011638725814  0.8721390996717440  0.6816947058812568
  0.4554913838061536  0.5255843556230769  0.5726787678415388
  0.3887188348125816  0.4613319203409748  0.6090159380397184
  0.3887296284368513  0.5383758525253475  0.6090169528533538
  0.5445038133292306  0.5767530668692308  0.7180363035246158
  0.4109787664334594  0.5254412621422299  0.6816964690681647
  0.4777312643356584  0.5125006315871287  0.7543734737227952
  0.4777420579599281  0.5895445637715013  0.7543744885364307
  0.6335162428523077  0.6279217781153847  0.8633938392076927
  0.4999911959565365  0.5766099733883837  0.8270540047512417
  0.5667436938587352  0.5636693428332825  0.8997310094058724
  0.3887416027260820  0.5898360616438091  0.5363381850118154
  0.5000095728569230  0.6026289203646155  0.5726787678415388
  0.5445157876184615  0.6282132759876924  0.6453575356830774
  0.4109907407226902  0.5769014712606912  0.6090177012266261
  0.4777432386248891  0.5639608407055902  0.6816947058812568
  0.6335282171415383  0.6793819872338462  0.7907150713661544
  0.5000031702457670  0.6280701825068451  0.7543752369097031
  0.5667556681479662  0.6151295519517441  0.8270522415643338
  0.5445093850073057  0.6536545381299222  0.8270540047512417
  0.4332597917768513  0.6668806263853476  0.5363381850118154
  0.5445277619076920  0.6796734851061539  0.5726787678415388
  0.4110027150119211  0.6283616803791529  0.5363389333850878
  0.4777552129141200  0.6154210498240517  0.6090159380397184
  0.5222614276756583  0.6410054054471287  0.6816947058812568
  0.5222722212999282  0.7180493376315015  0.6816957206948921
  0.6335401914307690  0.7308421963523076  0.7180363035246158
  0.5667676424371969  0.6665897610702055  0.7543734737227952
  0.6112846508230053  0.7692180488776551  0.8270532563779691
  0.6112679065414669  0.5127914969022705  0.5363381850118154
  0.6335170445380750  0.4998569065191529  0.6090177012266261
  0.7002803360645439  0.5639602081484244  0.6816957206948921
  0.8115483061953844  0.5767530668692308  0.7180363035246158
  0.6780232592996133  0.5254412621422299  0.6816964690681647
  0.7225294740611519  0.5510256177653068  0.7543752369097031
  0.7892819719633508  0.5380849872102055  0.8270522415643338
  0.7892927655876205  0.6151289193945781  0.8270532563779691
  0.7670356888226904  0.5766099733883837  0.8270540047512417
  0.7670540657230767  0.6026289203646155  0.5726787678415388
  0.7002923103537744  0.6154204172668861  0.6090169528533538
  0.6780352335888440  0.5769014712606912  0.6090177012266261
  0.7892939462525815  0.5895451963286671  0.7543734737227952
  0.7893047398768515  0.6665891285130399  0.7543744885364307
  0.7670476631119209  0.6280701825068451  0.7543752369097031
  0.7003042846430053  0.6668806263853476  0.5363381850118154
  0.8115722547738459  0.6796734851061539  0.5726787678415388
  0.6780472078780747  0.6283616803791529  0.5363389333850878
  0.7893059205418123  0.6410054054471287  0.6816947058812568
  0.7893167141660822  0.7180493376315015  0.6816957206948921
  0.7670596374011518  0.6795303916253067  0.6816964690681647
  0.7893178948310431  0.6924656145655903  0.6090159380397184
  0.7670716116903826  0.7309906007437683  0.6090177012266261
  0.7447889522583899  0.5383758525253475  0.6090169528533538
  0.8338013817814670  0.5895445637715013  0.7543744885364307
  0.7670500645442285  0.5769014712606912  0.6090177012266261
  0.8115562793057673  0.6024858268837684  0.6816964690681647
  0.8560624940673056  0.6280701825068451  0.7543752369097031
  0.7893191155983901  0.6668806263853476  0.5363381850118154
  0.9005870857292306  0.6796734851061539  0.5726787678415388
  0.8337929895895045  0.4613319203409748  0.6090159380397184
  0.8782992043510434  0.4869162759640517  0.6816947058812568
  0.8338157575030052  0.5898360616438091  0.5363381850118154
  0.8115586807380746  0.5513171156376144  0.5363389333850878
  0.9005711102611517  0.6024858268837684  0.6816964690681647
  0.8560768697888438  0.6283616803791529  0.5363389333850878
  0.8783123994076207  0.5127914969022705  0.5363381850118154
  0.9228078205448893  0.4613319203409748  0.6090159380397184
  0.3887834762510430  0.9235993087902055  0.6090159380397184
  0.4110458093042286  0.9365399393453068  0.5363389333850878
  0.4777983072064278  0.9235993087902055  0.6090159380397184
  0.5668131381618123  0.9235993087902055  0.6090159380397184
  0.1884117697580747  0.2431388566714606  0.5363389333850878
  0.2551642676602737  0.2301982261163593  0.6090159380397184
  0.2551750612845436  0.3072421583007320  0.6090169528533538
  0.3664430314153842  0.3200350170215385  0.6453575356830774
  0.2329179845196133  0.2687232122945375  0.6090177012266261
  0.2996704824218123  0.2557825817394360  0.6816947058812568
  0.2774241992811518  0.2943075679176144  0.6816964690681647
  0.3441874908076207  0.3584108695468860  0.7543744885364307
  0.4554554609384615  0.3712037282676923  0.7907150713661544
  0.3219304140426901  0.3198919235406912  0.7543752369097031
  0.3886829119448893  0.3069512929855902  0.8270522415643338
  0.3886937055691590  0.3839952251699629  0.8270532563779691
  0.4331891267064276  0.3325356486086671  0.8997310094058724
  0.5444678904615383  0.4223724395138458  0.9360726070492311
  0.2551870355737746  0.3587023674191937  0.5363381850118154
  0.3664550057046151  0.3714952261400000  0.5726787678415388
  0.2996824567110434  0.3072427908578977  0.6090159380397184
  0.3441994650968516  0.4098710786653472  0.6816957206948921
  0.4554674352276922  0.4226639373861538  0.7180363035246158
  0.3886948862341200  0.3584115021040516  0.7543734737227952
  0.3887056798583901  0.4354554342884244  0.7543744885364307
  0.5444798647507689  0.4738326486323077  0.8633938392076927
  0.4109548178549978  0.4225208439053067  0.8270540047512417
  0.4777181093814669  0.4866241455345783  0.8997320242195077
  0.3442006457618126  0.3842873555994362  0.6090159380397184
  0.4554794095169228  0.4741241465046154  0.6453575356830774
  0.3887068605233507  0.4098717112225131  0.6816947058812568
  0.3887176541476208  0.4869156434068856  0.6816957206948921
  0.5444918390399999  0.5252928577507692  0.7907150713661544
  0.4109667921442283  0.4739810530237682  0.7543752369097031
  0.4777192900464277  0.4610404224686669  0.8270522415643338
  0.4777300836706974  0.5380843546530396  0.8270532563779691
  0.4999792216673058  0.5251497642699222  0.8997327725927803
  0.2551535141383898  0.1531530288176551  0.6090169528533538
  0.3664214842692305  0.1659458875384615  0.6453575356830774
  0.2996597288999283  0.1787373844407319  0.6816957206948921
  0.4554339137923078  0.2171145987846153  0.7907150713661544
  0.3219088668965364  0.1658027940576143  0.7543752369097031
  0.3886721584230056  0.2299060956868859  0.8270532563779691
  0.2551654884276207  0.2046132379361167  0.5363381850118154
  0.2329084116626901  0.1660942919299220  0.5363389333850878
  0.2996609095648893  0.1531536613748209  0.6090159380397184
  0.4554458880815382  0.2685748079030768  0.7180363035246158
  0.3219208411857671  0.2172630031760758  0.6816964690681647
  0.3886733390879661  0.2043223726209747  0.7543734737227952
  0.3886841327122365  0.2813663048053474  0.7543744885364307
  0.5444583176046150  0.3197435191492308  0.8633938392076927
  0.4109332707088439  0.2684317144222298  0.8270540047512417
  0.4776965622353128  0.3325350160515014  0.8997320242195077
  0.2996836774783899  0.2816578026776551  0.5363381850118154
  0.4109516476092305  0.2944506613984614  0.5726787678415388
  0.3441790986156585  0.2301982261163593  0.6090159380397184
  0.4554578623707692  0.3200350170215385  0.6453575356830774
  0.3219328154749978  0.2687232122945375  0.6090177012266261
  0.3886853133771968  0.2557825817394360  0.6816947058812568
  0.3886961070014667  0.3328265139238089  0.6816957206948921
  0.5444702918938458  0.3712037282676923  0.7907150713661544
  0.4109452449980747  0.3198919235406912  0.7543752369097031
  0.4777085365245438  0.3839952251699629  0.8270532563779691
  0.4999576745211517  0.3710606347868450  0.8997327725927803
  0.3442018665291591  0.3587023674191937  0.5363381850118154
  0.4554698366599999  0.3714952261400000  0.5726787678415388
  0.3219447897642287  0.3201834214129989  0.5363389333850878
  0.3886972876664277  0.3072427908578977  0.6090159380397184
  0.3887080812906976  0.3842867230422704  0.6090169528533538
  0.5444822661830767  0.4226639373861538  0.7180363035246158
  0.4109572192873056  0.3713521326591527  0.6816964690681647
  0.4777097171895046  0.3584115021040516  0.7543734737227952
  0.4777205108137749  0.4354554342884244  0.7543744885364307
  0.6334946957061535  0.4738326486323077  0.8633938392076927
  0.4999696488103824  0.4225208439053067  0.8270540047512417
  0.5667221467125816  0.4095802133502057  0.8997310094058724
  0.5667329403368513  0.4866241455345783  0.8997320242195077
  0.5444942404723074  0.4741241465046154  0.6453575356830774
  0.4777216914787352  0.4098717112225131  0.6816947058812568
  0.4777324851030051  0.4869156434068856  0.6816957206948921
  0.6335066699953846  0.5252928577507692  0.7907150713661544
  0.4999816230996131  0.4739810530237682  0.7543752369097031
  0.5667341210018121  0.4610404224686669  0.8270522415643338
  0.5667449146260822  0.5380843546530396  0.8270532563779691
  0.4554243409353844  0.1144856784200001  0.7180363035246158
  0.4554363152246151  0.1659458875384615  0.6453575356830774
  0.3219112683288439  0.1146340828114605  0.6090177012266261
  0.3886637662310432  0.1016934522563592  0.6816947058812568
  0.3886745598553131  0.1787373844407319  0.6816957206948921
  0.5444487447476921  0.2171145987846153  0.7907150713661544
  0.4109236978519210  0.1658027940576143  0.7543752369097031
  0.4776869893783901  0.2299060956868859  0.8270532563779691
  0.4554482895138456  0.2174060966569230  0.5726787678415388
  0.3886865341445435  0.2301975935591936  0.6090169528533538
  0.5444607190369226  0.2685748079030768  0.7180363035246158
  0.4776881700433508  0.2043223726209747  0.7543734737227952
  0.4776989636676208  0.2813663048053474  0.7543744885364307
  0.4999481016642287  0.2684317144222298  0.8270540047512417
  0.5667113931906976  0.3325350160515014  0.8997320242195077
  0.5444726933261536  0.3200350170215385  0.6453575356830774
  0.4777001443325813  0.2557825817394360  0.6816947058812568
  0.4777109379568515  0.3328265139238089  0.6816957206948921
  0.6334851228492305  0.3712037282676923  0.7907150713661544
  0.4999600759534594  0.3198919235406912  0.7543752369097031
  0.5667125738556584  0.3069512929855902  0.8270522415643338
  0.5667233674799286  0.3839952251699629  0.8270532563779691
  0.6112295822414668  0.4095795807930397  0.8997320242195077
  0.5889725054765367  0.3710606347868450  0.8997327725927803
  0.5444846676153843  0.3714952261400000  0.5726787678415388
  0.4777121186218125  0.3072427908578977  0.6090159380397184
  0.4777229122460824  0.3842867230422704  0.6090169528533538
  0.6334970971384613  0.4226639373861538  0.7180363035246158
  0.4999720502426901  0.3713521326591527  0.6816964690681647
  0.5667353417691592  0.4354554342884244  0.7543744885364307
  0.7225095266615383  0.4738326486323077  0.8633938392076927
  0.5889844797657674  0.4225208439053067  0.8270540047512417
  0.6557477712922360  0.4866241455345783  0.8997320242195077
  0.4777348865353129  0.4357469321607321  0.5363381850118154
  0.6335090714276920  0.4741241465046154  0.6453575356830774
  0.4999840245319210  0.4228123417776144  0.6090177012266261
  0.5667365224341202  0.4098717112225131  0.6816947058812568
  0.5667473160583899  0.4869156434068856  0.6816957206948921
  0.7225215009507689  0.5252928577507692  0.7907150713661544
  0.5889964540549979  0.4739810530237682  0.7543752369097031
  0.6557489519571968  0.4610404224686669  0.8270522415643338
  0.7002551667187351  0.4866247780917438  0.8997310094058724
  0.4109428435657671  0.3710606347868450  0.8997327725927803
  0.4777073157571968  0.4095802133502057  0.8997310094058724
  0.4776977429002738  0.3069512929855902  0.8270522415643338
  0.4109691935765363  0.4228123417776144  0.6090177012266261
  0.5889940526226901  0.5251497642699222  0.8997327725927803
  0.4109356721411517  0.2172630031760758  0.6816964690681647
  0.4109476464303822  0.2687232122945375  0.6090177012266261
  0.4109596207196135  0.3201834214129989  0.5363389333850878
  0.5667245481448890  0.3584115021040516  0.7543734737227952
  0.6334906945273059  0.4481051995283836  0.8997327725927803
  0.6557597455814670  0.5380843546530396  0.8270532563779691
  0.1884109680723076  0.3712037282676923  0.7907150713661544
  0.1884229423615378  0.4226639373861538  0.7180363035246158
  0.1216611869922360  0.4354554342884244  0.7543744885364307
  0.2329291571230766  0.4482482930092309  0.7907150713661544
  0.2774353718846153  0.4738326486323077  0.8633938392076927
  0.0771561528956582  0.3842873555994362  0.6090159380397184
  0.1216623676571969  0.4098717112225131  0.6816947058812568
  0.1216731612814667  0.4869156434068856  0.6816957206948921
  0.2774473461738458  0.5252928577507692  0.7907150713661544
  0.1439222992780747  0.4739810530237682  0.7543752369097031
  0.2106747971802738  0.4610404224686669  0.8270522415643338
  0.2106855908045437  0.5380843546530396  0.8270532563779691
  0.2329076099769229  0.2941591635261537  0.7907150713661544
  0.1216516141353130  0.3328265139238089  0.6816957206948921
  0.2106640436583899  0.3839952251699629  0.8270532563779691
  0.1216527948002738  0.3072427908578977  0.6090159380397184
  0.2329315585553843  0.3970795817630771  0.6453575356830774
  0.0994065116596132  0.3457677770360759  0.6090177012266261
  0.1661590095618124  0.3328271464809748  0.6816947058812568
  0.1661698031860821  0.4098710786653472  0.6816957206948921
  0.1439127264211516  0.3713521326591527  0.6816964690681647
  0.2106652243233508  0.3584115021040516  0.7543734737227952
  0.2106760179476206  0.4354554342884244  0.7543744885364307
  0.3219439880784616  0.4482482930092309  0.7907150713661544
  0.2329251559442287  0.4225208439053067  0.8270540047512417
  0.2996884474706974  0.4866241455345783  0.8997320242195077
  0.4109564176015382  0.4994170042553844  0.9360726070492311
  0.1439247007103824  0.4228123417776144  0.6090177012266261
  0.2106879922368513  0.4869156434068856  0.6816957206948921
  0.3664621771292306  0.5252928577507692  0.7907150713661544
  0.2997004217599283  0.5380843546530396  0.8270532563779691
  0.4554746066523074  0.5764615689969230  0.9360726070492311
  0.3219495597565362  0.5251497642699222  0.8997327725927803
  0.1884037966476919  0.2174060966569230  0.5726787678415388
  0.1661482560399284  0.2557819491822703  0.6816957206948921
  0.2551606855630052  0.3069506604284243  0.8270532563779691
  0.3664286556938460  0.3197435191492308  0.8633938392076927
  0.1661494367048892  0.2301982261163593  0.6090159380397184
  0.2774282004599999  0.3200350170215385  0.6453575356830774
  0.1439031535642285  0.2687232122945375  0.6090177012266261
  0.1884093683257670  0.2943075679176144  0.6816964690681647
  0.3664406299830769  0.3712037282676923  0.7907150713661544
  0.2329155830873055  0.3198919235406912  0.7543752369097031
  0.2996680809895045  0.3069512929855902  0.8270522415643338
  0.3441742957510430  0.3325356486086671  0.8997310094058724
  0.3441850893753127  0.4095795807930397  0.8997320242195077
  0.4554530595061535  0.4223724395138458  0.9360726070492311
  0.2106784193799282  0.3842867230422704  0.6090169528533538
  0.3219463895107691  0.3970795817630771  0.6453575356830774
  0.3664526042723074  0.4226639373861538  0.7180363035246158
  0.3441862700402740  0.3839958577271286  0.8270522415643338
  0.3441970636645441  0.4610397899115015  0.8270532563779691
  0.4554650337953844  0.4738326486323077  0.8633938392076927
  0.3219399868996133  0.4225208439053067  0.8270540047512417
  0.3886924848018125  0.4095802133502057  0.8997310094058724
  0.4999712485569229  0.4994170042553844  0.9360726070492311
  0.3664645785615383  0.4741241465046154  0.6453575356830774
  0.3441982443295046  0.4354560668455900  0.7543734737227952
  0.4554770080846151  0.5252928577507692  0.7907150713661544
  0.3887044590910430  0.4610404224686669  0.8270522415643338
  0.4332106738525817  0.4866247780917438  0.8997310094058724
  0.2774066533138460  0.1659458875384615  0.6453575356830774
  0.1661506574722359  0.2046132379361167  0.5363381850118154
  0.2774186276030767  0.2174060966569230  0.5726787678415388
  0.3664310571261537  0.2685748079030768  0.7180363035246158
  0.3441755165183898  0.3069506604284243  0.8270532563779691
  0.4554434866492305  0.3197435191492308  0.8633938392076927
  0.4331712017599284  0.1016928196991933  0.6816957206948921
  0.7225007554903825  0.2431388566714606  0.5363389333850878
  0.7892532533925817  0.2301982261163593  0.6090159380397184
  0.7892640470168516  0.3072421583007320  0.6090169528533538
  0.8337594681541202  0.2557825817394360  0.6816947058812568
  0.7892760213060823  0.3587023674191937  0.5363381850118154
  0.9005439914369229  0.3714952261400000  0.5726787678415388
  0.7670189445411517  0.3201834214129989  0.5363389333850878
  0.8782884508291594  0.4098710786653472  0.6816957206948921
  0.8560313740642288  0.3713521326591527  0.6816964690681647
  0.8782896314941203  0.3842873555994362  0.6090159380397184
  0.8783004251183898  0.4613312877838089  0.6090169528533538
  0.8560433483534594  0.4228123417776144  0.6090177012266261
  0.9228066398799288  0.4869156434068856  0.6816957206948921
  0.9005495631149980  0.4483966974006913  0.6816964690681647
  0.7447362851091592  0.1275686731945782  0.5363381850118154
  0.7892544741599284  0.2046132379361167  0.5363381850118154
  0.8115155864457673  0.2431388566714606  0.5363389333850878
  0.8782788779722361  0.3072421583007320  0.6090169528533538
  0.8560218012073055  0.2687232122945375  0.6090177012266261
  0.8782908522614669  0.3587023674191937  0.5363381850118154
  0.8560337754965365  0.3201834214129989  0.5363389333850878
  0.8782776572048893  0.3328271464809748  0.6816947058812568
  0.4331723824248898  0.0761090966332823  0.6090159380397184
  0.4331831760491591  0.1531530288176551  0.6090169528533538
  0.4109260992842289  0.1146340828114605  0.6090177012266261
  0.5221848119479662  0.1272778078794361  0.7543734737227952
  0.4999385288073053  0.1658027940576143  0.7543752369097031
  0.5444447435688443  0.1913871496806912  0.8270540047512417
  0.4331951503383900  0.2046132379361167  0.5363381850118154
  0.5444631204692305  0.2174060966569230  0.5726787678415388
  0.4109380735734594  0.1660942919299220  0.5363389333850878
  0.5889693352307691  0.2429904522799999  0.6453575356830774
  0.4554442883349979  0.1916786475529989  0.6090177012266261
  0.6779817647538461  0.2941591635261537  0.7907150713661544
  0.6112092157602740  0.2299067282440516  0.8270522415643338
  0.6112200093845437  0.3069506604284243  0.8270532563779691
  0.6557262241460822  0.3325350160515014  0.8997320242195077
  0.5889813095199999  0.2944506613984614  0.5726787678415388
  0.4554562626242286  0.2431388566714606  0.5363389333850878
  0.5222087605264278  0.2301982261163593  0.6090159380397184
  0.5222195541506975  0.3072421583007320  0.6090169528533538
  0.6779937390430768  0.3456193726446154  0.7180363035246158
  0.5444686921473059  0.2943075679176144  0.6816964690681647
  0.6112211900495044  0.2813669373625131  0.7543734737227952
  0.6112319836737747  0.3584108695468860  0.7543744885364307
  0.6334811216703827  0.3454762791637682  0.8270540047512417
  0.4999744516749978  0.3201834214129989  0.5363389333850878
  0.5667269495771975  0.3072427908578977  0.6090159380397184
  0.5667377432014665  0.3842867230422704  0.6090169528533538
  0.5444806664365364  0.3457677770360759  0.6090177012266261
  0.6112439579630050  0.4098710786653472  0.6816957206948921
  0.7225119280938453  0.4226639373861538  0.7180363035246158
  0.5889868811980746  0.3713521326591527  0.6816964690681647
  0.7002563874860821  0.4610397899115015  0.8270532563779691
  0.7225055254826904  0.4481051995283836  0.8997327725927803
  0.5667497174906977  0.4357469321607321  0.5363381850118154
  0.7225239023830767  0.4741241465046154  0.6453575356830774
  0.5889988554873056  0.4228123417776144  0.6090177012266261
  0.7002683617753135  0.5124999990299627  0.7543744885364307
  0.6780112850103822  0.4739810530237682  0.7543752369097031
  0.4331736031922359  0.0505241084530398  0.5363381850118154
  0.5666922474768517  0.1272771753222705  0.7543744885364307
  0.5221872133802742  0.0761090966332823  0.6090159380397184
  0.5222099812937746  0.2046132379361167  0.5363381850118154
  0.6334779514246153  0.2174060966569230  0.5726787678415388
  0.5444591192903825  0.1916786475529989  0.6090177012266261
  0.6112224108168514  0.2557819491822703  0.6816957206948921
  0.6334715488134594  0.2428473587991527  0.7543752369097031
  0.7002348403399284  0.3069506604284243  0.8270532563779691
  0.6779961404753846  0.2944506613984614  0.5726787678415388
  0.6112235914818126  0.2301982261163593  0.6090159380397184
  0.6557298062433509  0.2557825817394360  0.6816947058812568
  0.6557405998676208  0.3328265139238089  0.6816957206948921
  0.7670085699984613  0.3456193726446154  0.7180363035246158
  0.6334835231026902  0.2943075679176144  0.6816964690681647
  0.7002360210048892  0.2813669373625131  0.7543734737227952
  0.8115147847600003  0.3712037282676923  0.7907150713661544
  0.6779897378642286  0.3198919235406912  0.7543752369097031
  0.7447422357664275  0.3069512929855902  0.8270522415643338
  0.7225143295261538  0.3714952261400000  0.5726787678415388
  0.5889892826303824  0.3201834214129989  0.5363389333850878
  0.6557417805325818  0.3072427908578977  0.6090159380397184
  0.6557525741568513  0.3842867230422704  0.6090169528533538
  0.6334954973919209  0.3457677770360759  0.6090177012266261
  0.8115267590492306  0.4226639373861538  0.7180363035246158
  0.7447650036799286  0.4354554342884244  0.7543744885364307
  0.6557645484460822  0.4357469321607321  0.5363381850118154
  0.7670325185769230  0.4485397908815383  0.5726787678415388
  0.7002707632076207  0.4613312877838089  0.6090169528533538
  0.8115387333384610  0.4741241465046154  0.6453575356830774
  0.6780136864426901  0.4228123417776144  0.6090177012266261
  0.7225199012042286  0.4483966974006913  0.6816964690681647
  0.7892723991064274  0.4354560668455900  0.7543734737227952
  0.6112008636706975  0.1016928196991933  0.6816957206948921
  0.7224808080907692  0.1659458875384615  0.6453575356830774
  0.7224927823799997  0.2174060966569230  0.5726787678415388
  0.6557202333864279  0.1531536613748209  0.6090159380397184
  0.6334739502457670  0.1916786475529989  0.6090177012266261
  0.8115052119030767  0.2685748079030768  0.7180363035246158
  0.7670109714307691  0.2944506613984614  0.5726787678415388
  0.8115171861923076  0.3200350170215385  0.6453575356830774
  0.7892616455845439  0.3584108695468860  0.7543744885364307
  0.7002611903506976  0.3587023674191937  0.5363381850118154
  0.8115291604815383  0.3714952261400000  0.5726787678415388
  0.6780041135857670  0.3201834214129989  0.5363389333850878
  0.7892628262495046  0.3328271464809748  0.6816947058812568
  0.7447793794014668  0.4357469321607321  0.5363381850118154
  0.8560473495323073  0.4485397908815383  0.5726787678415388
  0.7892748005387356  0.3842873555994362  0.6090159380397184
  0.7892855941630053  0.4613312877838089  0.6090169528533538
  0.7670285173980749  0.4228123417776144  0.6090177012266261
  0.8115347321596132  0.4483966974006913  0.6816964690681647
  0.8782872300618124  0.4354560668455900  0.7543734737227952
  0.8782980236860823  0.5124999990299627  0.7543744885364307
  0.8560409469211517  0.4739810530237682  0.7543752369097031
  0.7002276689153130  0.1531530288176551  0.6090169528533538
  0.6779705921503824  0.1146340828114605  0.6090177012266261
  0.7224768069119208  0.1402184384345374  0.6816964690681647
  0.7002396432045437  0.2046132379361167  0.5363381850118154
  0.8115076133353845  0.2174060966569230  0.5726787678415388
  0.7224887812011516  0.1916786475529989  0.6090177012266261
  0.7892520727276207  0.2557819491822703  0.6816957206948921
  0.3442629186402739  0.5904196899455900  0.1002645631489491
  0.4110139204876919  0.5005829957446153  0.0639273929507696
  0.4332777495956588  0.5904196899455900  0.1002645631489491
  0.5668107696018122  0.6674642546871284  0.1002645631489491
  0.5890435823984612  0.5005829957446153  0.0639273929507696
  0.5667892224556588  0.5133751252040514  0.1002645631489491
  0.5667676753095050  0.3592859957209748  0.1002645631489491
  0.0994344614169230  0.4744156443769232  0.4273212321584619
  0.2552361133956584  0.5389594808271286  0.1729433309904875
  0.3665148771507689  0.6287962717323076  0.2092849286338465
  0.4110210919123076  0.6543806273553845  0.2819636964753847
  0.3442485429187354  0.5901281920732825  0.3183008666735646
  0.3220022597780747  0.6286531782514605  0.3183026298604723
  0.5000335214353844  0.7055493386015387  0.4273212321584619
  0.4332609724418122  0.6412969033194363  0.4636584023566415
  0.4332717660660824  0.7183408355038090  0.4636594171702766
  0.5445397361969229  0.7311336942246155  0.5000000000000000
  0.3665268514399997  0.6802564808507694  0.1366061607923080
  0.2997543024464278  0.6160040455686671  0.1729433309904875
  0.2997650960706975  0.6930479777530395  0.1729443458041228
  0.4110330662015381  0.7058408364738462  0.2092849286338465
  0.3442605172079661  0.6415884011917442  0.2456220988320258
  0.3442713108322363  0.7186323333761169  0.2456231136456615
  0.5000454957246151  0.7570095477200002  0.3546424643169235
  0.4332729467310432  0.6927571124378978  0.3909796345151029
  0.5445517104861536  0.7825939033430770  0.4273212321584619
  0.4777899551168516  0.7953854002453475  0.4636594171702766
  0.5890579252476922  0.8081782589661539  0.5000000000000000
  0.4555328783519210  0.7568664542391529  0.4636601655435494
  0.5222853762541200  0.7439258236840516  0.5363371701981798
  0.4555512552523075  0.7828854012153846  0.2092849286338465
  0.3220262083565363  0.7315735964883836  0.1729450941773954
  0.3887894998830055  0.7956768981176552  0.2456231136456615
  0.3665324231180749  0.7571579521114606  0.2456238620189339
  0.4332849210202738  0.7442173215563593  0.3183008666735646
  0.5445636847753843  0.8340541124615385  0.3546424643169235
  0.4110386378796134  0.7827423077345375  0.3183026298604723
  0.4778019294060823  0.8468456093638090  0.3909806493287383
  0.5222973505433507  0.7953860328025132  0.4636584023566415
  0.5223081441676208  0.8724299649868861  0.4636594171702766
  0.6335761142984614  0.8852228237076923  0.5000000000000000
  0.5000510674026905  0.8339110189806914  0.4636601655435494
  0.5668035653048894  0.8209703884255901  0.5363371701981798
  0.2774689261923077  0.3720782218846154  0.1366061607923080
  0.2552025919602738  0.3334101422255902  0.2456220988320258
  0.2552133855845437  0.4104540744099628  0.2456231136456615
  0.3664813557153845  0.4232469331307692  0.2819636964753847
  0.2329563088196131  0.3719351284037682  0.2456238620189339
  0.3442150214833506  0.3845788534717440  0.3909796345151029
  0.3442258151076210  0.4616227856561168  0.3909806493287383
  0.3219687383426901  0.4231038396499222  0.3909813977020106
  0.4332274510064276  0.4357475647178978  0.5363371701981798
  0.2552145662495045  0.3848703513440516  0.1729433309904875
  0.2552253598737744  0.4619142835284245  0.1729443458041228
  0.3664933300046152  0.4747071422492308  0.2092849286338465
  0.2329682831088440  0.4233953375222298  0.1729450941773954
  0.4109995447661537  0.5002914978723078  0.2819636964753847
  0.3442269957725815  0.4360390625902055  0.3183008666735646
  0.3442377893968515  0.5130829947745783  0.3183018814871999
  0.3219807126319211  0.4745640487683837  0.3183026298604723
  0.3887332105341200  0.4616234182132824  0.3909796345151029
  0.4332394252956586  0.4872077738363594  0.4636584023566415
  0.5445181890507688  0.5770445647415385  0.5000000000000000
  0.3442389700618124  0.4874992717086671  0.2456220988320258
  0.3442497636860822  0.5645432038930398  0.2456231136456615
  0.4555177338169231  0.5773360626138461  0.2819636964753847
  0.3887451848233507  0.5130836273317441  0.3183008666735646
  0.4332513995848891  0.5386679829548210  0.3909796345151029
  0.4332621932091592  0.6157119151391937  0.3909806493287383
  0.5445301633399997  0.6285047738600000  0.4273212321584619
  0.4110051164442286  0.5771929691329992  0.3909813977020106
  0.4555113312057669  0.6027773247560759  0.4636601655435494
  0.5222638291079661  0.5898366942009747  0.5363371701981798
  0.3442509443510429  0.5389594808271286  0.1729433309904875
  0.3442617379753131  0.6160034130115012  0.1729443458041228
  0.3220046612103825  0.5774844670053068  0.1729450941773954
  0.5000359228676922  0.6543806273553845  0.2819636964753847
  0.4332633738741200  0.5901281920732825  0.3183008666735646
  0.4332741674983903  0.6671721242576554  0.3183018814871999
  0.4110170907334595  0.6286531782514605  0.3183026298604723
  0.4555233054949978  0.6542375338745375  0.3909813977020106
  0.5222758033971970  0.6412969033194363  0.4636584023566415
  0.5222865970214667  0.7183408355038090  0.4636594171702766
  0.6335545671523073  0.7311336942246155  0.5000000000000000
  0.3220166354996134  0.6289446761237681  0.1002663263358568
  0.3887691334018121  0.6160040455686671  0.1729433309904875
  0.5000478971569231  0.7058408364738462  0.2092849286338465
  0.4332861417876206  0.7186323333761169  0.2456231136456615
  0.5445541119184616  0.7314251920969230  0.2819636964753847
  0.4555352797842289  0.7056977429929989  0.3183026298604723
  0.5222877776864278  0.6927571124378978  0.3909796345151029
  0.5222985713106977  0.7698010446222706  0.3909806493287383
  0.6335665414415381  0.7825939033430770  0.4273212321584619
  0.6113002072095045  0.7439258236840516  0.5363371701981798
  0.4332873224525814  0.6930486103102055  0.1729433309904875
  0.4332981160768515  0.7700925424945781  0.1729443458041228
  0.5445660862076923  0.7828854012153846  0.2092849286338465
  0.4110410393119209  0.7315735964883836  0.1729450941773954
  0.4555472540734594  0.7571579521114606  0.2456238620189339
  0.5222997519756584  0.7442173215563593  0.3183008666735646
  0.5223105455999285  0.8212612537407321  0.3183018814871999
  0.6335785157307691  0.8340541124615385  0.3546424643169235
  0.5668059667371967  0.7698016771794363  0.3909796345151029
  0.6113121814987355  0.7953860328025132  0.4636584023566415
  0.6113229751230052  0.8724299649868861  0.4636594171702766
  0.7225909452538459  0.8852228237076923  0.5000000000000000
  0.5890658983580748  0.8339110189806914  0.4636601655435494
  0.6558183962602737  0.8209703884255901  0.5363371701981798
  0.3664837571476920  0.3720782218846154  0.1366061607923080
  0.3442174229156583  0.3334101422255902  0.2456220988320258
  0.3442282165399285  0.4104540744099628  0.2456231136456615
  0.4554961866707690  0.4232469331307692  0.2819636964753847
  0.3219711397749981  0.3719351284037682  0.2456238620189339
  0.4332298524387354  0.3845788534717440  0.3909796345151029
  0.5445086161938461  0.4744156443769232  0.4273212321584619
  0.4109835692980751  0.4231038396499222  0.3909813977020106
  0.4554897840596132  0.4486881952729991  0.4636601655435494
  0.5222422819618122  0.4357475647178978  0.5363371701981798
  0.3442293972048893  0.3848703513440516  0.1729433309904875
  0.3442401908291590  0.4619142835284245  0.1729443458041228
  0.4555081609599997  0.4747071422492308  0.2092849286338465
  0.3219831140642286  0.4233953375222298  0.1729450941773954
  0.5000143757215383  0.5002914978723078  0.2819636964753847
  0.5445205904830765  0.5258758534953847  0.3546424643169235
  0.4777588351137748  0.5386673503976552  0.3909806493287383
  0.5890268052446153  0.5514602091184616  0.4273212321584619
  0.5222542562510429  0.4872077738363594  0.4636584023566415
  0.5222650498753131  0.5642517060207322  0.4636594171702766
  0.6335330200061536  0.5770445647415385  0.5000000000000000
  0.5000079731103827  0.5257327600145376  0.4636601655435494
  0.3442521651183901  0.5133744926468861  0.1002655779625846
  0.3219950883534593  0.4748555466406913  0.1002663263358568
  0.3665013031149978  0.5004399022637682  0.1729450941773954
  0.4332538010171968  0.4874992717086671  0.2456220988320258
  0.4332645946414669  0.5645432038930398  0.2456231136456615
  0.5445325647723075  0.5773360626138461  0.2819636964753847
  0.4110075178765363  0.5260242578868451  0.2456238620189339
  0.5222770241645439  0.6157119151391937  0.3909806493287383
  0.5000199473996135  0.5771929691329992  0.3909813977020106
  0.6112786600633509  0.5898366942009747  0.5363371701981798
  0.4332765689306974  0.6160034130115012  0.1729443458041228
  0.5890507538230767  0.6543806273553845  0.2819636964753847
  0.4555257069273055  0.6030688226283837  0.2456238620189339
  0.5222782048295045  0.5901281920732825  0.3183008666735646
  0.5222889984537746  0.6671721242576554  0.3183018814871999
  0.5000319216888442  0.6286531782514605  0.3183026298604723
  0.5445381364503826  0.6542375338745375  0.3909813977020106
  0.6112906343525811  0.6412969033194363  0.4636584023566415
  0.6113014279768515  0.7183408355038090  0.4636594171702766
  0.7225693981076923  0.7311336942246155  0.5000000000000000
  0.5890443512119211  0.6798218894976146  0.4636601655435494
  0.4332885432199285  0.6674636221299630  0.1002655779625846
  0.4777839643571969  0.6160040455686671  0.1729433309904875
  0.4555376812165365  0.6545290317468452  0.1729450941773954
  0.5222901791187357  0.6415884011917442  0.2456220988320258
  0.5223009727430054  0.7186323333761169  0.2456231136456615
  0.6335689428738459  0.7314251920969230  0.2819636964753847
  0.6780751576353842  0.7570095477200002  0.3546424643169235
  0.6113134022660824  0.7698010446222706  0.3909806493287383
  0.7225813723969228  0.7825939033430770  0.4273212321584619
  0.7670875871584615  0.8081782589661539  0.5000000000000000
  0.4555496555057674  0.7059892408653067  0.1002663263358568
  0.5223021534079662  0.6930486103102055  0.1729433309904875
  0.6335809171630769  0.7828854012153846  0.2092849286338465
  0.6113253765553130  0.8212612537407321  0.3183018814871999
  0.7225933466861536  0.8340541124615385  0.3546424643169235
  0.5890682997903824  0.7827423077345375  0.3183026298604723
  0.7003270124541200  0.7953860328025132  0.4636584023566415
  0.7003378060783899  0.8724299649868861  0.4636594171702766
  0.6780807293134598  0.8339110189806914  0.4636601655435494
  0.7448332272156585  0.8209703884255901  0.5363371701981798
  0.3442593365430053  0.6671721242576554  0.3183018814871999
  0.4332502189199283  0.5642517060207322  0.4636594171702766
  0.4332753481633507  0.6415884011917442  0.2456220988320258
  0.5223129470322361  0.7700925424945781  0.1729443458041228
  0.5000558702673059  0.7315735964883836  0.1729450941773954
  0.1439406761784615  0.5000000000000000  0.5000000000000000
  0.0771681271848892  0.4357475647178978  0.5363371701981798
  0.1439526504676920  0.5514602091184616  0.4273212321584619
  0.0771801014741200  0.4872077738363594  0.4636584023566415
  0.0771908950983897  0.5642517060207322  0.4636594171702766
  0.0549338183334595  0.5257327600145376  0.4636601655435494
  0.0994520073842288  0.6027773247560759  0.4636601655435494
  0.1662045052864279  0.5898366942009747  0.5363371701981798
  0.1439765990461537  0.6543806273553845  0.2819636964753847
  0.1884828138076920  0.6799649829784616  0.3546424643169235
  0.1662272731999283  0.7183408355038090  0.4636594171702766
  0.2774952433307690  0.7311336942246155  0.5000000000000000
  0.1217222391033509  0.6671727568148209  0.3183008666735646
  0.1662392474891590  0.7698010446222706  0.3909806493287383
  0.2775072176200000  0.7825939033430770  0.4273212321584619
  0.2107346686264277  0.7183414680609749  0.4636584023566415
  0.2775191919092302  0.8340541124615385  0.3546424643169235
  0.2107466429156584  0.7698016771794363  0.3909796345151029
  0.2552636513014667  0.8724299649868861  0.4636594171702766
  0.3665316214323075  0.8852228237076923  0.5000000000000000
  0.2330065745365363  0.8339110189806914  0.4636601655435494
  0.0771705286171969  0.3845788534717440  0.3909796345151029
  0.1661829581402739  0.4357475647178978  0.5363371701981798
  0.1439550518999998  0.5002914978723078  0.2819636964753847
  0.2329674814230766  0.5514602091184616  0.4273212321584619
  0.1661949324295046  0.4872077738363594  0.4636584023566415
  0.1662057260537745  0.5642517060207322  0.4636594171702766
  0.1662069067187355  0.5386679829548210  0.3909796345151029
  0.2774856704738459  0.6285047738600000  0.4273212321584619
  0.3219918852353846  0.6540891294830768  0.5000000000000000
  0.1217126662464277  0.5645438364502054  0.2456220988320258
  0.2107358893937745  0.6927564798807323  0.3909806493287383
  0.3220038595246151  0.7055493386015387  0.4273212321584619
  0.2329850273903827  0.6798218894976146  0.4636601655435494
  0.2330034042907690  0.7058408364738462  0.2092849286338465
  0.2329970016796132  0.7312820986160760  0.3909813977020106
  0.2997494995818124  0.7183414680609749  0.4636584023566415
  0.2997602932060821  0.7953854002453475  0.4636594171702766
  0.2107490443479660  0.7186329659332823  0.2456220988320258
  0.3665340228646152  0.8340541124615385  0.3546424643169235
  0.2997722674953132  0.8468456093638090  0.3909806493287383
  0.3442784822568513  0.8724299649868861  0.4636594171702766
  0.4555464523876920  0.8852228237076923  0.5000000000000000
  0.3220214054919209  0.8339110189806914  0.4636601655435494
  0.1884516938046152  0.4232469331307692  0.2819636964753847
  0.1661961531968515  0.4616227856561168  0.3909806493287383
  0.2774641233276920  0.4744156443769232  0.4273212321584619
  0.1439390764319209  0.4231038396499222  0.3909813977020106
  0.1884452911934593  0.4486881952729991  0.4636601655435494
  0.2551977890956585  0.4357475647178978  0.5363371701981798
  0.1662081274860821  0.5130829947745783  0.3183018814871999
  0.2774760976169229  0.5258758534953847  0.3546424643169235
  0.1884572654826900  0.5001484043914606  0.3909813977020106
  0.2552097633848893  0.4872077738363594  0.4636584023566415
  0.2329634802442286  0.5257327600145376  0.4636601655435494
  0.2329818571446153  0.5517517069907693  0.2092849286338465
  0.1439630250103824  0.5260242578868451  0.2456238620189339
  0.2107155229125816  0.5130836273317441  0.3183008666735646
  0.3219942866676921  0.6029204182369231  0.3546424643169235
  0.1884692397719210  0.5516086135099221  0.3183026298604723
  0.2552217376741202  0.5386679829548210  0.3909796345151029
  0.2552325312983899  0.6157119151391937  0.3909806493287383
  0.3665005014292306  0.6285047738600000  0.4273212321584619
  0.2329754545334595  0.5771929691329992  0.3909813977020106
  0.2997387460599284  0.6412962707622708  0.4636594171702766
  0.4110067161907690  0.6540891294830768  0.5000000000000000
  0.2775000461953845  0.6287962717323076  0.2092849286338465
  0.2107274972018124  0.5645438364502054  0.2456220988320258
  0.2107382908260822  0.6415877686345782  0.2456231136456615
  0.1884812140611517  0.6030688226283837  0.2456238620189339
  0.2552337119633511  0.5901281920732825  0.3183008666735646
  0.2997507203491591  0.6927564798807323  0.3909806493287383
  0.4110186904799998  0.7055493386015387  0.4273212321584619
  0.2774936435842287  0.6542375338745375  0.3909813977020106
  0.3887523562479662  0.6668812589425130  0.5363371701981798
  0.3220182352461538  0.7058408364738462  0.2092849286338465
  0.3887643305371971  0.7183414680609749  0.4636584023566415
  0.2997746689276207  0.7956768981176552  0.2456231136456615
  0.4555488538199995  0.8340541124615385  0.3546424643169235
  0.4332933132122360  0.8724299649868861  0.4636594171702766
  0.5445612833430769  0.8852228237076923  0.5000000000000000
  0.1661877610048890  0.3334101422255902  0.2456220988320258
  0.2774665247599999  0.4232469331307692  0.2819636964753847
  0.2106939757664275  0.3589944978486670  0.3183008666735646
  0.2552001905279661  0.3845788534717440  0.3909796345151029
  0.2552109841522360  0.4616227856561168  0.3909806493287383
  0.3664789542830768  0.4744156443769232  0.4273212321584619
  0.2329539073873056  0.4231038396499222  0.3909813977020106
  0.4109851690446152  0.5000000000000000  0.5000000000000000
  0.2774784990492306  0.4747071422492308  0.2092849286338465
  0.2107059500556583  0.4104547069671287  0.2456220988320258
  0.2552121648171970  0.4360390625902055  0.3183008666735646
  0.3664909285723074  0.5258758534953847  0.3546424643169235
  0.2329658816765363  0.4745640487683837  0.3183026298604723
  0.3442245943402738  0.4872077738363594  0.4636584023566415
  0.4555033580953845  0.5770445647415385  0.5000000000000000
  0.2774904733384613  0.5261673513676923  0.1366061607923080
  0.3219966880999999  0.5517517069907693  0.2092849286338465
  0.3665029028615384  0.5773360626138461  0.2819636964753847
  0.3442365686295047  0.5386679829548210  0.3909796345151029
  0.3442473622537742  0.6157119151391937  0.3909806493287383
  0.3219902854888440  0.5771929691329992  0.3909813977020106
  0.3887427833910430  0.5642523385778979  0.4636584023566415
  0.5000215471461537  0.6540891294830768  0.5000000000000000
  0.3664965002503826  0.6027773247560759  0.4636601655435494
  0.3442306179722360  0.3592853631638090  0.1002655779625846
  0.5000048028646155  0.3976625775076923  0.2092849286338465
  0.3664797559688444  0.3463507727806913  0.1729450941773954
  0.4332430474953131  0.4104540744099628  0.2456231136456615
  0.4109859707303825  0.3719351284037682  0.2456238620189339
  0.4777492622568515  0.4360384300330399  0.3183018814871999
  0.5890172323876921  0.4488312887538462  0.3546424643169235
  0.5222446833941201  0.3845788534717440  0.3909796345151029
  0.5222554770183898  0.4616227856561168  0.3909806493287383
  0.6335234471492306  0.4744156443769232  0.4273212321584619
  0.7893250991279661  0.5389594808271286  0.1729433309904875
  0.8338313138895046  0.5645438364502054  0.2456220988320258
  0.8783375286510430  0.5901281920732825  0.3183008666735646
  0.8783483222753131  0.6671721242576554  0.3183018814871999
  0.9005974602719210  0.6542375338745375  0.3909813977020106
  0.7225390797903826  0.3463507727806913  0.1729450941773954
  0.7892915776925815  0.3334101422255902  0.2456220988320258
  0.7893023713168517  0.4104540744099628  0.2456231136456615
  0.8783040072156584  0.3845788534717440  0.3909796345151029
  0.8783148008399285  0.4616227856561168  0.3909806493287383
  0.8560577240749979  0.4231038396499222  0.3909813977020106
  0.9228102219771971  0.4101632090948209  0.4636584023566415
  0.9005639388365364  0.4486881952729991  0.4636601655435494
  0.7893035519818122  0.3848703513440516  0.1729433309904875
  0.7893143456060822  0.4619142835284245  0.1729443458041228
  0.8115634836026903  0.4489796931453068  0.2456238620189339
  0.9228221962664280  0.4616234182132824  0.3909796345151029
  0.9450821278873056  0.5257327600145376  0.4636601655435494
  0.8115754578919210  0.5004399022637682  0.1729450941773954
  0.8783279557941204  0.4874992717086671  0.2456220988320258
  0.8783387494183899  0.5645432038930398  0.2456231136456615
  0.9005878874149978  0.5516086135099221  0.3183026298604723
  0.7225726012257672  0.5519001113822297  0.1002663263358568
  0.8783267751291592  0.5130829947745783  0.3183018814871999
  0.4999984002534595  0.4231038396499222  0.3909813977020106
  0.5445046150149980  0.4486881952729991  0.4636601655435494
  0.6112571129171970  0.4357475647178978  0.5363371701981798
  0.3664917302580749  0.3978109818991529  0.1002663263358568
  0.4332442281602740  0.3848703513440516  0.1729433309904875
  0.4332550217845437  0.4619142835284245  0.1729443458041228
  0.4109979450196136  0.4233953375222298  0.1729450941773954
  0.4777612365460823  0.4874986391515014  0.2456231136456615
  0.5445165893042286  0.5001484043914606  0.3909813977020106
  0.6112690872064277  0.4872077738363594  0.4636584023566415
  0.7225478509615384  0.5770445647415385  0.5000000000000000
  0.5890228040657672  0.5257327600145376  0.4636601655435494
  0.6557753019679662  0.5127921294594363  0.5363371701981798
  0.4332669960737747  0.5133744926468861  0.1002655779625846
  0.5445349662046152  0.5261673513676923  0.1366061607923080
  0.4110099193088441  0.4748555466406913  0.1002663263358568
  0.5222794255968515  0.5645432038930398  0.2456231136456615
  0.6335473957276923  0.5773360626138461  0.2819636964753847
  0.5000223488319213  0.5260242578868451  0.2456238620189339
  0.6780536104892305  0.6029204182369231  0.3546424643169235
  0.6112918551199283  0.6157119151391937  0.3909806493287383
  0.7002934910187356  0.5898366942009747  0.5363371701981798
  0.5890531552553844  0.6032119161092306  0.1366061607923080
  0.5222806062618125  0.5389594808271286  0.1729433309904875
  0.5222913998860822  0.6160034130115012  0.1729443458041228
  0.5000343231211520  0.5774844670053068  0.1729450941773954
  0.6113038294091592  0.6671721242576554  0.3183018814871999
  0.7003054653079661  0.6412969033194363  0.4636584023566415
  0.7003162589322358  0.7183408355038090  0.4636594171702766
  0.8115842290630770  0.7311336942246155  0.5000000000000000
  0.5223033741753131  0.6674636221299630  0.1002655779625846
  0.5000462974103825  0.6289446761237681  0.1002663263358568
  0.5445525121719212  0.6545290317468452  0.1729450941773954
  0.6113158036983899  0.7186323333761169  0.2456231136456615
  0.5890587269334593  0.6801133873699220  0.2456238620189339
  0.6558112248356585  0.6671727568148209  0.3183008666735646
  0.7003174395971971  0.6927571124378978  0.3909796345151029
  0.7003282332214668  0.7698010446222706  0.3909806493287383
  0.8115962033523078  0.7825939033430770  0.4273212321584619
  0.7225773712180749  0.7568664542391529  0.4636601655435494
  0.5445644864611517  0.7059892408653067  0.1002663263358568
  0.6113169843633507  0.6930486103102055  0.1729433309904875
  0.6113277779876206  0.7700925424945781  0.1729443458041228
  0.7003294138864278  0.7442173215563593  0.3183008666735646
  0.6780831307457671  0.7827423077345375  0.3183026298604723
  0.7448356286479663  0.7698016771794363  0.3909796345151029
  0.7893418434095045  0.7953860328025132  0.4636584023566415
  0.4777516636891591  0.3848697187868859  0.1729443458041228
  0.5890196338199999  0.3976625775076923  0.2092849286338465
  0.5222470848264277  0.3334101422255902  0.2456220988320258
  0.5222578784506976  0.4104540744099628  0.2456231136456615
  0.5445070164473055  0.3975194840268453  0.3183026298604723
  0.6112703079737746  0.4616227856561168  0.3909806493287383
  0.7225382781046151  0.4744156443769232  0.4273212321584619
  0.5890132312088440  0.4231038396499222  0.3909813977020106
  0.4777636379783902  0.4363299279053476  0.1002655779625846
  0.6112714886387356  0.4360390625902055  0.3183008666735646
  0.5222818270291595  0.5133744926468861  0.1002655779625846
  0.6335497971599999  0.5261673513676923  0.1366061607923080
  0.5000247502642287  0.4748555466406913  0.1002663263358568
  0.5445309650257671  0.5004399022637682  0.1729450941773954
  0.6112834629279663  0.4874992717086671  0.2456220988320258
  0.7225622266830770  0.5773360626138461  0.2819636964753847
  0.5890371797873056  0.5260242578868451  0.2456238620189339
  0.6558004713137745  0.5901275595161168  0.3183018814871999
  0.7670684414446153  0.6029204182369231  0.3546424643169235
  0.7003066860753133  0.6157119151391937  0.3909806493287383
  0.7225558240719210  0.6027773247560759  0.4636601655435494
  0.5668000160799287  0.5904190573884243  0.1002655779625846
  0.6780679862107692  0.6032119161092306  0.1366061607923080
  0.6112954372171970  0.5389594808271286  0.1729433309904875
  0.6558016519787355  0.5645438364502054  0.2456220988320258
  0.6780615835996133  0.6286531782514605  0.3183026298604723
  0.7448140815018124  0.6157125476963594  0.3909796345151029
  0.8560928452569226  0.7055493386015387  0.4273212321584619
  0.7225677983611517  0.6542375338745375  0.3909813977020106
  0.7893202962633509  0.6412969033194363  0.4636584023566415
  0.7893310898876206  0.7183408355038090  0.4636594171702766
  0.7670740131226902  0.6798218894976146  0.4636601655435494
  0.6558136262679662  0.6160040455686671  0.1729433309904875
  0.6558244198922362  0.6930479777530395  0.1729443458041228
  0.7670923900230767  0.7058408364738462  0.2092849286338465
  0.6335673431273056  0.6545290317468452  0.1729450941773954
  0.8115986047846154  0.7314251920969230  0.2819636964753847
  0.7893430641768517  0.7698010446222706  0.3909806493287383
  0.8338492789383898  0.7953854002453475  0.4636594171702766
  0.7003318153187355  0.6930486103102055  0.1729433309904875
  0.6780344647753846  0.3976625775076923  0.2092849286338465
  0.6557789241676206  0.4360384300330399  0.3183018814871999
  0.7002743453048893  0.3845788534717440  0.3909796345151029
  0.8115531090599997  0.4744156443769232  0.4273212321584619
  0.6780464390646153  0.4491227866261539  0.1366061607923080
  0.6112738900710432  0.3848703513440516  0.1729433309904875
  0.7670588685876921  0.5002914978723078  0.2819636964753847
  0.7002863195941201  0.4360390625902055  0.3183008666735646
  0.7447925343556590  0.4616234182132824  0.3909796345151029
  0.6112966579845440  0.5133744926468861  0.1002655779625846
  0.7225646281153846  0.5261673513676923  0.1366061607923080
  0.5890395812196132  0.4748555466406913  0.1002663263358568
  0.7003090875076208  0.5645432038930398  0.2456231136456615
  0.8115770576384613  0.5773360626138461  0.2819636964753847
  0.7448045086448893  0.5130836273317441  0.3183008666735646
  0.7448153022691590  0.5901275595161168  0.3183018814871999
  0.8560832723999998  0.6029204182369231  0.3546424643169235
  0.7225582255042289  0.5516086135099221  0.3183026298604723
  0.9005894871615384  0.6285047738600000  0.4273212321584619
  0.8783231529295047  0.5898366942009747  0.5363371701981798
  0.7003210617968513  0.6160034130115012  0.1729443458041228
  0.8560952466892305  0.6543806273553845  0.2819636964753847
  0.7670764145549980  0.6286531782514605  0.3183026298604723
  0.8338397060814668  0.6927564798807323  0.3909806493287383
  0.8115826293165365  0.6542375338745375  0.3909813977020106
  0.8783351272187352  0.6412969033194363  0.4636584023566415
  0.8783459208430051  0.7183408355038090  0.4636594171702766
  0.8560888440780747  0.6798218894976146  0.4636601655435494
  0.9228413419802741  0.6668812589425130  0.5363371701981798
  0.7225821740826903  0.6545290317468452  0.1729450941773954
  0.7893454656091592  0.7186323333761169  0.2456231136456615
  0.8338516803706976  0.7442166889991938  0.3183018814871999
  0.8783471015079661  0.6927571124378978  0.3909796345151029
  0.6112751108383901  0.3592853631638090  0.1002655779625846
  0.5890180340734595  0.3207664171576143  0.1002663263358568
  0.7670492957307692  0.3976625775076923  0.2092849286338465
  0.6335242488349978  0.3463507727806913  0.1729450941773954
  0.7002767467371970  0.3334101422255902  0.2456220988320258
  0.7002875403614669  0.4104540744099628  0.2456231136456615
  0.7225366783580748  0.3975194840268453  0.3183026298604723
  0.7892891762602741  0.3845788534717440  0.3909796345151029
  0.9005679400153845  0.4744156443769232  0.4273212321584619
  0.7670428931196134  0.4231038396499222  0.3909813977020106
  0.9450741547769232  0.5000000000000000  0.5000000000000000
  0.8783016057833508  0.4357475647178978  0.5363371701981798
  0.7670612700199999  0.4491227866261539  0.1366061607923080
  0.6335362231242287  0.3978109818991529  0.1002663263358568
  0.7002887210264277  0.3848703513440516  0.1729433309904875
  0.7448057294122361  0.4874986391515014  0.2456231136456615
  0.8560736995430771  0.5002914978723078  0.2819636964753847
  0.7225486526473055  0.4489796931453068  0.2456238620189339
  0.9005799143046151  0.5258758534953847  0.3546424643169235
  0.8783243736968517  0.5642517060207322  0.4636594171702766
  0.8560672969319211  0.5257327600145376  0.4636601655435494
  0.7003114889399286  0.5133744926468861  0.1002655779625846
  0.7448177037014668  0.5389588482699629  0.1729443458041228
  0.7893131248387354  0.4874992717086671  0.2456220988320258
  0.8338301332245439  0.5901275595161168  0.3183018814871999
  0.8783255543618125  0.5386679829548210  0.3909796345151029
  0.8783363479860824  0.6157119151391937  0.3909806493287383
  0.2552648319664277  0.8468462419209748  0.3909796345151029
  0.4778055115033506  0.7700931750517440  0.1729433309904875
  0.5223117262648891  0.7956775306748209  0.2456220988320258
  0.5000654431242286  0.8342025168529990  0.2456238620189339
  0.5668287346506979  0.8983058184822706  0.3183018814871999
  0.5445716578857671  0.8597868724760759  0.3183026298604723
  0.6113241557879662  0.8468462419209748  0.3909796345151029
  0.6113349494122361  0.9238901741053475  0.3909806493287383
  0.5890778726473053  0.8853712280991529  0.3909813977020106
  0.6558303705495047  0.8724305975440518  0.4636584023566415
  0.6113361300771969  0.8983064510394363  0.3183008666735646
  0.5668203424587354  0.7700931750517440  0.1729433309904875
  0.6113265572202738  0.7956775306748209  0.2456220988320258
  0.5890802740796132  0.8342025168529990  0.2456238620189339
  0.6780927036026902  0.8853712280991529  0.3909813977020106
  0.2997710467279662  0.8724305975440518  0.4636584023566415
  0.2997734481602740  0.8212618862978979  0.3183008666735646
  0.4110522119153844  0.9110986772030769  0.3546424643169235
  0.3887858776833508  0.8724305975440518  0.4636584023566415
  0.3665395945426901  0.9109555837222300  0.4636601655435494
  0.4332944938771970  0.8468462419209748  0.3909796345151029
  0.5445732576323075  0.9366830328261539  0.4273212321584619
  0.4110482107365364  0.8853712280991529  0.3909813977020106
  0.4778115022630053  0.9494745297284245  0.4636594171702766
  0.4555544254980749  0.9109555837222300  0.4636601655435494
  0.4333064681664280  0.8983064510394363  0.3183008666735646
  0.3887906805479662  0.7700931750517440  0.1729433309904875
  0.4333076889337745  0.8727214628591937  0.2456231136456615
  0.4555568269303826  0.8597868724760759  0.3183026298604723
  0.5223093248325819  0.8468462419209748  0.3909796345151029
  0.5223201184568516  0.9238901741053475  0.3909806493287383
  0.5000630416919212  0.8853712280991529  0.3909813977020106
  0.5668155395941201  0.8724305975440518  0.4636584023566415
  0.5668263332183900  0.9494745297284245  0.4636594171702766
  0.7003413881756586  0.7956775306748209  0.2456220988320258
  0.7226013197965365  0.8597868724760759  0.3183026298604723
  0.1661626317614667  0.2560734470545782  0.4636594171702766
  0.2774306018923072  0.2688663057753845  0.5000000000000000
  0.1661638124264275  0.2304897239886670  0.3909796345151029
  0.1661746060506979  0.3075336561730401  0.3909806493287383
  0.3219487909430768  0.3459108705169231  0.5000000000000000
  0.2551762419495044  0.2816584352348208  0.5363371701981798
  0.1661757867156584  0.2819499331071285  0.3183008666735646
  0.2774545504707690  0.3717867240123077  0.3546424643169235
  0.1439295035749980  0.3204749192853066  0.3183026298604723
  0.3219607652323073  0.3973710796353845  0.4273212321584619
  0.1884357183365363  0.3460592749083838  0.3909813977020106
  0.2551882162387353  0.3331186443532823  0.4636584023566415
  0.2551990098630050  0.4101625765376551  0.4636594171702766
  0.2329419330980749  0.3716436305314607  0.4636601655435494
  0.3219272437969227  0.1918217410338459  0.5000000000000000
  0.2774330033246149  0.2176975945292307  0.3546424643169235
  0.2551774627168514  0.2560734470545782  0.4636594171702766
  0.2329203859519208  0.2175545010483835  0.4636601655435494
  0.2774449776138458  0.2691578036476922  0.2819636964753847
  0.1884261454796133  0.2434303545437681  0.3183026298604723
  0.2551786433818122  0.2304897239886670  0.3909796345151029
  0.2551894370060828  0.3075336561730401  0.3909806493287383
  0.2329323602411517  0.2690147101668452  0.3909813977020106
  0.4109636218984611  0.3459108705169231  0.5000000000000000
  0.3441910729048892  0.2816584352348208  0.5363371701981798
  0.2774569519030767  0.3206180127661539  0.2092849286338465
  0.1884381197688440  0.2948905636622298  0.2456238620189339
  0.2551906176710431  0.2819499331071285  0.3183008666735646
  0.2552014112953128  0.3589938652915014  0.3183018814871999
  0.2329443345303826  0.3204749192853066  0.3183026298604723
  0.4109755961876921  0.3973710796353845  0.4273212321584619
  0.3442030471941197  0.3331186443532823  0.4636584023566415
  0.3442138408183898  0.4101625765376551  0.4636594171702766
  0.3664238857015383  0.1147771762923078  0.5000000000000000
  0.3219296452292300  0.1406530297876921  0.3546424643169235
  0.2551678898599287  0.1534445266899629  0.3909806493287383
  0.4109420747523075  0.1918217410338459  0.5000000000000000
  0.2774170278565359  0.1405099363068451  0.4636601655435494
  0.3441695257587351  0.1275693057517438  0.5363371701981798
  0.2551798641491591  0.2049047358084247  0.3183018814871999
  0.3664478342799997  0.2176975945292307  0.3546424643169235
  0.4109540490415380  0.2432819501523076  0.4273212321584619
  0.2774290021457668  0.1919701454253066  0.3909813977020106
  0.3441815000479660  0.1790295148702055  0.4636584023566415
  0.3441922936722357  0.2560734470545782  0.4636594171702766
  0.3219352169073051  0.2175545010483835  0.4636601655435494
  0.2551918384383896  0.2563649449268859  0.2456231136456615
  0.4109660233307689  0.2947421592707693  0.3546424643169235
  0.3441934743371965  0.2304897239886670  0.3909796345151029
  0.3442042679614671  0.3075336561730401  0.3909806493287383
  0.3219471911965365  0.2690147101668452  0.3909813977020106
  0.4999784528538459  0.3459108705169231  0.5000000000000000
  0.3664534059580752  0.2945990657899221  0.4636601655435494
  0.4332059038602740  0.2816584352348208  0.5363371701981798
  0.2552038127276205  0.3078251540453474  0.1729443458041228
  0.3664717828584615  0.3206180127661539  0.2092849286338465
  0.4109779976199998  0.3462023683892308  0.2819636964753847
  0.3442054486264274  0.2819499331071285  0.3183008666735646
  0.3219591654857670  0.3204749192853066  0.3183026298604723
  0.4999904271430764  0.3973710796353845  0.4273212321584619
  0.4332178781495045  0.3331186443532823  0.4636584023566415
  0.4332286717737746  0.4101625765376551  0.4636594171702766
  0.5444966419046151  0.4229554352584615  0.5000000000000000
  0.2774425761815381  0.3203265148938462  0.4273212321584619
  0.2551546948033508  0.1275693057517438  0.5363371701981798
  0.1884141711903826  0.1919701454253066  0.3909813977020106
  0.2551666690925812  0.1790295148702055  0.4636584023566415
  0.2996633109971968  0.1019849501286669  0.4636584023566415
  0.3442162422506976  0.3589938652915014  0.3183018814871999
  0.3664653802473057  0.3460592749083838  0.3909813977020106
  0.0994224871276921  0.4229554352584615  0.5000000000000000
  0.1439191290323076  0.3459108705169231  0.5000000000000000
  0.0771585543279661  0.3331186443532823  0.4636584023566415
  0.0771693479522358  0.4101625765376551  0.4636594171702766
  0.1216647690895042  0.3587029999763591  0.5363371701981798
  0.1439095561753842  0.2432819501523076  0.4273212321584619
  0.1884157709369232  0.2688663057753845  0.5000000000000000
  0.1439215304646149  0.2947421592707693  0.3546424643169235
  0.1884277452261534  0.3203265148938462  0.4273212321584619
  0.2329339599876920  0.3459108705169231  0.5000000000000000
  0.0994089130919210  0.2945990657899221  0.4636601655435494
  0.1439335047538460  0.3462023683892308  0.2819636964753847
  0.0994208873811517  0.3460592749083838  0.3909813977020106
  0.1661733852833505  0.3331186443532823  0.4636584023566415
  0.1439271021426902  0.3716436305314607  0.4636601655435494
  0.2329124128415384  0.1918217410338459  0.5000000000000000
  0.7225071581015383  0.2176975945292307  0.3546424643169235
  0.6557346091079659  0.1534451592471286  0.3909796345151029
  0.7002516174937744  0.2560734470545782  0.4636594171702766
  0.5667449474983900  0.2307805893038088  0.1729443458041228
  0.6112511622599283  0.2563649449268859  0.2456231136456615
  0.7225191323907688  0.2691578036476922  0.2819636964753847
  0.6557465833971968  0.2049053683655901  0.3183008666735646
  0.6335003002565364  0.2434303545437681  0.3183026298604723
  0.7002527981587352  0.2304897239886670  0.3909796345151029
  0.7002635917830052  0.3075336561730401  0.3909806493287383
  0.6780065150180747  0.2690147101668452  0.3909813977020106
  0.8560377766753846  0.3459108705169231  0.5000000000000000
  0.7225127297796134  0.2945990657899221  0.4636601655435494
  0.7892652276818122  0.2816584352348208  0.5363371701981798
  0.6780248919184614  0.2950336571430768  0.1366061607923080
  0.6112631365491592  0.3078251540453474  0.1729443458041228
  0.7225311066799998  0.3206180127661539  0.2092849286338465
  0.7002647724479660  0.2819499331071285  0.3183008666735646
  0.7002755660722357  0.3589938652915014  0.3183018814871999
  0.8115435362030767  0.3717867240123077  0.3546424643169235
  0.6780184893073056  0.3204749192853066  0.3183026298604723
  0.7892772019710431  0.3331186443532823  0.4636584023566415
  0.7002420446368516  0.1534445266899629  0.3909806493287383
  0.6779849678719205  0.1149255806837682  0.3909813977020106
  0.7224911826334594  0.1405099363068451  0.4636601655435494
  0.6557478041645438  0.1793203801853478  0.2456231136456615
  0.7002540189260821  0.2049047358084247  0.3183018814871999
  0.8115219890569226  0.2176975945292307  0.3546424643169235
  0.6779969421611515  0.1663857898022299  0.3183026298604723
  0.8560282038184613  0.2432819501523076  0.4273212321584619
  0.7892664484491592  0.2560734470545782  0.4636594171702766
  0.6557597784537743  0.2307805893038088  0.1729443458041228
  0.7002551995910429  0.1793210127425132  0.2456220988320258
  0.7002659932153130  0.2563649449268859  0.2456231136456615
  0.8115339633461536  0.2691578036476922  0.2819636964753847
  0.6780089164503824  0.2178459989206912  0.2456238620189339
  0.8560401781076918  0.2947421592707693  0.3546424643169235
  0.7892676291141200  0.2304897239886670  0.3909796345151029
  0.7892784227383906  0.3075336561730401  0.3909806493287383
  0.7670213459734595  0.2690147101668452  0.3909813977020106
  0.8115275607349978  0.2945990657899221  0.4636601655435494
  0.8782800586371969  0.2816584352348208  0.5363371701981798
  0.6780208907396129  0.2693062080391527  0.1729450941773954
  0.7892796034033508  0.2819499331071285  0.3183008666735646
  0.7892903970276205  0.3589938652915014  0.3183018814871999
  0.9005583671584610  0.3717867240123077  0.3546424643169235
  0.7670333202626899  0.3204749192853066  0.3183026298604723
  0.8115395350242283  0.3460592749083838  0.3909813977020106
  0.8560457497857670  0.3716436305314607  0.4636601655435494
  0.9227982476879661  0.3587029999763591  0.5363371701981798
  0.7892688498814668  0.2049047358084247  0.3183018814871999
  0.8782812794045435  0.2560734470545782  0.4636594171702766
  0.7892808241706973  0.2563649449268859  0.2456231136456615
  0.8782932536937749  0.3075336561730401  0.3909806493287383
  0.9005423916903825  0.2945990657899221  0.4636601655435494
  0.8783052279830054  0.3589938652915014  0.3183018814871999
  0.8560481512180748  0.3204749192853066  0.3183026298604723
  0.9005543659796135  0.3460592749083838  0.3909813977020106
  0.7670133728630766  0.2432819501523076  0.4273212321584619
  0.7002408238695047  0.1790295148702055  0.4636584023566415
  0.6557358298753129  0.1278601710668861  0.3183018814871999
  0.7892556548248890  0.1790295148702055  0.4636584023566415
  0.8782920329264274  0.3331186443532823  0.4636584023566415
  0.4109325018953843  0.0891928206692309  0.4273212321584619
  0.3441707465260820  0.1019843175715013  0.4636594171702766
  0.4109444761846152  0.1406530297876921  0.3546424643169235
  0.3441827208153130  0.1534445266899629  0.3909806493287383
  0.3219256440503824  0.1149255806837682  0.3909813977020106
  0.3886781419525815  0.1019849501286669  0.4636584023566415
  0.3664318588119211  0.1405099363068451  0.4636601655435494
  0.4109564504738457  0.1921132389061538  0.2819636964753847
  0.3441946951045435  0.2049047358084247  0.3183018814871999
  0.3886901162418125  0.1534451592471286  0.3909796345151029
  0.3664438331011520  0.1919701454253066  0.3909813977020106
  0.4331963310033508  0.1790295148702055  0.4636584023566415
  0.4332071246276205  0.2560734470545782  0.4636594171702766
  0.4109684247630766  0.2435734480246155  0.2092849286338465
  0.3442066693937744  0.2563649449268859  0.2456231136456615
  0.4554746395246149  0.2691578036476922  0.2819636964753847
  0.4332190989168514  0.3075336561730401  0.3909806493287383
  0.5222207348156583  0.2816584352348208  0.5363371701981798
  0.4999928285753841  0.3462023683892308  0.2819636964753847
  0.4332310732060819  0.3589938652915014  0.3183018814871999
  0.4554802112026901  0.3460592749083838  0.3909813977020106
  0.5222435027291590  0.4101625765376551  0.4636594171702766
  0.4999864259642283  0.3716436305314607  0.4636601655435494
  0.5667389238664275  0.3587029999763591  0.5363371701981798
  0.3886793627199285  0.0763999619484244  0.3909806493287383
  0.4999473328507691  0.0891928206692309  0.4273212321584619
  0.4776809986187354  0.0505247410102055  0.5363371701981798
  0.4554530923784613  0.1150686741646152  0.2819636964753847
  0.3886913370091590  0.1278601710668861  0.3183018814871999
  0.4999593071399991  0.1406530297876921  0.3546424643169235
  0.4554466897673055  0.1405099363068451  0.4636601655435494
  0.4999712814292309  0.1921132389061538  0.2819636964753847
  0.5889837109523075  0.2432819501523076  0.4273212321584619
  0.6334899257138462  0.2688663057753845  0.5000000000000000
  0.4109644235842286  0.2178459989206912  0.2456238620189339
  0.4777277151106974  0.2819493005499628  0.3183018814871999
  0.4999952300076914  0.2950336571430768  0.1366061607923080
  0.4332226810141199  0.2307812218609747  0.1729433309904875
  0.4777288957756582  0.2563655774840516  0.2456220988320258
  0.4777396893999284  0.3334095096684245  0.2456231136456615
  0.5890076595307689  0.3462023683892308  0.2819636964753847
  0.4554826126349978  0.2948905636622298  0.2456238620189339
  0.5222351105371970  0.2819499331071285  0.3183008666735646
  0.4999888273965361  0.3204749192853066  0.3183026298604723
  0.5667413252987352  0.3075342887302054  0.3909796345151029
  0.5444950421580748  0.3460592749083838  0.3909813977020106
  0.5889621638061538  0.0891928206692309  0.4273212321584619
  0.5666958295741198  0.0505247410102055  0.5363371701981798
  0.4554490911996132  0.0893412250606913  0.3183026298604723
  0.6334803528569226  0.1662373854107692  0.4273212321584619
  0.4999553059611515  0.1149255806837682  0.3909813977020106
  0.5667185974876203  0.1790288823130398  0.4636594171702766
  0.6779865676184613  0.1918217410338459  0.5000000000000000
  0.5444615207226902  0.1405099363068451  0.4636601655435494
  0.5222135633910424  0.1278608036240515  0.3183008666735646
  0.5222243570153130  0.2049047358084247  0.3183018814871999
  0.6779985419076918  0.2432819501523076  0.4273212321584619
  0.6112259929141199  0.1790295148702055  0.4636584023566415
  0.5889980866738461  0.2435734480246155  0.2092849286338465
  0.5222363313045435  0.2563649449268859  0.2456231136456615
  0.6335043014353845  0.2691578036476922  0.2819636964753847
  0.5444854693011516  0.2434303545437681  0.3183026298604723
  0.6112487608276205  0.3075336561730401  0.3909806493287383
  0.7225167309584610  0.3203265148938462  0.4273212321584619
  0.5889916840626899  0.2690147101668452  0.3909813977020106
  0.7002503967264279  0.2816584352348208  0.5363371701981798
  0.4777420908322361  0.2822407984222705  0.1002655779625846
  0.5667545203553127  0.3334095096684245  0.2456231136456615
  0.6780224904861537  0.3462023683892308  0.2819636964753847
  0.5444974435903825  0.2948905636622298  0.2456238620189339
  0.6112499414925813  0.2819499331071285  0.3183008666735646
  0.7225287052476920  0.3717867240123077  0.3546424643169235
  0.5890036583519208  0.3204749192853066  0.3183026298604723
  0.6112152393922359  0.1019843175715013  0.4636594171702766
  0.5444639221549975  0.0893412250606913  0.3183026298604723
  0.6112164200571967  0.0764005945055900  0.3909796345151029
  0.7224951838123074  0.1662373854107692  0.4273212321584619
  0.7670013985738456  0.1918217410338459  0.5000000000000000
  0.6334763516780750  0.1405099363068451  0.4636601655435494
  0.0771789208091590  0.5127914969022705  0.5363381850118154
  0.1884468909399997  0.5255843556230769  0.5726787678415388
  0.0994280588057671  0.4998569065191529  0.6090177012266261
  0.1661805567079662  0.4869162759640517  0.6816947058812568
  0.1661913503322359  0.5639602081484244  0.6816957206948921
  0.2106975650937745  0.5895445637715013  0.7543744885364307
  0.2551929862310431  0.5380849872102055  0.8270522415643338
  0.5890459509584612  0.7567180498476922  0.5726787678415388
  0.4555209040626903  0.7054062451206912  0.5363389333850878
  0.5667904103506977  0.7950939023730398  0.6816957206948921
  0.6780583804815382  0.8078867610938462  0.7180363035246158
  0.5445333335857671  0.7565749563668451  0.6816964690681647
  0.6112966251122363  0.8206782579961168  0.7543744885364307
  0.5890395483473054  0.7821593119899219  0.7543752369097031
  0.6557920462495046  0.7692186814348211  0.8270522415643338
  0.5222961698783897  0.8209697558684246  0.5363381850118154
  0.6780703547707689  0.8593469702123079  0.6453575356830774
  0.5445453078749980  0.8080351654853067  0.6090177012266261
  0.6113085994014669  0.8721384671145783  0.6816957206948921
  0.5668143589291591  0.8980143206099629  0.5363381850118154
  0.6780823290599997  0.9108071793307692  0.5726787678415388
  0.5445572821642287  0.8594953746037681  0.5363389333850878
  0.6113097800664277  0.8465547440486670  0.6090159380397184
  0.6113205736906976  0.9235986762330398  0.6090169528533538
  0.5890124295230769  0.5511687112461540  0.6453575356830774
  0.4554873826273055  0.4998569065191529  0.6090177012266261
  0.5222398805295047  0.4869162759640517  0.6816947058812568
  0.5222506741537744  0.5639602081484244  0.6816957206948921
  0.6780248590461536  0.6023374224923078  0.7907150713661544
  0.5444998121503826  0.5510256177653068  0.7543752369097031
  0.6112523100525815  0.5380849872102055  0.8270522415643338
  0.6557693184383897  0.6407132750176552  0.8997320242195077
  0.4777564336814668  0.5898360616438091  0.5363381850118154
  0.5890244038123076  0.6026289203646155  0.5726787678415388
  0.4554993569165364  0.5513171156376144  0.5363389333850878
  0.5222518548187354  0.5383764850825133  0.6090159380397184
  0.5222626484430053  0.6154204172668861  0.6090169528533538
  0.6780368333353846  0.6537976316107692  0.7180363035246158
  0.5445117864396130  0.6024858268837684  0.6816964690681647
  0.6112642843418122  0.5895451963286671  0.7543734737227952
  0.6112750779660824  0.6665891285130399  0.7543744885364307
  0.6335242159626900  0.6536545381299222  0.8270540047512417
  0.5222746227322360  0.6668806263853476  0.5363381850118154
  0.6780488076246153  0.7052578407292307  0.6453575356830774
  0.5445237607288439  0.6539460360022298  0.6090177012266261
  0.6112762586310431  0.6410054054471287  0.6816947058812568
  0.6112870522553132  0.7180493376315015  0.6816957206948921
  0.7002886881541202  0.6921741166932824  0.8270522415643338
  0.6780424050134597  0.7306991028714607  0.8270540047512417
  0.6780607819138458  0.7567180498476922  0.5726787678415388
  0.5445357350180748  0.7054062451206912  0.5363389333850878
  0.6112882329202738  0.6924656145655903  0.6090159380397184
  0.6112990265445437  0.7695095467499629  0.6090169528533538
  0.7003006624433507  0.7436343258117440  0.7543734737227952
  0.7003114560676208  0.8206782579961168  0.7543744885364307
  0.6113110008337744  0.8209697558684246  0.5363381850118154
  0.6335601388303823  0.8080351654853067  0.6090177012266261
  0.7003126367325816  0.7950945349302057  0.6816947058812568
  0.7003234303568513  0.8721384671145783  0.6816957206948921
  0.6558291898845439  0.8980143206099629  0.5363381850118154
  0.6335721131196133  0.8594953746037681  0.5363389333850878
  0.7003246110218122  0.8465547440486670  0.6090159380397184
  0.5222530755860821  0.5127914969022705  0.5363381850118154
  0.4999959988211518  0.4742725508960760  0.5363389333850878
  0.6780272604784614  0.5511687112461540  0.6453575356830774
  0.5445022135826902  0.4998569065191529  0.6090177012266261
  0.6112547114848892  0.4869162759640517  0.6816947058812568
  0.6112655051091591  0.5639602081484244  0.6816957206948921
  0.7225334752399997  0.5767530668692308  0.7180363035246158
  0.6335146431057673  0.5510256177653068  0.7543752369097031
  0.7002671410079661  0.5380849872102055  0.8270522415643338
  0.7002779346322362  0.6151289193945781  0.8270532563779691
  0.5667712646368513  0.5898360616438091  0.5363381850118154
  0.6780392347676919  0.6026289203646155  0.5726787678415388
  0.5445141878719212  0.5513171156376144  0.5363389333850878
  0.6112666857741199  0.5383764850825133  0.6090159380397184
  0.6112774793983901  0.6154204172668861  0.6090169528533538
  0.6335266173949979  0.6024858268837684  0.6816964690681647
  0.7002899089214669  0.6665891285130399  0.7543744885364307
  0.7225390469180748  0.6536545381299222  0.8270540047512417
  0.6112894536876208  0.6668806263853476  0.5363381850118154
  0.6335385916842287  0.6539460360022298  0.6090177012266261
  0.8115698533415381  0.7308421963523076  0.7180363035246158
  0.7225510212073057  0.7051147472483836  0.7543752369097031
  0.6335505659734596  0.7054062451206912  0.5363389333850878
  0.7003030638756583  0.6924656145655903  0.6090159380397184
  0.7003138574999285  0.7695095467499629  0.6090169528533538
  0.8115818276307690  0.7823024054707692  0.6453575356830774
  0.7225629954965365  0.7565749563668451  0.6816964690681647
  0.7893154933987352  0.7436343258117440  0.7543734737227952
  0.7003258317891592  0.8209697558684246  0.5363381850118154
  0.7225749697857673  0.8080351654853067  0.6090177012266261
  0.2774593204630767  0.5767530668692308  0.7180363035246158
  0.2552037798553128  0.6151289193945781  0.8270532563779691
  0.5222841955891592  0.7695095467499629  0.6090169528533538
  0.6112631036768514  0.6151289193945781  0.8270532563779691
  0.6335361902519210  0.7051147472483836  0.7543752369097031
  0.6335481645411517  0.7565749563668451  0.6816964690681647
  0.7670636385799998  0.7052578407292307  0.6453575356830774
  0.7003018832106976  0.7180493376315015  0.6816957206948921
  0.2329467030903824  0.5766099733883837  0.8270540047512417
  0.1216971098599284  0.5898360616438091  0.5363381850118154
  0.2329650799907689  0.6026289203646155  0.5726787678415388
  0.1661925309971971  0.5383764850825133  0.6090159380397184
  0.1662033246214669  0.6154204172668861  0.6090169528533538
  0.2106987457587355  0.5639608407055902  0.6816947058812568
  0.2107095393830053  0.6410047728899629  0.6816957206948921
  0.3219775095138460  0.6537976316107692  0.7180363035246158
  0.1884524626180748  0.6024858268837684  0.6816964690681647
  0.2552157541445437  0.6665891285130399  0.7543744885364307
  0.3664837242753844  0.6793819872338462  0.7907150713661544
  0.2329586773796131  0.6280701825068451  0.7543752369097031
  0.2774648921411518  0.6536545381299222  0.8270540047512417
  0.1662152989106976  0.6668806263853476  0.5363381850118154
  0.3219894838030766  0.7052578407292307  0.6453575356830774
  0.1884644369073057  0.6539460360022298  0.6090177012266261
  0.2552169348095047  0.6410054054471287  0.6816947058812568
  0.2552277284337746  0.7180493376315015  0.6816957206948921
  0.2997231495710430  0.6665897610702055  0.7543734737227952
  0.4110019133261537  0.7564265519753847  0.7907150713661544
  0.3442293643325815  0.6921741166932824  0.8270522415643338
  0.3442401579568512  0.7692180488776551  0.8270532563779691
  0.2107334879614668  0.7439251911268859  0.5363381850118154
  0.3220014580923076  0.7567180498476922  0.5726787678415388
  0.1884764111965364  0.7054062451206912  0.5363389333850878
  0.2552289090987356  0.6924656145655903  0.6090159380397184
  0.2552397027230051  0.7695095467499629  0.6090169528533538
  0.2329826259580747  0.7309906007437683  0.6090177012266261
  0.2997351238602739  0.7180499701886670  0.6816947058812568
  0.4110138876153844  0.8078867610938462  0.7180363035246158
  0.2774888407196132  0.7565749563668451  0.6816964690681647
  0.3442413386218124  0.7436343258117440  0.7543734737227952
  0.3442521322460821  0.8206782579961168  0.7543744885364307
  0.4555201023769229  0.8334711167169231  0.7907150713661544
  0.3665196471430768  0.8337626145892308  0.5726787678415388
  0.2329946002473056  0.7824508098622298  0.5363389333850878
  0.2997470981495046  0.7695101793071286  0.6090159380397184
  0.2997578917737745  0.8465541114915014  0.6090169528533538
  0.2775008150088439  0.8080351654853067  0.6090177012266261
  0.3442533129110433  0.7950945349302057  0.6816947058812568
  0.3442641065353130  0.8721384671145783  0.6816957206948921
  0.3220070297703824  0.8336195211083836  0.6816964690681647
  0.3887595276725817  0.8206788905532824  0.7543734737227952
  0.3665132445319210  0.8592038767314605  0.7543752369097031
  0.4110378361938460  0.9108071793307692  0.5726787678415388
  0.3442652872002738  0.8465547440486670  0.6090159380397184
  0.3887715019618121  0.8721390996717440  0.6816947058812568
  0.3219679366569227  0.5511687112461540  0.6453575356830774
  0.1884428897611517  0.4998569065191529  0.6090177012266261
  0.2551953876633508  0.4869162759640517  0.6816947058812568
  0.2552061812876205  0.5639602081484244  0.6816957206948921
  0.2997123960491592  0.5895445637715013  0.7543744885364307
  0.4109803661799998  0.6023374224923078  0.7907150713661544
  0.3219615340457672  0.5766099733883837  0.8270540047512417
  0.3887140319479661  0.5636693428332825  0.8997310094058724
  0.3887248255722358  0.6407132750176552  0.8997320242195077
  0.3664677488073056  0.6021943290114606  0.8997327725927803
  0.3219799109461537  0.6026289203646155  0.5726787678415388
  0.1884548640503825  0.5513171156376144  0.5363389333850878
  0.2552073619525817  0.5383764850825133  0.6090159380397184
  0.2552181555768514  0.6154204172668861  0.6090169528533538
  0.2997243703383899  0.6410047728899629  0.6816957206948921
  0.4554985552307690  0.6793819872338462  0.7907150713661544
  0.3219735083349977  0.6280701825068451  0.7543752369097031
  0.3887260062371971  0.6151295519517441  0.8270522415643338
  0.3887367998614668  0.6921734841361168  0.8270532563779691
  0.3664797230965364  0.6536545381299222  0.8270540047512417
  0.4332322209987354  0.6407139075748209  0.8997310094058724
  0.4332430146230051  0.7177578397591936  0.8997320242195077
  0.4109859378580749  0.6792388937529991  0.8997327725927803
  0.2997363446276207  0.6924649820084244  0.6090169528533538
  0.4110043147584616  0.7052578407292307  0.6453575356830774
  0.3887487741506977  0.7436336932545785  0.7543744885364307
  0.5000167442815384  0.7564265519753847  0.7907150713661544
  0.4332441952879660  0.6921741166932824  0.8270522415643338
  0.4332549889122360  0.7692180488776551  0.8270532563779691
  0.4777504100495046  0.7177584723163594  0.8997310094058724
  0.4110162890476921  0.7567180498476922  0.5726787678415388
  0.3442437400541202  0.6924656145655903  0.6090159380397184
  0.3442545336783899  0.7695095467499629  0.6090169528533538
  0.4555225038092304  0.7823024054707692  0.6453575356830774
  0.3219974569134595  0.7309906007437683  0.6090177012266261
  0.3887499548156584  0.7180499701886670  0.6816947058812568
  0.3887607484399281  0.7950939023730398  0.6816957206948921
  0.5000287185707689  0.8078867610938462  0.7180363035246158
  0.4332561695771970  0.7436343258117440  0.7543734737227952
  0.4332669632014667  0.8206782579961168  0.7543744885364307
  0.5445349333323076  0.8334711167169231  0.7907150713661544
  0.4110098864365363  0.7821593119899219  0.7543752369097031
  0.4777623843387355  0.7692186814348211  0.8270522415643338
  0.4555161011980748  0.8077436676129991  0.8270540047512417
  0.3442665079676205  0.8209697558684246  0.5363381850118154
  0.3220094312026902  0.7824508098622298  0.5363389333850878
  0.3887727227291591  0.8465541114915014  0.6090169528533538
  0.5000406928599999  0.8593469702123079  0.6453575356830774
  0.3665156459642285  0.8080351654853067  0.6090177012266261
  0.4110218607257670  0.8336195211083836  0.6816964690681647
  0.4777743586279662  0.8206788905532824  0.7543734737227952
  0.4555280754873055  0.8592038767314605  0.7543752369097031
  0.3887846970183898  0.8980143206099629  0.5363381850118154
  0.5000526671492308  0.9108071793307692  0.5726787678415388
  0.3665276202534594  0.8594953746037681  0.5363389333850878
  0.4332909117799283  0.9235986762330398  0.6090169528533538
  0.4777863329171967  0.8721390996717440  0.6816947058812568
  0.4555400497765362  0.9106640858499220  0.6816964690681647
  0.2329515059549979  0.4742725508960760  0.5363389333850878
  0.4109827676123075  0.5511687112461540  0.6453575356830774
  0.3442102186187354  0.4869162759640517  0.6816947058812568
  0.3442210122430053  0.5639602081484244  0.6816957206948921
  0.3887164333802739  0.5125006315871287  0.7543734737227952
  0.3887272270045440  0.5895445637715013  0.7543744885364307
  0.4999951971353845  0.6023374224923078  0.7907150713661544
  0.3664701502396132  0.5510256177653068  0.7543752369097031
  0.4332226481418124  0.5380849872102055  0.8270522415643338
  0.4332334417660821  0.6151289193945781  0.8270532563779691
  0.5445014118969228  0.6279217781153847  0.8633938392076927
  0.4109763650011517  0.5766099733883837  0.8270540047512417
  0.4777288629033509  0.5636693428332825  0.8997310094058724
  0.4777396565276206  0.6407132750176552  0.8997320242195077
  0.2997267717706975  0.5898360616438091  0.5363381850118154
  0.4109947419015385  0.6026289203646155  0.5726787678415388
  0.2774696950057671  0.5513171156376144  0.5363389333850878
  0.3442221929079663  0.5383764850825133  0.6090159380397184
  0.3442329865322360  0.6154204172668861  0.6090169528533538
  0.4555009566630767  0.6282132759876924  0.6453575356830774
  0.3664821245288441  0.6024858268837684  0.6816964690681647
  0.4332346224310431  0.5895451963286671  0.7543734737227952
  0.4332454160553130  0.6665891285130399  0.7543744885364307
  0.4109883392903824  0.6280701825068451  0.7543752369097031
  0.4777516308168513  0.6921734841361168  0.8270532563779691
  0.5890196009476921  0.7049663428569232  0.8633938392076927
  0.4554945540519209  0.6536545381299222  0.8270540047512417
  0.5222470519541201  0.6407139075748209  0.8997310094058724
  0.5000007688134595  0.6792388937529991  0.8997327725927803
  0.3442449608214667  0.6668806263853476  0.5363381850118154
  0.5000191457138460  0.7052578407292307  0.6453575356830774
  0.3664940988180748  0.6539460360022298  0.6090177012266261
  0.4332465967202740  0.6410054054471287  0.6816947058812568
  0.4332573903445437  0.7180493376315015  0.6816957206948921
  0.5445253604753845  0.7308421963523076  0.7180363035246158
  0.4110003135796131  0.6795303916253067  0.6816964690681647
  0.4777636051060822  0.7436336932545785  0.7543744885364307
  0.5222590262433509  0.6921741166932824  0.8270522415643338
  0.5667652410048891  0.7177584723163594  0.8997310094058724
  0.5000311200030769  0.7567180498476922  0.5726787678415388
  0.3665060731073055  0.7054062451206912  0.5363389333850878
  0.4332585710095045  0.6924656145655903  0.6090159380397184
  0.4332693646337746  0.7695095467499629  0.6090169528533538
  0.5445373347646152  0.7823024054707692  0.6453575356830774
  0.4777647857710433  0.7180499701886670  0.6816947058812568
  0.4777755793953130  0.7950939023730398  0.6816957206948921
  0.5890435495261537  0.8078867610938462  0.7180363035246158
  0.5222710005325816  0.7436343258117440  0.7543734737227952
  0.5222817941568515  0.8206782579961168  0.7543744885364307
  0.5000247173919209  0.7821593119899219  0.7543752369097031
  0.5667772152941201  0.7692186814348211  0.8270522415643338
  0.4777767600602741  0.7695101793071286  0.6090159380397184
  0.4777875536845436  0.8465541114915014  0.6090169528533538
  0.5890555238153846  0.8593469702123079  0.6453575356830774
  0.4555304769196132  0.8080351654853067  0.6090177012266261
  0.5222829748218122  0.7950945349302057  0.6816947058812568
  0.5222937684460821  0.8721384671145783  0.6816957206948921
  0.5000366916811515  0.8336195211083836  0.6816964690681647
  0.5667891895833508  0.8206788905532824  0.7543734737227952
  0.4777995279737743  0.8980143206099629  0.5363381850118154
  0.4555424512088440  0.8594953746037681  0.5363389333850878
  0.5222949491110431  0.8465547440486670  0.6090159380397184
  0.5223057427353128  0.9235986762330398  0.6090169528533538
  0.5000486659703824  0.8850797302268453  0.6090177012266261
  0.5445548807319208  0.9106640858499220  0.6816964690681647
  0.3442234136753128  0.5127914969022705  0.5363381850118154
  0.3219663369103826  0.4742725508960760  0.5363389333850878
  0.4999975985676920  0.5511687112461540  0.6453575356830774
  0.3664725516719209  0.4998569065191529  0.6090177012266261
  0.4332250495741199  0.4869162759640517  0.6816947058812568
  0.4332358431983896  0.5639602081484244  0.6816957206948921
  0.5890100280907691  0.6023374224923078  0.7907150713661544
  0.4554849811949978  0.5510256177653068  0.7543752369097031
  0.5222374790971970  0.5380849872102055  0.8270522415643338
  0.5222482727214667  0.6151289193945781  0.8270532563779691
  0.5667544874830049  0.6407132750176552  0.8997320242195077
  0.5444974107180748  0.6021943290114606  0.8997327725927803
  0.3664845259611518  0.5513171156376144  0.5363389333850878
  0.4332370238633508  0.5383764850825133  0.6090159380397184
  0.4332478174876205  0.6154204172668861  0.6090169528533538
  0.4777540322491589  0.6410047728899629  0.6816957206948921
  0.5890220023799998  0.6537976316107692  0.7180363035246158
  0.4554969554842286  0.6024858268837684  0.6816964690681647
  0.5222494533864276  0.5895451963286671  0.7543734737227952
  0.5222602470106975  0.6665891285130399  0.7543744885364307
  0.5667664617722361  0.6921734841361168  0.8270532563779691
  0.6780344319030769  0.7049663428569232  0.8633938392076927
  0.6112618829095045  0.6407139075748209  0.8997310094058724
  0.5890155997688442  0.6792388937529991  0.8997327725927803
  0.5890339766692307  0.7052578407292307  0.6453575356830774
  0.4555089297734596  0.6539460360022298  0.6090177012266261
  0.5000151445349978  0.6795303916253067  0.6816964690681647
  0.5667784360614668  0.7436336932545785  0.7543744885364307
  0.6780464061923075  0.7564265519753847  0.7907150713661544
  0.5445213592965364  0.7051147472483836  0.7543752369097031
  0.6112738571987354  0.6921741166932824  0.8270522415643338
  0.5890275740580749  0.7306991028714607  0.8270540047512417
  0.7225358766723075  0.5255843556230769  0.5726787678415388
  0.5890108297765363  0.4742725508960760  0.5363389333850878
  0.6557633276787355  0.4613319203409748  0.6090159380397184
  0.6557741213030052  0.5383758525253475  0.6090169528533538
  0.7670420914338462  0.5511687112461540  0.6453575356830774
  0.7447865508260822  0.5895445637715013  0.7543744885364307
  0.9450701535980749  0.4742725508960760  0.5363389333850878
  0.7447757572018121  0.5125006315871287  0.7543734737227952
  0.6557860955922361  0.5898360616438091  0.5363381850118154
  0.7002815167295047  0.5383764850825133  0.6090159380397184
  0.8115602804846154  0.6282132759876924  0.6453575356830774
  0.7447877314910430  0.5639608407055902  0.6816947058812568
  0.7447985251153127  0.6410047728899629  0.6816957206948921
  0.8560664952461536  0.6537976316107692  0.7180363035246158
  0.7225414483503826  0.6024858268837684  0.6816964690681647
  0.7447997057802739  0.6154210498240517  0.6090159380397184
  0.7448104994045436  0.6924649820084244  0.6090169528533538
  0.8560784695353846  0.7052578407292307  0.6453575356830774
  0.7225534226396134  0.6539460360022298  0.6090177012266261
  0.8338121353033505  0.6665897610702055  0.7543734737227952
  0.8115658521626903  0.7051147472483836  0.7543752369097031
  0.7448224736937743  0.7439251911268859  0.5363381850118154
  0.8560904438246151  0.7567180498476922  0.5726787678415388
  0.7225653969288439  0.7054062451206912  0.5363389333850878
  0.7893286884553128  0.7695095467499629  0.6090169528533538
  0.8338241095925817  0.7180499701886670  0.6816947058812568
  0.8115778264519210  0.7565749563668451  0.6816964690681647
  0.7893406627445437  0.8209697558684246  0.5363381850118154
  0.7670835859796131  0.7824508098622298  0.5363389333850878
  0.8338360838818124  0.7695101793071286  0.6090159380397184
  0.8115898007411519  0.8080351654853067  0.6090177012266261
  0.7002827374968514  0.5127914969022705  0.5363381850118154
  0.8115507076276922  0.5255843556230769  0.5726787678415388
  0.6780256607319211  0.4742725508960760  0.5363389333850878
  0.7447781586341202  0.4613319203409748  0.6090159380397184
  0.8560569223892305  0.5511687112461540  0.6453575356830774
  0.7225318754934593  0.4998569065191529  0.6090177012266261
  0.7892843733956586  0.4869162759640517  0.6816947058812568
  0.7892951670199283  0.5639602081484244  0.6816957206948921
  0.7670380902549981  0.5254412621422299  0.6816964690681647
  0.8337905881571969  0.5125006315871287  0.7543734737227952
  0.8115443050165364  0.5510256177653068  0.7543752369097031
  0.7448009265476206  0.5898360616438091  0.5363381850118154
  0.8560688966784614  0.6026289203646155  0.5726787678415388
  0.7225438497826903  0.5513171156376144  0.5363389333850878
  0.7893071413091591  0.6154204172668861  0.6090169528533538
  0.9005751114399997  0.6282132759876924  0.6453575356830774
  0.8338025624464278  0.5639608407055902  0.6816947058812568
  0.8338133560706975  0.6410047728899629  0.6816957206948921
  0.7670620388334595  0.6283616803791529  0.5363389333850878
  0.8338145367356586  0.6154210498240517  0.6090159380397184
  0.8338253303599283  0.6924649820084244  0.6090169528533538
  0.8115682535949978  0.6539460360022298  0.6090177012266261
  0.8783207514971970  0.6410054054471287  0.6816947058812568
  0.8560744683565366  0.6795303916253067  0.6816964690681647
  0.8338373046491593  0.7439251911268859  0.5363381850118154
  0.8783327257864280  0.6924656145655903  0.6090159380397184
  0.8560864426457671  0.7309906007437683  0.6090177012266261
  0.8560984169349979  0.7824508098622298  0.5363389333850878
  0.7892975684522360  0.5127914969022705  0.5363381850118154
  0.9005655385830768  0.5255843556230769  0.5726787678415388
  0.8338037832137747  0.5383758525253475  0.6090169528533538
  0.8115467064488441  0.4998569065191529  0.6090177012266261
  0.8783099979753131  0.5639602081484244  0.6816957206948921
  0.8560529212103827  0.5254412621422299  0.6816964690681647
  0.8783111786402742  0.5383764850825133  0.6090159380397184
  0.8783219722645439  0.6154204172668861  0.6090169528533538
  0.8560648954996132  0.5769014712606912  0.6090177012266261
  0.8783339465537746  0.6668806263853476  0.5363381850118154
  0.9228293676910431  0.6154210498240517  0.6090159380397184
  0.9005830845503826  0.6539460360022298  0.6090177012266261
  0.9005950588396130  0.7054062451206912  0.5363389333850878
  0.8560553226426901  0.4742725508960760  0.5363389333850878
  0.9228186141691592  0.5383758525253475  0.6090169528533538
  0.9005615374042287  0.4998569065191529  0.6090177012266261
  0.9228305884583899  0.5898360616438091  0.5363381850118154
  0.9005735116934593  0.5513171156376144  0.5363389333850878
  0.5000606402596134  0.9365399393453068  0.5363389333850878
  0.5890754712149977  0.9365399393453068  0.5363389333850878
  0.2106688465230052  0.2816578026776551  0.5363381850118154
  0.3219368166538459  0.2944506613984614  0.5726787678415388
  0.2996812760460822  0.3328265139238089  0.6816957206948921
  0.4109492461769229  0.3456193726446154  0.7180363035246158
  0.3441766971833505  0.2813669373625131  0.7543734737227952
  0.4999616756999998  0.3967880838907691  0.8633938392076927
  0.3664366288042286  0.3454762791637682  0.8270540047512417
  0.4331999203306977  0.4095795807930397  0.8997320242195077
  0.2329299588088440  0.3201834214129989  0.5363389333850878
  0.2996932503353126  0.3842867230422704  0.6090169528533538
  0.4109612204661534  0.3970795817630771  0.6453575356830774
  0.2774361735703825  0.3457677770360759  0.6090177012266261
  0.3441886714725815  0.3328271464809748  0.6816947058812568
  0.3219423883319210  0.3713521326591527  0.6816964690681647
  0.4999736499892307  0.4482482930092309  0.7907150713661544
  0.3664486030934591  0.3969364882822296  0.7543752369097031
  0.4332011009956585  0.3839958577271286  0.8270522415643338
  0.4332118946199282  0.4610397899115015  0.8270532563779691
  0.5889860795123075  0.4994170042553844  0.9360726070492311
  0.4554610326165366  0.4481051995283836  0.8997327725927803
  0.2997052246245438  0.4357469321607321  0.5363381850118154
  0.4109731947553844  0.4485397908815383  0.5726787678415388
  0.2774481478596132  0.3972279861545373  0.5363389333850878
  0.3442114393860821  0.4613312877838089  0.6090169528533538
  0.3219543626211517  0.4228123417776144  0.6090177012266261
  0.4999856242784614  0.4997085021276924  0.7180363035246158
  0.3664605773826902  0.4483966974006913  0.6816964690681647
  0.4332130752848892  0.4354560668455900  0.7543734737227952
  0.4332238689091594  0.5124999990299627  0.7543744885364307
  0.5889980538015381  0.5508772133738461  0.8633938392076927
  0.4554730069057668  0.4995654086468453  0.8270540047512417
  0.5222255048079660  0.4866247780917438  0.8997310094058724
  0.5222362984322362  0.5636687102761168  0.8997320242195077
  0.3219152695076922  0.1403615319153846  0.5726787678415388
  0.4109276990307688  0.1915302431615384  0.7180363035246158
  0.2774026521349977  0.1402184384345374  0.6816964690681647
  0.3441659436614668  0.2043217400638090  0.7543744885364307
  0.4999401285538458  0.2426989544076924  0.8633938392076927
  0.3664334585584614  0.2174060966569230  0.5726787678415388
  0.2996717031891592  0.2301975935591936  0.6090169528533538
  0.4109396733199998  0.2429904522799999  0.6453575356830774
  0.2774146264242286  0.1916786475529989  0.6090177012266261
  0.3441671243264278  0.1787380169978978  0.6816947058812568
  0.3441779179506975  0.2557819491822703  0.6816957206948921
  0.4999521028430770  0.2941591635261537  0.7907150713661544
  0.3664270559473054  0.2428473587991527  0.7543752369097031
  0.4331795538495044  0.2299067282440516  0.8270522415643338
  0.4331903474737746  0.3069506604284243  0.8270532563779691
  0.4554394854703824  0.2940160700453069  0.8997327725927803
  0.2774266007134595  0.2431388566714606  0.5363389333850878
  0.3441898922399284  0.3072421583007320  0.6090169528533538
  0.4999640771323073  0.3456193726446154  0.7180363035246158
  0.3664390302365363  0.2943075679176144  0.6816964690681647
  0.4331915281387353  0.2813669373625131  0.7543734737227952
  0.4332023217630059  0.3584108695468860  0.7543744885364307
  0.5889765066553845  0.3967880838907691  0.8633938392076927
  0.4554514597596132  0.3454762791637682  0.8270540047512417
  0.5222039576618122  0.3325356486086671  0.8997310094058724
  0.5222147512860821  0.4095795807930397  0.8997320242195077
  0.4999760514215382  0.3970795817630771  0.6453575356830774
  0.3664510045257671  0.3457677770360759  0.6090177012266261
  0.4332035024279662  0.3328271464809748  0.6816947058812568
  0.4332142960522359  0.4098710786653472  0.6816957206948921
  0.5889884809446154  0.4482482930092309  0.7907150713661544
  0.4554634340488439  0.3969364882822296  0.7543752369097031
  0.5222159319510429  0.3839958577271286  0.8270522415643338
  0.5222267255753130  0.4610397899115015  0.8270532563779691
  0.5444758635719211  0.4481051995283836  0.8997327725927803
  0.3887200555799283  0.4357469321607321  0.5363381850118154
  0.4999880257107691  0.4485397908815383  0.5726787678415388
  0.3664629788149980  0.3972279861545373  0.5363389333850878
  0.4332154767171970  0.3842873555994362  0.6090159380397184
  0.4332262703414669  0.4613312877838089  0.6090169528533538
  0.5890004552338459  0.4997085021276924  0.7180363035246158
  0.4554754083380748  0.4483966974006913  0.6816964690681647
  0.5222279062402737  0.4354560668455900  0.7543734737227952
  0.5222386998645441  0.5124999990299627  0.7543744885364307
  0.6780128847569228  0.5508772133738461  0.8633938392076927
  0.5444878378611516  0.4995654086468453  0.8270540047512417
  0.6112403357633506  0.4866247780917438  0.8997310094058724
  0.6112511293876205  0.5636687102761168  0.8997320242195077
  0.4109181261738461  0.0889013227969230  0.6453575356830774
  0.2996621303322360  0.1275686731945782  0.5363381850118154
  0.4109301004630765  0.1403615319153846  0.5726787678415388
  0.3441683450937745  0.1531530288176551  0.6090169528533538
  0.4999425299861536  0.1915302431615384  0.7180363035246158
  0.3664174830903825  0.1402184384345374  0.6816964690681647
  0.4331699809925816  0.1272778078794361  0.7543734737227952
  0.4331807746168516  0.2043217400638090  0.7543744885364307
  0.4554299126134595  0.1913871496806912  0.8270540047512417
  0.3441803193830053  0.2046132379361167  0.5363381850118154
  0.3219232426180746  0.1660942919299220  0.5363389333850878
  0.4999545042753841  0.2429904522799999  0.6453575356830774
  0.3664294573796131  0.1916786475529989  0.6090177012266261
  0.4331819552818121  0.1787380169978978  0.6816947058812568
  0.4331927489060823  0.2557819491822703  0.6816957206948921
  0.5889669337984611  0.2941591635261537  0.7907150713661544
  0.4554418869026902  0.2428473587991527  0.7543752369097031
  0.5221943848048892  0.2299067282440516  0.8270522415643338
  0.5222051784291593  0.3069506604284243  0.8270532563779691
  0.6334731485599996  0.3197435191492308  0.8633938392076927
  0.5444543164257672  0.2940160700453069  0.8997327725927803
  0.3886985084337745  0.2816578026776551  0.5363381850118154
  0.4999664785646150  0.2944506613984614  0.5726787678415388
  0.3664414316688439  0.2431388566714606  0.5363389333850878
  0.4331939295710432  0.2301982261163593  0.6090159380397184
  0.4332047231953128  0.3072421583007320  0.6090169528533538
  0.5889789080876920  0.3456193726446154  0.7180363035246158
  0.4554538611919209  0.2943075679176144  0.6816964690681647
  0.5222063590941198  0.2813669373625131  0.7543734737227952
  0.5222171527183900  0.3584108695468860  0.7543744885364307
  0.6779913376107690  0.3967880838907691  0.8633938392076927
  0.5444662907149980  0.3454762791637682  0.8270540047512417
  0.6112187886171967  0.3325356486086671  0.8997310094058724
  0.4332166974845437  0.3587023674191937  0.5363381850118154
  0.5889908823769230  0.3970795817630771  0.6453575356830774
  0.4554658354811518  0.3457677770360759  0.6090177012266261
  0.5222183333833510  0.3328271464809748  0.6816947058812568
  0.5222291270076207  0.4098710786653472  0.6816957206948921
  0.6780033119000000  0.4482482930092309  0.7907150713661544
  0.5444782650042286  0.3969364882822296  0.7543752369097031
  0.6112415565306978  0.4610397899115015  0.8270532563779691
  0.6557369776679663  0.4095802133502057  0.8997310094058724
  0.5890028566661537  0.4485397908815383  0.5726787678415388
  0.4554778097703825  0.3972279861545373  0.5363389333850878
  0.5222303076725817  0.3842873555994362  0.6090159380397184
  0.5222411012968516  0.4613312877838089  0.6090169528533538
  0.6780152861892305  0.4997085021276924  0.7180363035246158
  0.5444902392934593  0.4483966974006913  0.6816964690681647
  0.6112427371956584  0.4354560668455900  0.7543734737227952
  0.6112535308199285  0.5124999990299627  0.7543744885364307
  0.7670277157123073  0.5508772133738461  0.8633938392076927
  0.6335026688165364  0.4995654086468453  0.8270540047512417
  0.7002659603430053  0.5636687102761168  0.8997320242195077
  0.5889549595092306  0.2426989544076924  0.8633938392076927
  0.6112307629064276  0.3839958577271286  0.8270522415643338
  0.6780088835780751  0.5251497642699222  0.8997327725927803
  0.1439047533107690  0.3456193726446154  0.7180363035246158
  0.0994105128384612  0.3714952261400000  0.5726787678415388
  0.1439167275999998  0.3970795817630771  0.6453575356830774
  0.0771669465199282  0.4613312877838089  0.6090169528533538
  0.1884349166507690  0.4741241465046154  0.6453575356830774
  0.2329411314123075  0.4997085021276924  0.7180363035246158
  0.0994160845165362  0.4483966974006913  0.6816964690681647
  0.1661685824187351  0.4354560668455900  0.7543734737227952
  0.1661793760430053  0.5124999990299627  0.7543744885364307
  0.3219535609353845  0.5508772133738461  0.8633938392076927
  0.1884285140396132  0.4995654086468453  0.8270540047512417
  0.1884013952153844  0.2685748079030768  0.7180363035246158
  0.1439071547430767  0.2944506613984614  0.5726787678415388
  0.1884133695046153  0.3200350170215385  0.6453575356830774
  0.2329195842661536  0.3456193726446154  0.7180363035246158
  0.1661578288968515  0.3584108695468860  0.7543744885364307
  0.2774257990276923  0.3712037282676923  0.7907150713661544
  0.3219320137892304  0.3967880838907691  0.8633938392076927
  0.0771573736630052  0.3587023674191937  0.5363381850118154
  0.1884253437938458  0.3714952261400000  0.5726787678415388
  0.1216635884245436  0.3842867230422704  0.6090169528533538
  0.2774377733169228  0.4226639373861538  0.7180363035246158
  0.1884189411826901  0.3969364882822296  0.7543752369097031
  0.2551714390848894  0.3839958577271286  0.8270522415643338
  0.2551822327091591  0.4610397899115015  0.8270532563779691
  0.3664502028399996  0.4738326486323077  0.8633938392076927
  0.2996776538464277  0.4095802133502057  0.8997310094058724
  0.2774313707057668  0.4481051995283836  0.8997327725927803
  0.1216755627137745  0.4357469321607321  0.5363381850118154
  0.2329435328446152  0.4485397908815383  0.5726787678415388
  0.0994184859488439  0.3972279861545373  0.5363389333850878
  0.1661709838510431  0.3842873555994362  0.6090159380397184
  0.1661817774753129  0.4613312877838089  0.6090169528533538
  0.2774497476061535  0.4741241465046154  0.6453575356830774
  0.2106771986125812  0.4098717112225131  0.6816947058812568
  0.3219559623676920  0.4997085021276924  0.7180363035246158
  0.1884309154719209  0.4483966974006913  0.6816964690681647
  0.2551834133741196  0.4354560668455900  0.7543734737227952
  0.2551942069983898  0.5124999990299627  0.7543744885364307
  0.2329371302334592  0.4739810530237682  0.7543752369097031
  0.2996896281356584  0.4610404224686669  0.8270522415643338
  0.4109683918907689  0.5508772133738461  0.8633938392076927
  0.2774433449949977  0.4995654086468453  0.8270540047512417
  0.3442066365214664  0.5636687102761168  0.8997320242195077
  0.2329100114092306  0.2429904522799999  0.6453575356830774
  0.2774162261707689  0.2685748079030768  0.7180363035246158
  0.2106544708014666  0.2813663048053474  0.7543744885364307
  0.3219224409323075  0.2941591635261537  0.7907150713661544
  0.1216540155676205  0.2816578026776551  0.5363381850118154
  0.2329219856984613  0.2944506613984614  0.5726787678415388
  0.1661602303291590  0.3072421583007320  0.6090169528533538
  0.2106556514664278  0.2557825817394360  0.6816947058812568
  0.2106664450906974  0.3328265139238089  0.6816957206948921
  0.3219344152215382  0.3456193726446154  0.7180363035246158
  0.2551618662279662  0.2813669373625131  0.7543734737227952
  0.2551726598522359  0.3584108695468860  0.7543744885364307
  0.2996788746137745  0.3839952251699629  0.8270532563779691
  0.4109468447446152  0.3967880838907691  0.8633938392076927
  0.2774217978488441  0.3454762791637682  0.8270540047512417
  0.3219280126103823  0.3710606347868450  0.8997327725927803
  0.2774401747492306  0.3714952261400000  0.5726787678415388
  0.1439151278534592  0.3201834214129989  0.5363389333850878
  0.2106676257556587  0.3072427908578977  0.6090159380397184
  0.1884213426149977  0.3457677770360759  0.6090177012266261
  0.2551738405171972  0.3328271464809748  0.6816947058812568
  0.2551846341414669  0.4098710786653472  0.6816957206948921
  0.2329275573765362  0.3713521326591527  0.6816964690681647
  0.2996800552787354  0.3584115021040516  0.7543734737227952
  0.2996908489030051  0.4354554342884244  0.7543744885364307
  0.4109588190338463  0.4482482930092309  0.7907150713661544
  0.2774337721380745  0.3969364882822296  0.7543752369097031
  0.3664462016611518  0.4481051995283836  0.8997327725927803
  0.2106903936691590  0.4357469321607321  0.5363381850118154
  0.3219583637999996  0.4485397908815383  0.5726787678415388
  0.1884333169042285  0.3972279861545373  0.5363389333850878
  0.2551858148064276  0.3842873555994362  0.6090159380397184
  0.2551966084306975  0.4613312877838089  0.6090169528533538
  0.2996920295679661  0.4098717112225131  0.6816947058812568
  0.2997028231922363  0.4869156434068856  0.6816957206948921
  0.4109707933230766  0.4997085021276924  0.7180363035246158
  0.2774457464273055  0.4483966974006913  0.6816964690681647
  0.3442090379537743  0.5124999990299627  0.7543744885364307
  0.3219519611888438  0.4739810530237682  0.7543752369097031
  0.4999832228461537  0.5508772133738461  0.8633938392076927
  0.3664581759503825  0.4995654086468453  0.8270540047512417
  0.4332214674768514  0.5636687102761168  0.8997320242195077
  0.5444894376076922  0.5764615689969230  0.9360726070492311
  0.4109643907119208  0.5251497642699222  0.8997327725927803
  0.2329004385523075  0.1403615319153846  0.5726787678415388
  0.3219128680753845  0.1915302431615384  0.7180363035246158
  0.2551511127060823  0.2043217400638090  0.7543744885364307
  0.4109252975984615  0.2426989544076924  0.8633938392076927
  0.2106568722337744  0.2301975935591936  0.6090169528533538
  0.3219248423646152  0.2429904522799999  0.6453575356830774
  0.1883997954688439  0.1916786475529989  0.6090177012266261
  0.2551522933710430  0.1787380169978978  0.6816947058812568
  0.2551630869953129  0.2557819491822703  0.6816957206948921
  0.2329060102303826  0.2172630031760758  0.6816964690681647
  0.2996585081325813  0.2043223726209747  0.7543734737227952
  0.2996693017568515  0.2813663048053474  0.7543744885364307
  0.4109372718876922  0.2941591635261537  0.7907150713661544
  0.2774122249919209  0.2428473587991527  0.7543752369097031
  0.3441647228941201  0.2299067282440516  0.8270522415643338
  0.3219184397534594  0.2684317144222298  0.8270540047512417
  0.3886817312799285  0.3325350160515014  0.8997320242195077
  0.3886649869983896  0.0761084640761167  0.6090169528533538
  0.4999329571292309  0.0889013227969230  0.6453575356830774
  0.5444391718907692  0.1144856784200001  0.7180363035246158
  0.4776774165214673  0.1272771753222705  0.7543744885364307
  0.7447578322553131  0.2816578026776551  0.5363381850118154
  0.8560258023861537  0.2944506613984614  0.5726787678415388
  0.7670069702519210  0.2687232122945375  0.6090177012266261
  0.8337702617783901  0.3328265139238089  0.6816957206948921
  0.8115131850134596  0.2943075679176144  0.6816964690681647
  0.8337714424433511  0.3072427908578977  0.6090159380397184
  0.8337822360676206  0.3842867230422704  0.6090169528533538
  0.8115251593026902  0.3457677770360759  0.6090177012266261
  0.8337942103568515  0.4357469321607321  0.5363381850118154
  0.9450621804876921  0.4485397908815383  0.5726787678415388
  0.8115371335919209  0.3972279861545373  0.5363389333850878
  0.7669973973949978  0.1660942919299220  0.5363389333850878
  0.8337606889214669  0.2301975935591936  0.6090169528533538
  0.8115036121565363  0.1916786475529989  0.6090177012266261
  0.8337726632106977  0.2816578026776551  0.5363381850118154
  0.9227970670230053  0.3842867230422704  0.6090169528533538
  0.9228090413122361  0.4357469321607321  0.5363381850118154
  0.9005519645473055  0.3972279861545373  0.5363389333850878
  0.9005399902580747  0.3457677770360759  0.6090177012266261
  0.3886769612876206  0.1275686731945782  0.5363381850118154
  0.4999449314184616  0.1403615319153846  0.5726787678415388
  0.3664198845226902  0.0890497271883836  0.5363389333850878
  0.5444511461800001  0.1659458875384615  0.6453575356830774
  0.4776785971864277  0.1016934522563592  0.6816947058812568
  0.4776893908106976  0.1787373844407319  0.6816957206948921
  0.5889573609415384  0.1915302431615384  0.7180363035246158
  0.4554323140457670  0.1402184384345374  0.6816964690681647
  0.5221956055722361  0.2043217400638090  0.7543744885364307
  0.6334635757030771  0.2171145987846153  0.7907150713661544
  0.5667018203337748  0.2299060956868859  0.8270532563779691
  0.4776905714756588  0.1531536613748209  0.6090159380397184
  0.4777013650999283  0.2301975935591936  0.6090169528533538
  0.5221967862371969  0.1787380169978978  0.6816947058812568
  0.6334755499923076  0.2685748079030768  0.7180363035246158
  0.4999505030965364  0.2172630031760758  0.6816964690681647
  0.5667030009987354  0.2043223726209747  0.7543734737227952
  0.5667137946230055  0.2813663048053474  0.7543744885364307
  0.5444567178580745  0.2428473587991527  0.7543752369097031
  0.5889629326196133  0.2684317144222298  0.8270540047512417
  0.4777133393891592  0.2816578026776551  0.5363381850118154
  0.6334875242815383  0.3200350170215385  0.6453575356830774
  0.4999624773857674  0.2687232122945375  0.6090177012266261
  0.5667149752879661  0.2557825817394360  0.6816947058812568
  0.5667257689122360  0.3328265139238089  0.6816957206948921
  0.7224999538046153  0.3712037282676923  0.7907150713661544
  0.5889749069088438  0.3198919235406912  0.7543752369097031
  0.6557274048110432  0.3069512929855902  0.8270522415643338
  0.6557381984353131  0.3839952251699629  0.8270532563779691
  0.7002444131968514  0.4095795807930397  0.8997320242195077
  0.6779873364319212  0.3710606347868450  0.8997327725927803
  0.5222315284399285  0.3587023674191937  0.5363381850118154
  0.6334994985707690  0.3714952261400000  0.5726787678415388
  0.6780057133323077  0.3970795817630771  0.6453575356830774
  0.6112331643387355  0.3328271464809748  0.6816947058812568
  0.6557393791002739  0.3584115021040516  0.7543734737227952
  0.6557501727245438  0.4354554342884244  0.7543744885364307
  0.7670181428553847  0.4482482930092309  0.7907150713661544
  0.6334930959596130  0.3969364882822296  0.7543752369097031
  0.7002455938618124  0.3839958577271286  0.8270522415643338
  0.6779993107211517  0.4225208439053067  0.8270540047512417
  0.6780176876215385  0.4485397908815383  0.5726787678415388
  0.5444926407257671  0.3972279861545373  0.5363389333850878
  0.6112451386279663  0.3842873555994362  0.6090159380397184
  0.6112559322522360  0.4613312877838089  0.6090169528533538
  0.6557513533895045  0.4098717112225131  0.6816947058812568
  0.6557621470137744  0.4869156434068856  0.6816957206948921
  0.7670301171446152  0.4997085021276924  0.7180363035246158
  0.6335050702488441  0.4483966974006913  0.6816964690681647
  0.7002575681510431  0.4354560668455900  0.7543734737227952
  0.8115363319061537  0.5252928577507692  0.7907150713661544
  0.7447637829125816  0.4610404224686669  0.8270522415643338
  0.7447745765368513  0.5380843546530396  0.8270532563779691
  0.7225174997719209  0.4995654086468453  0.8270540047512417
  0.4776798179537744  0.0761084640761167  0.6090169528533538
  0.5889477880846152  0.0889013227969230  0.6453575356830774
  0.4776917922430053  0.1275686731945782  0.5363381850118154
  0.5889597623738461  0.1403615319153846  0.5726787678415388
  0.4554347154780747  0.0890497271883836  0.5363389333850878
  0.5221980070045437  0.1531530288176551  0.6090169528533538
  0.6334659771353844  0.1659458875384615  0.6453575356830774
  0.4999409302396133  0.1146340828114605  0.6090177012266261
  0.5666934281418124  0.1016934522563592  0.6816947058812568
  0.5667042217660822  0.1787373844407319  0.6816957206948921
  0.6779721918969229  0.1915302431615384  0.7180363035246158
  0.5444471450011518  0.1402184384345374  0.6816964690681647
  0.6112104365276206  0.2043217400638090  0.7543744885364307
  0.5889533597626900  0.1658027940576143  0.7543752369097031
  0.6557166512891592  0.2299060956868859  0.8270532563779691
  0.4999529045288439  0.1660942919299220  0.5363389333850878
  0.5667054024310436  0.1531536613748209  0.6090159380397184
  0.5667161960553131  0.2301975935591936  0.6090169528533538
  0.6779841661861536  0.2429904522799999  0.6453575356830774
  0.6112116171925819  0.1787380169978978  0.6816947058812568
  0.7224903809476921  0.2685748079030768  0.7180363035246158
  0.5889653340519210  0.2172630031760758  0.6816964690681647
  0.6557178319541201  0.2043223726209747  0.7543734737227952
  0.6557286255783901  0.2813663048053474  0.7543744885364307
  0.7669965957092308  0.2941591635261537  0.7907150713661544
  0.6779777635749978  0.2684317144222298  0.8270540047512417
  0.5667281703445440  0.2816578026776551  0.5363381850118154
  0.5444710935796132  0.2431388566714606  0.5363389333850878
  0.6112343851060825  0.3072421583007320  0.6090169528533538
  0.7225023552369229  0.3200350170215385  0.6453575356830774
  0.5889773083411517  0.2687232122945375  0.6090177012266261
  0.7002468146291595  0.3584108695468860  0.7543744885364307
  0.7447530293906979  0.3839952251699629  0.8270532563779691
  0.7224959526257670  0.3454762791637682  0.8270540047512417
  0.6112463593953130  0.3587023674191937  0.5363381850118154
  0.7670205442876921  0.3970795817630771  0.6453575356830774
  0.7002479952941203  0.3328271464809748  0.6816947058812568
  0.7002587889183898  0.4098710786653472  0.6816957206948921
  0.6780017121534592  0.3713521326591527  0.6816964690681647
  0.7447542100556587  0.3584115021040516  0.7543734737227952
  0.7225079269149978  0.3969364882822296  0.7543752369097031
  0.7892604248171972  0.3839958577271286  0.8270522415643338
  0.7670141416765363  0.4225208439053067  0.8270540047512417
  0.6335074716811516  0.3972279861545373  0.5363389333850878
  0.7002599695833510  0.3842873555994362  0.6090159380397184
  0.7447661843448889  0.4098717112225131  0.6816947058812568
  0.7447769779691590  0.4869156434068856  0.6816957206948921
  0.8560449480999995  0.4997085021276924  0.7180363035246158
  0.7892831927306978  0.5124999990299627  0.7543744885364307
  0.7670261159657670  0.4739810530237682  0.7543752369097031
  0.8115323307273055  0.4995654086468453  0.8270540047512417
  0.5221884341476207  0.0505241084530398  0.5363381850118154
  0.5666946489091592  0.0761084640761167  0.6090169528533538
  0.5667066231983899  0.1275686731945782  0.5363381850118154
  0.6779745933292307  0.1403615319153846  0.5726787678415388
  0.5444495464334593  0.0890497271883836  0.5363389333850878
  0.6112020443356589  0.0761090966332823  0.6090159380397184
  0.6112128379599284  0.1531530288176551  0.6090169528533538
  0.5889557611949978  0.1146340828114605  0.6090177012266261
  0.6557190527214669  0.1787373844407319  0.6816957206948921
  0.7002252674830054  0.2043217400638090  0.7543744885364307
  0.6779681907180748  0.1658027940576143  0.7543752369097031
  0.6112248122491591  0.2046132379361167  0.5363381850118154
  0.5889677354842285  0.1660942919299220  0.5363389333850878
  0.6557310270106976  0.2301975935591936  0.6090169528533538
  0.7669989971415382  0.2429904522799999  0.6453575356830774
  0.7002264481479662  0.1787380169978978  0.6816947058812568
  0.6779801650073055  0.2172630031760758  0.6816964690681647
  0.7447434565337745  0.2813663048053474  0.7543744885364307
  0.7224863797688441  0.2428473587991527  0.7543752369097031
  0.6557430012999284  0.2816578026776551  0.5363381850118154
  0.6334859245349975  0.2431388566714606  0.5363389333850878
  0.7002384224371971  0.2301982261163593  0.6090159380397184
  0.7002492160614668  0.3072421583007320  0.6090169528533538
  0.6779921392965362  0.2687232122945375  0.6090177012266261
  0.7447554308230053  0.3328265139238089  0.6816957206948921
  0.8560234009538459  0.3456193726446154  0.7180363035246158
  0.7224983540580747  0.2943075679176144  0.6816964690681647
  0.7892508519602740  0.2813669373625131  0.7543734737227952
  0.7670045688196133  0.3198919235406912  0.7543752369097031
  0.7447566114879668  0.3072427908578977  0.6090159380397184
  0.7447674051122360  0.3842867230422704  0.6090169528533538
  0.8560353752430768  0.3970795817630771  0.6453575356830774
  0.7225103283473057  0.3457677770360759  0.6090177012266261
  0.7892736198737745  0.4098710786653472  0.6816957206948921
  0.7670165431088440  0.3713521326591527  0.6816964690681647
  0.8337690410110432  0.3584115021040516  0.7543734737227952
  0.8337798346353131  0.4354554342884244  0.7543744885364307
  0.8115227578703825  0.3969364882822296  0.7543752369097031
  0.7225223026365362  0.3972279861545373  0.5363389333850878
  0.9005535642938460  0.4741241465046154  0.6453575356830774
  0.8337810153002739  0.4098717112225131  0.6816947058812568
  0.8337918089245439  0.4869156434068856  0.6816957206948921
  0.6557214541537745  0.1275686731945782  0.5363381850118154
  0.7669894242846153  0.1403615319153846  0.5726787678415388
  0.6334643773888441  0.0890497271883836  0.5363389333850878
  0.7447338836768514  0.1787373844407319  0.6816957206948921
  0.6779825664396133  0.1660942919299220  0.5363389333850878
  0.7447350643418125  0.1531536613748209  0.6090159380397184
  0.7447458579660822  0.2301975935591936  0.6090169528533538
  0.7669949959626901  0.2172630031760758  0.6816964690681647
  0.3887811076910431  0.6674642546871284  0.1002645631489491
  0.3442413714941200  0.4363305604625132  0.1002645631489491
  0.4555321095384611  0.5776275604861538  0.0639273929507696
  0.3887595605448890  0.5133751252040514  0.1002645631489491
  0.4777959386464281  0.6674642546871284  0.1002645631489491
  0.2997447295895047  0.5133751252040514  0.1002645631489491
  0.4555105623923077  0.4235384310030770  0.0639273929507696
  0.3887380133987355  0.3592859957209748  0.1002645631489491
  0.5000287514430769  0.5005829957446153  0.0639273929507696
  0.4332562024495045  0.4363305604625132  0.1002645631489491
  0.5445469404938461  0.5776275604861538  0.0639273929507696
  0.4777743915002740  0.5133751252040514  0.1002645631489491
  0.5222925805510432  0.5904196899455900  0.1002645631489491
  0.4332346553033509  0.2822414309794363  0.1002645631489491
  0.5445253933476922  0.4235384310030770  0.0639273929507696
  0.4777528443541203  0.3592859957209748  0.1002645631489491
  0.5222710334048893  0.4363305604625132  0.1002645631489491
  0.6113074115064280  0.5904196899455900  0.1002645631489491
  0.6558256005571967  0.6674642546871284  0.1002645631489491
  0.5222494862587358  0.2822414309794363  0.1002645631489491
  0.6112858643602741  0.4363305604625132  0.1002645631489491
  0.6558040534110433  0.5133751252040514  0.1002645631489491
  0.7003222424618127  0.5904196899455900  0.1002645631489491
  0.6557825062648894  0.3592859957209748  0.1002645631489491
  0.7003006953156584  0.4363305604625132  0.1002645631489491
  0.3220086623892303  0.6032119161092306  0.1366061607923080
  0.2552469070199283  0.6160034130115012  0.1729443458041228
  0.2329898302549979  0.5774844670053068  0.1729450941773954
  0.2997423281571969  0.5645438364502054  0.2456220988320258
  0.2997531217814668  0.6415877686345782  0.2456231136456615
  0.2774960450165365  0.6030688226283837  0.2456238620189339
  0.4555273066738459  0.6799649829784616  0.3546424643169235
  0.3887547576802740  0.6157125476963594  0.3909796345151029
  0.3887655513045437  0.6927564798807323  0.3909806493287383
  0.3665084745396133  0.6542375338745375  0.3909813977020106
  0.4110146893011518  0.6798218894976146  0.4636601655435494
  0.4777671872033508  0.6668812589425130  0.5363371701981798
  0.2775080193057671  0.6545290317468452  0.1729450941773954
  0.3887667319695046  0.6671727568148209  0.3183008666735646
  0.3887775255937745  0.7442166889991938  0.3183018814871999
  0.3665204488288439  0.7056977429929989  0.3183026298604723
  0.4332837403553126  0.7698010446222706  0.3909806493287383
  0.4110266635903825  0.7312820986160760  0.3909813977020106
  0.4777791614925814  0.7183414680609749  0.4636584023566415
  0.3442724914971970  0.6930486103102055  0.1729433309904875
  0.3442832851214667  0.7700925424945781  0.1729443458041228
  0.3887787062587351  0.7186329659332823  0.2456220988320258
  0.5000574700138460  0.8084697568384616  0.2819636964753847
  0.4777911357818124  0.7698016771794363  0.3909796345151029
  0.5890698995369228  0.8596384680846154  0.4273212321584619
  0.4555448526411515  0.8083266633576146  0.3909813977020106
  0.2107071708230051  0.3848697187868859  0.1729443458041228
  0.3219751409538459  0.3976625775076923  0.2092849286338465
  0.2997088067218123  0.3589944978486670  0.3183008666735646
  0.2997196003460822  0.4360384300330399  0.3183018814871999
  0.4109875704769230  0.4488312887538462  0.3546424643169235
  0.2774625235811521  0.3975194840268453  0.3183026298604723
  0.4554937852384613  0.4744156443769232  0.4273212321584619
  0.3887212362448891  0.4101632090948209  0.4636584023566415
  0.3887320298691591  0.4872071412791937  0.4636594171702766
  0.2081319630223882  0.2062790758967815  0.3738401007129865
  0.1686996206928043  0.2062830225871297  0.3738328930869010
  0.2081262396518100  0.1776523908592592  0.4081275168546026
  0.2081199887331574  0.1548188667783198  0.4465188685545251
  0.1884051974714167  0.1889841874731848  0.4465414669272036
  0.1884063838304971  0.1661908634170767  0.4787306977710146
  0.1636176234579640  0.2032367464823361  0.4808062846961408
  0.1884041654162394  0.2174536059645472  0.5212659688899779
  0.3861520520762344  0.1036501555321660  0.3011613328714481
  0.3664384471735739  0.1150221521709229  0.3333731620879377
  0.2526405792162341  0.1806947202737046  0.3011613328714481
  0.2526468301348866  0.2035282443546438  0.2627699811715255
  0.2526348558456561  0.1520680352361823  0.3354487490130640
  0.3022110935528041  0.1292384578455912  0.3738328930869010
  0.3022157636166670  0.1520716591422373  0.3354428233677643
  0.2774354241681495  0.1949503346240997  0.3354184973480950
  0.2329269743135740  0.1920667169124613  0.3333731620879377
  0.2577144516481890  0.2062830225871297  0.3738328930869010
  0.2329257879544938  0.2148600409685693  0.3011839312441269
  0.3219440403619960  0.1693659790010228  0.2627397295065569
  0.3664492351037246  0.1892756853454925  0.2285051634025885
  0.3861640263654653  0.1551103646506277  0.2284825650299098
  0.3219419882870087  0.1921607482137782  0.2305508975238240
  0.3664504214628052  0.1664823612893844  0.2606943942463993
  0.3022277379058979  0.2035318682606986  0.2627640555262259
  0.3912425688612823  0.2035318682606986  0.2627640555262259
  0.3861583029948865  0.1264836796131052  0.2627699811715255
  0.3416616610902714  0.2035282443546438  0.2627699811715255
  0.3912305945720518  0.1520716591422373  0.3354428233677643
  0.3219300139977778  0.1407005390953165  0.3032296653653624
  0.3664372608144937  0.1378154762270307  0.3011839312441269
  0.3219320660727651  0.1179057698825611  0.3354184973480950
  0.3416496868010409  0.1520680352361823  0.3354487490130640
  0.3912259245081889  0.1292384578455912  0.3738328930869010
  0.3416554101716188  0.1806947202737046  0.3011613328714481
  0.3664502551235347  0.1949503346240997  0.3354184973480950
  0.3219418052689583  0.1920667169124613  0.3333731620879377
  0.3022230678420350  0.1806986669640528  0.3011541252453627
  0.3912378987974198  0.1806986669640528  0.3011541252453627
  0.3467292826035733  0.2062830225871297  0.3738328930869010
  0.3219406189098786  0.2148600409685693  0.3011839312441269
  0.2774094235147008  0.1148246855999323  0.4485872010484396
  0.2971228453993109  0.1033586576598583  0.5191976363960634
  0.3416314615931579  0.0777743020367815  0.4465188685545251
  0.3912139502189579  0.0777782487271292  0.4465116609284394
  0.3664252865252632  0.0863552671085693  0.3738626990856653
  0.3912186202828208  0.1006114500237754  0.4081215912093027
  0.3416377125118100  0.1006078261177206  0.4081275168546026
  0.3219166703314167  0.1119396227316462  0.4465414669272036
  0.3664242544700856  0.1148246855999323  0.4485872010484396
  0.3022037893274361  0.1006114500237754  0.4081215912093027
  0.3664122801808551  0.0633644764814704  0.5212659688899779
  0.3664263065450729  0.0920299163871765  0.4807760330311722
  0.3219178566904969  0.0891462986755381  0.4787306977710146
  0.3861376763546958  0.1033586576598583  0.5191976363960634
  0.3467053340251119  0.1033626043502063  0.5191904287699780
  0.2329150000243431  0.1406065077939998  0.4060519299294760
  0.2774234498789191  0.1434901255056382  0.4080972651896339
  0.2971348196885423  0.1548188667783198  0.4465188685545251
  0.2577024773589581  0.1548228134686678  0.4465116609284394
  0.2329138136652633  0.1633998318501076  0.3738626990856653
  0.2774213978039322  0.1662848947183936  0.3759084332069008
  0.2971410706071945  0.1776523908592592  0.4081275168546026
  0.2577071474228210  0.1776560147653140  0.4081215912093027
  0.2971467939777728  0.2062790758967815  0.3738401007129865
  0.2329127816100857  0.1918692503414705  0.4485872010484396
  0.2774200284268016  0.1889841874731848  0.4465414669272036
  0.2774212147858813  0.1661908634170767  0.4787306977710146
  0.2971290963179640  0.1261921817407975  0.4808062846961408
  0.2576951731335901  0.1261958056468525  0.4808003590508411
  0.2774080541375707  0.1375239783547230  0.5192202347687425
  0.2329008073208548  0.1404090412230090  0.5212659688899779
  0.2329148336850726  0.1690744811287151  0.4807760330311722
  0.2526262034946958  0.1804032224013969  0.5191976363960634
  0.2131938611651119  0.1804071690917449  0.5191904287699780
  0.3022086921204964  0.1804071690917449  0.5191904287699780
  0.2526324544133489  0.2032367464823361  0.4808062846961408
  0.2329114122329551  0.2145685430962616  0.5192202347687425
  0.2774189963716240  0.2174536059645472  0.5212659688899779
  0.2131985312289748  0.2032403703883909  0.4808003590508411
  0.3416434358823884  0.1292345111552429  0.3738401007129865
  0.3664382808343039  0.1434901255056382  0.4080972651896339
  0.3219298309797283  0.1406065077939998  0.4060519299294760
  0.3219286446206481  0.1633998318501076  0.3738626990856653
  0.3467173083143424  0.1548228134686678  0.4465116609284394
  0.3861496506439271  0.1548188667783198  0.4465188685545251
  0.3467219783782053  0.1776560147653140  0.4081215912093027
  0.3664362287593165  0.1662848947183936  0.3759084332069008
  0.3861559015625792  0.1776523908592592  0.4081275168546026
  0.3219276125654701  0.1918692503414705  0.4485872010484396
  0.3664348593821864  0.1889841874731848  0.4465414669272036
  0.3861616249331576  0.2062790758967815  0.3738401007129865
  0.3219156382762391  0.1404090412230090  0.5212659688899779
  0.3664228850929550  0.1375239783547230  0.5192202347687425
  0.3861439272733487  0.1261921817407975  0.4808062846961408
  0.3467100040889748  0.1261958056468525  0.4808003590508411
  0.3219296646404574  0.1690744811287151  0.4807760330311722
  0.3664360457412661  0.1661908634170767  0.4787306977710146
  0.3416410344500802  0.1804032224013969  0.5191976363960634
  0.3912235230758807  0.1804071690917449  0.5191904287699780
  0.3416472853687332  0.2032367464823361  0.4808062846961408
  0.3912281931397441  0.2032403703883909  0.4808003590508411
  0.3022133621843593  0.2032403703883909  0.4808003590508411
  0.3219262431883399  0.2145685430962616  0.5192202347687425
  0.3664338273270088  0.2174536059645472  0.5212659688899779
  0.4357584892804968  0.2065745204594372  0.1557965895622855
  0.4751908316100806  0.2065705737690892  0.1558037971883711
  0.4357465149912658  0.1551143113409757  0.2284753574038241
  0.4109568192423931  0.1921607482137782  0.2305508975238240
  0.4109588713173803  0.1693659790010228  0.2627397295065569
  0.4357511850551287  0.1779475126376217  0.1900852876846875
  0.4554652524181896  0.1664823612893844  0.2606943942463993
  0.4554640660591085  0.1892756853454925  0.2285051634025885
  0.4751851082395022  0.1779438887315671  0.1900912133299871
  0.4751788573208501  0.1551103646506277  0.2284825650299098
  0.4999716501977778  0.1921607482137782  0.2305508975238240
  0.5642056625654649  0.2065705737690892  0.1558037971883711
  0.5247733202358811  0.2065745204594372  0.1557965895622855
  0.5247613459466501  0.1551143113409757  0.2284753574038241
  0.4999737022727651  0.1693659790010228  0.2627397295065569
  0.5247660160105131  0.1779475126376217  0.1900852876846875
  0.5444788970144937  0.1892756853454925  0.2285051634025885
  0.5444800833735739  0.1664823612893844  0.2606943942463993
  0.5641936882762344  0.1551103646506277  0.2284825650299098
  0.5641999391948870  0.1779438887315671  0.1900912133299871
  0.5889864811531625  0.1921607482137782  0.2305508975238240
  0.5889885332281499  0.1693659790010228  0.2627397295065569
  0.6137808469658979  0.1779475126376217  0.1900852876846875
  0.6137761769020349  0.1551143113409757  0.2284753574038241
  0.6334949143289587  0.1664823612893844  0.2606943942463993
  0.6334937279698785  0.1892756853454925  0.2285051634025885
  0.6780033641835347  0.1693659790010228  0.2627397295065569
  0.6780013121085470  0.1921607482137782  0.2305508975238240
  0.4357345407020349  0.1036541022225143  0.3011541252453627
  0.4751668830316187  0.1036501555321660  0.3011613328714481
  0.4751731339502713  0.1264836796131052  0.2627699811715255
  0.4109468970281499  0.1179057698825611  0.3354184973480950
  0.4109328706639312  0.0892403299768550  0.3759084332069008
  0.4554401174806476  0.0863552671085693  0.3738626990856653
  0.4357272364766673  0.0750270944006987  0.3354428233677643
  0.4554532781289586  0.1150221521709229  0.3333731620879377
  0.4999477016193164  0.0892403299768550  0.3759084332069008
  0.4751611596610408  0.0750234704946437  0.3354487490130640
  0.4999617279835342  0.1179057698825611  0.3354184973480950
  0.4554520917698784  0.1378154762270307  0.3011839312441269
  0.4357392107658978  0.1264873035191604  0.2627640555262259
  0.4306764920456562  0.2035282443546438  0.2627699811715255
  0.4999702808206477  0.2148600409685693  0.3011839312441269
  0.4109554498652629  0.2148600409685693  0.3011839312441269
  0.4802527297528041  0.1806986669640528  0.3011541252453627
  0.4802573998166670  0.2035318682606986  0.2627640555262259
  0.4306702411270036  0.1806947202737046  0.3011613328714481
  0.4999596759085469  0.1407005390953165  0.3032296653653624
  0.4109448449531630  0.1407005390953165  0.3032296653653624
  0.4357441135589581  0.2062830225871297  0.3738328930869010
  0.4306582668377727  0.1292345111552429  0.3738401007129865
  0.4109566362243431  0.1920667169124613  0.3333731620879377
  0.4306645177564253  0.1520680352361823  0.3354487490130640
  0.4109434755760324  0.1633998318501076  0.3738626990856653
  0.4554510597147008  0.1662848947183936  0.3759084332069008
  0.4554650860789191  0.1949503346240997  0.3354184973480950
  0.4802454255274365  0.1520716591422373  0.3354428233677643
  0.4751764558885419  0.2062790758967815  0.3738401007129865
  0.4802407554635732  0.1292384578455912  0.3738328930869010
  0.4999583065314168  0.1633998318501076  0.3738626990856653
  0.4999714671797278  0.1920667169124613  0.3333731620879377
  0.5641817139870035  0.1036501555321660  0.3011613328714481
  0.5247493716574196  0.1036541022225143  0.3011541252453627
  0.5247540417212821  0.1264873035191604  0.2627640555262259
  0.5641879649056560  0.1264836796131052  0.2627699811715255
  0.5444549484360323  0.0863552671085693  0.3738626990856653
  0.5247420674320517  0.0750270944006987  0.3354428233677643
  0.5444681090843430  0.1150221521709229  0.3333731620879377
  0.5641759906164252  0.0750234704946437  0.3354487490130640
  0.5889625325747012  0.0892403299768550  0.3759084332069008
  0.5889765589389190  0.1179057698825611  0.3354184973480950
  0.5692675607081890  0.1806986669640528  0.3011541252453627
  0.5196850720823879  0.1806947202737046  0.3011613328714481
  0.5196913230010409  0.2035282443546438  0.2627699811715255
  0.5444669227252632  0.1378154762270307  0.3011839312441269
  0.5692722307720518  0.2035318682606986  0.2627640555262259
  0.5889745068639317  0.1407005390953165  0.3032296653653624
  0.5889851117760324  0.2148600409685693  0.3011839312441269
  0.6086999030377727  0.1806947202737046  0.3011613328714481
  0.6087061539564252  0.2035282443546438  0.2627699811715255
  0.5444799170343034  0.1949503346240997  0.3354184973480950
  0.5444658906700857  0.1662848947183936  0.3759084332069008
  0.5196793487118100  0.1520680352361823  0.3354487490130640
  0.5196730977931575  0.1292345111552429  0.3738401007129865
  0.5247589445143425  0.2062830225871297  0.3738328930869010
  0.5641912868439267  0.2062790758967815  0.3738401007129865
  0.5692555864189580  0.1292384578455912  0.3738328930869010
  0.5692602564828209  0.1520716591422373  0.3354428233677643
  0.5889731374868016  0.1633998318501076  0.3738626990856653
  0.6086879287485418  0.1292345111552429  0.3738401007129865
  0.5889862981351122  0.1920667169124613  0.3333731620879377
  0.6086941796671949  0.1520680352361823  0.3354487490130640
  0.4109315012868011  0.1119396227316462  0.4465414669272036
  0.4306525434671948  0.1006078261177206  0.4081275168546026
  0.4306462925485418  0.0777743020367815  0.4465188685545251
  0.4109349227389190  0.0664455607640996  0.4080972651896339
  0.4554413038397277  0.0635619430524615  0.4060519299294760
  0.4802287811743428  0.0777782487271292  0.4465116609284394
  0.4802334512382057  0.1006114500237754  0.4081215912093027
  0.4999463322421863  0.1119396227316462  0.4465414669272036
  0.4999497536943033  0.0664455607640996  0.4080972651896339
  0.4306405691779638  0.0491476169992591  0.4808062846961408
  0.4109326876458817  0.0891462986755381  0.4787306977710146
  0.4109195269975710  0.0604794136131847  0.5192202347687425
  0.4554271111362395  0.0633644764814704  0.5212659688899779
  0.4357201649804963  0.1033626043502063  0.5191904287699780
  0.4554411375004573  0.0920299163871765  0.4807760330311722
  0.4751525073100805  0.1033586576598583  0.5191976363960634
  0.4802214769489747  0.0491512409053141  0.4808003590508411
  0.4999343579529554  0.0604794136131847  0.5192202347687425
  0.4999475186012665  0.0891462986755381  0.4787306977710146
  0.4109446619351126  0.1406065077939998  0.4060519299294760
  0.4554531117896882  0.1434901255056382  0.4080972651896339
  0.4751707325179640  0.1776523908592592  0.4081275168546026
  0.4357368093335901  0.1776560147653140  0.4081215912093027
  0.4357321392697272  0.1548228134686678  0.4465116609284394
  0.4999572744762396  0.1918692503414705  0.4485872010484396
  0.4109424435208548  0.1918692503414705  0.4485872010484396
  0.4554390854254704  0.1148246855999323  0.4485872010484396
  0.4109444955958421  0.1690744811287151  0.4807760330311722
  0.4357248350443596  0.1261958056468525  0.4808003590508411
  0.4751587582287331  0.1261921817407975  0.4808062846961408
  0.4109304692316239  0.1404090412230090  0.5212659688899779
  0.4554377160483398  0.1375239783547230  0.5192202347687425
  0.4999453001870087  0.1404090412230090  0.5212659688899779
  0.4306558654054650  0.1804032224013969  0.5191976363960634
  0.4802383540312659  0.1804071690917449  0.5191904287699780
  0.4306621163241175  0.2032367464823361  0.4808062846961408
  0.4999559050991095  0.2145685430962616  0.5192202347687425
  0.4554486582823931  0.2174536059645472  0.5212659688899779
  0.4109410741437243  0.2145685430962616  0.5192202347687425
  0.5692436121297275  0.0777782487271292  0.4465116609284394
  0.6086822053779639  0.1006078261177206  0.4081275168546026
  0.5196673744225792  0.1006078261177206  0.4081275168546026
  0.5692482821935899  0.1006114500237754  0.4081215912093027
  0.5444561347951125  0.0635619430524615  0.4060519299294760
  0.5889645846496880  0.0664455607640996  0.4080972651896339
  0.5889611631975706  0.1119396227316462  0.4465414669272036
  0.6086759544593113  0.0777743020367815  0.4465188685545251
  0.5196611235039266  0.0777743020367815  0.4465188685545251
  0.5247349959358810  0.1033626043502063  0.5191904287699780
  0.5444559684558420  0.0920299163871765  0.4807760330311722
  0.5444419420916238  0.0633644764814704  0.5212659688899779
  0.5641673382654653  0.1033586576598583  0.5191976363960634
  0.5196554001333487  0.0491476169992591  0.4808062846961408
  0.5692363079043595  0.0491512409053141  0.4808003590508411
  0.5889491889083406  0.0604794136131847  0.5192202347687425
  0.5889623495566508  0.0891462986755381  0.4787306977710146
  0.6137498268912658  0.1033626043502063  0.5191904287699780
  0.5247516402889748  0.1776560147653140  0.4081215912093027
  0.4999594928904969  0.1406065077939998  0.4060519299294760
  0.5444539163808547  0.1148246855999323  0.4485872010484396
  0.5444679427450729  0.1434901255056382  0.4080972651896339
  0.5641793125546958  0.1548188667783198  0.4465188685545251
  0.5641855634733484  0.1776523908592592  0.4081275168546026
  0.5889721054316239  0.1918692503414705  0.4485872010484396
  0.5889743238458817  0.1406065077939998  0.4060519299294760
  0.5641735891841174  0.1261921817407975  0.4808062846961408
  0.4999593265512269  0.1690744811287151  0.4807760330311722
  0.5444525470037246  0.1375239783547230  0.5192202347687425
  0.5247396659997444  0.1261958056468525  0.4808003590508411
  0.5444634892377779  0.2174536059645472  0.5212659688899779
  0.5196706963608497  0.1804032224013969  0.5191976363960634
  0.5692531849866502  0.1804071690917449  0.5191904287699780
  0.5889601311423925  0.1404090412230090  0.5212659688899779
  0.5692578550505132  0.2032403703883909  0.4808003590508411
  0.5889707360544938  0.2145685430962616  0.5192202347687425
  0.5889741575066112  0.1690744811287151  0.4807760330311722
  0.6086855273162345  0.1804032224013969  0.5191976363960634
  0.6086917782348866  0.2032367464823361  0.4808062846961408
  0.6137544969551292  0.1261958056468525  0.4808003590508411
  0.6137642026128041  0.1036541022225143  0.3011541252453627
  0.6334697793914167  0.0863552671085693  0.3738626990856653
  0.6334829400397277  0.1150221521709229  0.3333731620879377
  0.6582870617274361  0.2035318682606986  0.2627640555262259
  0.6334817536806475  0.1378154762270307  0.3011839312441269
  0.6137688726766669  0.1264873035191604  0.2627640555262259
  0.6582823916635737  0.1806986669640528  0.3011541252453627
  0.6779893378193169  0.1407005390953165  0.3032296653653624
  0.6779999427314168  0.2148600409685693  0.3011839312441269
  0.6977209849118101  0.2035282443546438  0.2627699811715255
  0.6977147339931575  0.1806947202737046  0.3011613328714481
  0.6137737754697272  0.2062830225871297  0.3738328930869010
  0.6334807216254704  0.1662848947183936  0.3759084332069008
  0.6582704173743428  0.1292384578455912  0.3738328930869010
  0.6334947479896882  0.1949503346240997  0.3354184973480950
  0.6532061177993110  0.2062790758967815  0.3738401007129865
  0.6582750874382056  0.1520716591422373  0.3354428233677643
  0.6779879684421863  0.1633998318501076  0.3738626990856653
  0.6779913898943033  0.1179057698825611  0.3354184973480950
  0.6780011290904969  0.1920667169124613  0.3333731620879377
  0.6977090106225792  0.1520680352361823  0.3354487490130640
  0.7224955525808547  0.1662848947183936  0.3759084332069008
  0.7027886064251120  0.2062830225871297  0.3738328930869010
  0.6977027597039266  0.1292345111552429  0.3738401007129865
  0.7473018926828209  0.2035318682606986  0.2627640555262259
  0.7472972226189580  0.1806986669640528  0.3011541252453627
  0.7670147736868016  0.2148600409685693  0.3011839312441269
  0.7225095789450729  0.1949503346240997  0.3354184973480950
  0.7422209487546958  0.2062790758967815  0.3738401007129865
  0.7472899183935899  0.1520716591422373  0.3354428233677643
  0.7670027993975707  0.1633998318501076  0.3738626990856653
  0.7670159600458817  0.1920667169124613  0.3333731620879377
  0.7918034373804967  0.2062830225871297  0.3738328930869010
  0.8312357797100806  0.2062790758967815  0.3738401007129865
  0.6582584430851114  0.0777782487271292  0.4465116609284394
  0.6582631131489748  0.1006114500237754  0.4081215912093027
  0.6976970363333482  0.1006078261177206  0.4081275168546026
  0.6779759941529554  0.1119396227316462  0.4465414669272036
  0.7224835782916238  0.1148246855999323  0.4485872010484396
  0.6334567730470085  0.0633644764814704  0.5212659688899779
  0.6334707994112267  0.0920299163871765  0.4807760330311722
  0.6531821692208496  0.1033586576598583  0.5191976363960634
  0.6779771805120356  0.0891462986755381  0.4787306977710146
  0.7027646578466501  0.1033626043502063  0.5191904287699780
  0.6531941435100805  0.1548188667783198  0.4465188685545251
  0.6532003944287331  0.1776523908592592  0.4081275168546026
  0.6137664712443592  0.1776560147653140  0.4081215912093027
  0.6137618011804967  0.1548228134686678  0.4465116609284394
  0.7027813021997436  0.1776560147653140  0.4081215912093027
  0.7027766321358806  0.1548228134686678  0.4465116609284394
  0.6334827737004572  0.1434901255056382  0.4080972651896339
  0.6779891548012660  0.1406065077939998  0.4060519299294760
  0.6779869363870087  0.1918692503414705  0.4485872010484396
  0.6334687473362395  0.1148246855999323  0.4485872010484396
  0.6334793522483398  0.1889841874731848  0.4465414669272036
  0.7224941832037246  0.1889841874731848  0.4465414669272036
  0.7224822089144937  0.1375239783547230  0.5192202347687425
  0.6531884201395022  0.1261921817407975  0.4808062846961408
  0.7027693279105135  0.1261958056468525  0.4808003590508411
  0.6779749620977777  0.1404090412230090  0.5212659688899779
  0.6334673779591093  0.1375239783547230  0.5192202347687425
  0.6334805386074200  0.1661908634170767  0.4787306977710146
  0.6779889884619961  0.1690744811287151  0.4807760330311722
  0.6582680159420350  0.1804071690917449  0.5191904287699780
  0.6977003582716188  0.1804032224013969  0.5191976363960634
  0.6779855670098790  0.2145685430962616  0.5192202347687425
  0.6334783201931622  0.2174536059645472  0.5212659688899779
  0.7224931511485470  0.2174536059645472  0.5212659688899779
  0.6977066091902714  0.2032367464823361  0.4808062846961408
  0.6582726860058979  0.2032403703883909  0.4808003590508411
  0.7670039857566509  0.1406065077939998  0.4060519299294760
  0.7670017673423930  0.1918692503414705  0.4485872010484396
  0.7422089744654649  0.1548188667783198  0.4465188685545251
  0.7422152253841174  0.1776523908592592  0.4081275168546026
  0.7224976046558420  0.1434901255056382  0.4080972651896339
  0.7917914630912658  0.1548228134686678  0.4465116609284394
  0.7917961331551288  0.1776560147653140  0.4081215912093027
  0.8115090141591094  0.1889841874731848  0.4465414669272036
  0.7670003979652629  0.2145685430962616  0.5192202347687425
  0.7224953695628048  0.1661908634170767  0.4787306977710146
  0.7669897930531625  0.1404090412230090  0.5212659688899779
  0.7472875169612827  0.2032403703883909  0.4808003590508411
  0.7472828468974193  0.1804071690917449  0.5191904287699780
  0.7422032510948869  0.1261921817407975  0.4808062846961408
  0.7670038194173804  0.1690744811287151  0.4807760330311722
  0.7867151892270031  0.1804032224013969  0.5191976363960634
  0.7867214401456561  0.2032367464823361  0.4808062846961408
  0.8115079821039318  0.2174536059645472  0.5212659688899779
  0.8115102005181891  0.1661908634170767  0.4787306977710146
  0.8363023479166670  0.2032403703883909  0.4808003590508411
  0.8560152289206481  0.2145685430962616  0.5192202347687425
  0.1439218992331625  0.2947896685783937  0.3032296653653624
  0.1687115949820350  0.2577432317055910  0.3011541252453627
  0.1636535463256562  0.3576173738377207  0.2627699811715255
  0.1242149530774197  0.3347877964471296  0.3011541252453627
  0.1636472954070035  0.3347838497567814  0.3011613328714481
  0.1439325041452632  0.3689491704516463  0.3011839312441269
  0.0797063368835735  0.3603721520702065  0.3738328930869010
  0.0746300630193112  0.3859525610029353  0.4465188685545251
  0.0549164581166509  0.3973245576416920  0.4787306977710146
  0.0746243396487331  0.3573258759654128  0.4808062846961408
  0.1242029787881888  0.2833275873286683  0.3738328930869010
  0.1242076488520517  0.3061607886253140  0.3354428233677643
  0.1439239513081496  0.2719948993656383  0.3354184973480950
  0.1636415720364254  0.3061571647192590  0.3354487490130640
  0.1687042907566672  0.2291162238837759  0.3354428233677643
  0.1636353211177724  0.2833236406383199  0.3738401007129865
  0.1439099249439320  0.2433294594599320  0.3759084332069008
  0.1439217162151125  0.2946956372770768  0.4060519299294760
  0.0994153351143035  0.2975792549887149  0.4080972651896339
  0.1241956745628210  0.2547005795068525  0.4081215912093027
  0.1687138636135902  0.3317451442483911  0.4081215912093027
  0.0994132830393167  0.3203740242014705  0.3759084332069008
  0.1439205298560325  0.3174889613331846  0.3738626990856653
  0.1439336905043430  0.3461558463955383  0.3333731620879377
  0.0994273094035340  0.3490394641071768  0.3354184973480950
  0.1191386792131573  0.3603682053798583  0.3738401007129865
  0.1191449301318099  0.3832017294607977  0.3354487490130640
  0.0994250743104969  0.3717402020186151  0.4060519299294760
  0.0994238879514169  0.3945335260747233  0.3738626990856653
  0.1636295977471947  0.2546969556007976  0.4081275168546026
  0.1636233468285423  0.2318634315198584  0.4465188685545251
  0.1687091935497273  0.3089119429517450  0.4465116609284394
  0.1439085555668014  0.2660287522147231  0.4465414669272036
  0.1191267049239268  0.3089079962613970  0.4465188685545251
  0.1191209815533486  0.2802813112238745  0.4808062846961408
  0.1687018893243595  0.2802849351299295  0.4808003590508411
  0.0994131000212662  0.3202799929001537  0.4787306977710146
  0.1439097419258816  0.2432354281586153  0.4787306977710146
  0.1242125516451115  0.3859565076932831  0.4465116609284394
  0.1191329558425791  0.3317415203423359  0.4081275168546026
  0.0994119136621863  0.3430733169562615  0.4465414669272036
  0.1636448939746960  0.3859525610029353  0.4465188685545251
  0.1439194978008545  0.3459583798245477  0.4485872010484396
  0.1439312890720353  0.3973245576416920  0.4787306977710146
  0.1439215498758420  0.3231636106117918  0.4807760330311722
  0.1636391706041179  0.3573258759654128  0.4808062846961408
  0.1242052474197442  0.3573294998714681  0.4808003590508411
  0.1242005773558811  0.3344962985748219  0.5191904287699780
  0.0994108816070087  0.3715427354476243  0.5212659688899779
  0.1439444784344937  0.4204093795701078  0.2285051634025885
  0.1439456647935740  0.3976160555139999  0.2606943942463993
  0.1191569044210409  0.4346619385792593  0.2627699811715255
  0.1191506535023882  0.4118284144983200  0.3011613328714481
  0.0994358622406477  0.4459937351931848  0.3011839312441269
  0.1439434463793166  0.4488787980614706  0.3032296653653624
  0.1636688425531574  0.4888729792398585  0.3011613328714481
  0.1242365002235736  0.4888769259302065  0.3011541252453627
  0.1439574727435343  0.4775442379671765  0.2627397295065569
  0.0994468044747011  0.5259233628030091  0.3032296653653624
  0.1191722006485420  0.5659175439813970  0.3011613328714481
  0.0994574093868016  0.6000828646762617  0.3011839312441269
  0.1191784515671944  0.5887510680623360  0.2627699811715255
  0.1636808168423883  0.5403331883583200  0.2284825650299098
  0.1439660255806477  0.5744985090531848  0.2285051634025885
  0.1439554206685472  0.5003390071799321  0.2305508975238240
  0.1439672119397280  0.5517051849970769  0.2606943942463993
  0.1439540512914169  0.5230382999347234  0.3011839312441269
  0.1439649935254702  0.6029679275445474  0.3032296653653624
  0.1242411702874366  0.5117101272268527  0.2627640555262259
  0.1636750934718098  0.5117065033207977  0.2627699811715255
  0.0746482882271945  0.4602462942023362  0.3354487490130640
  0.0994348301854703  0.4744631536845475  0.3759084332069008
  0.0797278840297272  0.5144612815532834  0.3738328930869010
  0.0549402403558423  0.5287129492133305  0.4080972651896339
  0.0797325540935902  0.5372944828499295  0.3354428233677643
  0.0746635844546959  0.5915018996044737  0.3738401007129865
  0.1636568682639267  0.4374127701213969  0.3738401007129865
  0.0994370485997275  0.4232004111370768  0.3333731620879377
  0.1242172217089750  0.4087897089899295  0.4081215912093027
  0.1439454984543038  0.4260840288487152  0.3354184973480950
  0.1439432633612663  0.4487847667601537  0.4060519299294760
  0.1242245259343427  0.4374167168117449  0.3738328930869010
  0.1636631191825792  0.4602462942023362  0.3354487490130640
  0.1242291959982056  0.4602499181083911  0.3354428233677643
  0.0994488565496886  0.5031285935902536  0.3354184973480950
  0.1439552376504970  0.5002449758786153  0.3333731620879377
  0.1439420770021863  0.4715780908162617  0.3738626990856653
  0.0994466214566509  0.5258293315016924  0.4060519299294760
  0.1439550713112268  0.5287129492133305  0.4080972651896339
  0.1191664772779637  0.5372908589438746  0.3354487490130640
  0.1191602263593113  0.5144573348629354  0.3738401007129865
  0.1439530192362395  0.5515077184260859  0.3759084332069008
  0.0994454350975709  0.5486226555578001  0.3738626990856653
  0.1242387688551286  0.5628788384730063  0.4081215912093027
  0.1636784154100805  0.5915018996044737  0.3738401007129865
  0.1439670456004574  0.5801731583317918  0.3354184973480950
  0.0994585957458818  0.5772895406201539  0.3333731620879377
  0.1439648105074202  0.6028738962432307  0.4060519299294760
  0.1242460730804967  0.5915058462948219  0.3738328930869010
  0.0746363139379639  0.4087860850838747  0.4081275168546026
  0.0797159097404966  0.4630010724348219  0.4465116609284394
  0.0549152717575710  0.4201178816978001  0.4465414669272036
  0.0549282660666114  0.4772527400948690  0.4807760330311722
  0.0549142397023932  0.4485873001891629  0.5212659688899779
  0.0797039354512659  0.4115408633163603  0.5191904287699780
  0.0797086055151287  0.4343740646130064  0.4808003590508411
  0.0994214865191091  0.4457022373208770  0.5192202347687425
  0.0994228558962394  0.4230029445660858  0.4485872010484396
  0.1191545029887331  0.4858306498254131  0.4081275168546026
  0.1191482520700804  0.4629971257444739  0.4465188685545251
  0.1439301027129555  0.4201178816978001  0.4465414669272036
  0.0994346471674200  0.4743691223832307  0.4787306977710146
  0.1439430970219960  0.4772527400948690  0.4807760330311722
  0.0994249079712265  0.4002081753533304  0.4807760330311722
  0.1191425286995023  0.4343704407069515  0.4808062846961408
  0.1191362777808497  0.4115369166260122  0.5191976363960634
  0.1439290706577778  0.4485873001891629  0.5212659688899779
  0.0746578610841178  0.5628752145669516  0.4081275168546026
  0.0994444030423934  0.5770920740491630  0.4485872010484396
  0.0746516101654651  0.5400416904860122  0.4465188685545251
  0.0549262139916241  0.5000475093076244  0.4485872010484396
  0.0994334608083399  0.4971624464393387  0.4465414669272036
  0.1191640758456561  0.5884595701900285  0.4808062846961408
  0.0994464551173807  0.5542973048364074  0.4807760330311722
  0.0746458867948869  0.5114150054484899  0.4808062846961408
  0.1191578249270036  0.5656260461090892  0.5191976363960634
  0.0746396358762342  0.4885814813675508  0.5191976363960634
  0.0994324287531627  0.5256318649307012  0.5212659688899779
  0.1636664411208498  0.5400416904860122  0.4465188685545251
  0.1439410449470086  0.5000475093076244  0.4485872010484396
  0.1439516498591091  0.5742070111808770  0.4465414669272036
  0.1636726920395024  0.5628752145669516  0.4081275168546026
  0.1242340987912656  0.5400456371763603  0.4465116609284394
  0.1439528362181894  0.5514136871247691  0.4787306977710146
  0.1242267945658978  0.5114186293545450  0.4808003590508411
  0.1636607177502717  0.5114150054484899  0.4808062846961408
  0.1439506178039318  0.6026764296722398  0.5212659688899779
  0.1242221245020352  0.4885854280578988  0.5191904287699780
  0.2971889677641177  0.3834932273331054  0.1174124454884485
  0.3416856096687332  0.3064486625915668  0.1174124454884485
  0.3912665174397441  0.3064522864976219  0.1174065198431490
  0.4554892009966505  0.2694027795263076  0.1153368585633223
  0.4109828198958418  0.2722863972379457  0.1173821938234798
  0.4307004406241178  0.3064486625915668  0.1174124454884485
  0.3664861779912268  0.3493309619794844  0.1173821938234798
  0.3219777281366509  0.3464473442678461  0.1153368585633223
  0.3467698755351286  0.3834968512391602  0.1174065198431490
  0.3664841259162398  0.3721257311922398  0.0851933618407472
  0.3862037987195023  0.3834932273331054  0.1174124454884485
  0.4555010089466114  0.3493309619794844  0.1173821938234798
  0.4109925590920356  0.3464473442678461  0.1153368585633223
  0.4307061639946959  0.3350753476290892  0.0831250293468327
  0.3912738216651124  0.3350792943194373  0.0831178217207471
  0.4109913727329554  0.3692406683239539  0.0831476277195115
  0.4554989568716241  0.3721257311922398  0.0851933618407472
  0.4357847064905133  0.3834968512391602  0.1174065198431490
  0.2774810862320355  0.4234919090093846  0.1153368585633223
  0.3219895360866113  0.4263755267210227  0.1173821938234798
  0.3219874840116245  0.4491702959337783  0.0851933618407472
  0.3022805378558810  0.4891684238025142  0.0831178217207471
  0.3022732336305134  0.4605414159806988  0.1174065198431490
  0.2526923258595024  0.4605377920746438  0.1174124454884485
  0.2774928941819960  0.5034200914625613  0.1173821938234798
  0.2577765917258979  0.5375859807222372  0.1174065198431490
  0.2972105149102716  0.5375823568161823  0.1174124454884485
  0.3219980889237246  0.5233297978070308  0.0831476277195115
  0.2775026333781894  0.5775810384924613  0.1153368585633223
  0.4555227224320358  0.4749521181278460  0.0426580907217838
  0.3664959171874201  0.4234919090093846  0.1153368585633223
  0.3862095220900806  0.4121199123706278  0.0831250293468327
  0.3467771797604968  0.4121238590609756  0.0831178217207471
  0.3664947308283401  0.4462852330654923  0.0831476277195115
  0.3417071568148869  0.4605377920746438  0.1174124454884485
  0.3912880645858978  0.4605414159806988  0.1174065198431490
  0.3219992752828048  0.5005364737509230  0.1153368585633223
  0.3417128801854650  0.4891644771121663  0.0831250293468327
  0.3912953688112656  0.4891684238025142  0.0831178217207471
  0.4555095617837249  0.4462852330654923  0.0831476277195115
  0.4357920107158814  0.4121238590609756  0.0831178217207471
  0.4110043670419961  0.4263755267210227  0.1173821938234798
  0.4555107481428048  0.4234919090093846  0.1153368585633223
  0.4110023149670088  0.4491702959337783  0.0851933618407472
  0.4307277111408498  0.4891644771121663  0.0831250293468327
  0.4307339620595024  0.5119980011931053  0.0447336776469103
  0.4555225560927651  0.5034200914625613  0.1173821938234798
  0.4307219877702715  0.4605377920746438  0.1174124454884485
  0.4110141062381888  0.5005364737509230  0.1153368585633223
  0.3862253458656562  0.5375823568161823  0.1174124454884485
  0.3665056730623937  0.5262148606753166  0.0851933618407472
  0.3862310692362343  0.5662090418537046  0.0831250293468327
  0.3467987269066503  0.5662129885440527  0.0831178217207471
  0.3665162779744938  0.6003743625485694  0.0831476277195115
  0.3665174643335740  0.5775810384924613  0.1153368585633223
  0.3220110832327652  0.5804646562040996  0.1173821938234798
  0.4555345303819960  0.5548803005810228  0.0447034259819415
  0.4110129198791093  0.5233297978070308  0.0831476277195115
  0.4358062536366670  0.5375859807222372  0.1174065198431490
  0.4555205040177780  0.5262148606753166  0.0851933618407472
  0.4358135578620352  0.5662129885440527  0.0831178217207471
  0.4555322952889585  0.5775810384924613  0.1153368585633223
  0.4110259141881498  0.5804646562040996  0.1173821938234798
  0.4110238621131629  0.6032594254168551  0.0851933618407472
  0.4555311089298786  0.6003743625485694  0.0831476277195115
  0.2526525535054654  0.2321549293921661  0.2284825650299098
  0.2329509228920354  0.2949871351493845  0.1880156264048606
  0.3022470164204965  0.2836190852009756  0.1557965895622855
  0.2774593727466114  0.2978707528610228  0.1900609616650183
  0.3219560146512270  0.2208261881194843  0.1900609616650183
  0.3022350421312660  0.2321588760825141  0.2284753574038241
  0.3022397121951289  0.2549920773791602  0.1900852876846875
  0.2971707425562347  0.3091994941337045  0.2284825650299098
  0.2329377622437243  0.2663202500870310  0.2285051634025885
  0.2329389486028049  0.2435269260309228  0.2606943942463993
  0.2081501882302716  0.2805728090961822  0.2627699811715255
  0.2329367301885471  0.2947896685783937  0.3032296653653624
  0.2081439373116188  0.2577392850152430  0.3011613328714481
  0.1884291460498784  0.2919046057101079  0.3011839312441269
  0.2577310960012824  0.2805764330022372  0.2627640555262259
  0.3219525931991086  0.2663202500870310  0.2285051634025885
  0.3219537795581897  0.2435269260309228  0.2606943942463993
  0.2774473984573805  0.2464105437425614  0.2627397295065569
  0.2774453463823932  0.2692053129553168  0.2305508975238240
  0.2971650191856559  0.2805728090961822  0.2627699811715255
  0.2577264259374195  0.2577432317055910  0.3011541252453627
  0.2971587682670033  0.2577392850152430  0.3011613328714481
  0.2774333720931627  0.2177451038368551  0.3032296653653624
  0.3219515611439315  0.2947896685783937  0.3032296653653624
  0.2774439770052630  0.2919046057101079  0.3011839312441269
  0.2081621625195022  0.3320330182146438  0.1900912133299871
  0.1884542809874199  0.3720316998909229  0.1880156264048606
  0.2132417583220348  0.3862480055655911  0.2284753574038241
  0.2132464283858981  0.4090812068622373  0.1900852876846875
  0.2329606787670085  0.3977100868153167  0.1578721296822855
  0.2971827168454652  0.3606597032521661  0.1558037971883711
  0.2577384002266504  0.3092034408240524  0.2284753574038241
  0.2971769934748868  0.3320330182146438  0.1900912133299871
  0.2577430702905133  0.3320366421206987  0.1900852876846875
  0.2774573206716241  0.3206655220737782  0.1578721296822855
  0.2577503745158811  0.3606636499425142  0.1557965895622855
  0.2774691119428046  0.3720316998909229  0.1880156264048606
  0.2329627308419961  0.3749153176025613  0.1900609616650183
  0.3022565892774194  0.3862480055655911  0.2284753574038241
  0.3022612593412825  0.4090812068622373  0.1900852876846875
  0.2526803515702717  0.4090775829561824  0.1900912133299871
  0.2774679255837246  0.3948250239470309  0.1558263955610500
  0.2132297840328045  0.3347877964471296  0.3011541252453627
  0.2081559116008498  0.3091994941337045  0.2284825650299098
  0.2329507565527649  0.3234551084841000  0.2627397295065569
  0.1884423066981897  0.3205714907724613  0.2606943942463993
  0.1884411203391090  0.3433648148285692  0.2285051634025885
  0.2329487044777780  0.3462498776968552  0.2305508975238240
  0.2329473351006477  0.3689491704516463  0.3011839312441269
  0.2132344540966673  0.3576209977437757  0.2627640555262259
  0.1884400882839319  0.3718342333199322  0.3032296653653624
  0.2329604957489586  0.3976160555139999  0.2606943942463993
  0.2526621263623882  0.3347838497567814  0.3011613328714481
  0.2774571376535741  0.3205714907724613  0.2606943942463993
  0.2774559512944940  0.3433648148285692  0.2285051634025885
  0.3022446149881887  0.3347877964471296  0.3011541252453627
  0.2526683772810407  0.3576173738377207  0.2627699811715255
  0.3022492850520518  0.3576209977437757  0.2627640555262259
  0.2774549192393164  0.3718342333199322  0.3032296653653624
  0.2526741006516191  0.3862440588752430  0.2284825650299098
  0.2774689456035346  0.4004996732256383  0.2627397295065569
  0.3664612093929555  0.2407358944639539  0.1558263955610500
  0.3219645674883402  0.3177804592054923  0.1558263955610500
  0.3219657538474202  0.2949871351493845  0.1880156264048606
  0.3416793587500807  0.2836151385106276  0.1558037971883711
  0.3416736353795023  0.2549884534731053  0.1900912133299871
  0.3664623957520353  0.2179425704078459  0.1880156264048606
  0.3664742037019957  0.2978707528610228  0.1900609616650183
  0.3912545431505136  0.2549920773791602  0.1900852876846875
  0.3912618473758812  0.2836190852009756  0.1557965895622855
  0.4109687935316240  0.2436209573322397  0.1578721296822855
  0.4109793984437248  0.3177804592054923  0.1558263955610500
  0.4109708456066117  0.2208261881194843  0.1900609616650183
  0.4109805848028045  0.2949871351493845  0.1880156264048606
  0.4554890346573805  0.2978707528610228  0.1900609616650183
  0.4554772267074200  0.2179425704078459  0.1880156264048606
  0.4554760403483399  0.2407358944639539  0.1558263955610500
  0.4306884663348871  0.2549884534731053  0.1900912133299871
  0.4306941897054650  0.2836151385106276  0.1558037971883711
  0.3416673844608502  0.2321549293921661  0.2284825650299098
  0.3912498730866507  0.2321588760825141  0.2284753574038241
  0.3664601773377779  0.2692053129553168  0.2305508975238240
  0.3861855735116190  0.3091994941337045  0.2284825650299098
  0.3467532311820352  0.3092034408240524  0.2284753574038241
  0.3664719686089589  0.3205714907724613  0.2606943942463993
  0.4554770603681496  0.2464105437425614  0.2627397295065569
  0.4109686105135740  0.2435269260309228  0.2606943942463993
  0.4554630340039318  0.2177451038368551  0.3032296653653624
  0.4306822154162341  0.2321549293921661  0.2284825650299098
  0.4357560878481886  0.2577432317055910  0.3011541252453627
  0.4109674241544938  0.2663202500870310  0.2285051634025885
  0.4554750082931623  0.2692053129553168  0.2305508975238240
  0.4357607579120515  0.2805764330022372  0.2627640555262259
  0.4357680621374195  0.3092034408240524  0.2284753574038241
  0.4554736389160322  0.2919046057101079  0.3011839312441269
  0.4109663920993162  0.2947896685783937  0.3032296653653624
  0.3467579012458981  0.3320366421206987  0.1900852876846875
  0.3219755097223931  0.3977100868153167  0.1578721296822855
  0.3416889316070036  0.3862440588752430  0.2284825650299098
  0.3219775617973806  0.3749153176025613  0.1900609616650183
  0.3416951825256560  0.4090775829561824  0.1900912133299871
  0.3664839428981894  0.3720316998909229  0.1880156264048606
  0.3664827565391092  0.3948250239470309  0.1558263955610500
  0.3467652054712657  0.3606636499425142  0.1557965895622855
  0.3664721516270089  0.3206655220737782  0.1578721296822855
  0.3861918244302716  0.3320330182146438  0.1900912133299871
  0.3861975478008495  0.3606597032521661  0.1558037971883711
  0.4554869825823934  0.3206655220737782  0.1578721296822855
  0.4109903406777781  0.3977100868153167  0.1578721296822855
  0.4357800364266506  0.3606636499425142  0.1557965895622855
  0.4554975874944940  0.3948250239470309  0.1558263955610500
  0.4554987738535739  0.3720316998909229  0.1880156264048606
  0.4109923927527654  0.3749153176025613  0.1900609616650183
  0.4357727322012826  0.3320366421206987  0.1900852876846875
  0.3912760902966670  0.4090812068622373  0.1900852876846875
  0.3912714202328042  0.3862480055655911  0.2284753574038241
  0.4307100134810408  0.4090775829561824  0.1900912133299871
  0.4307037625623882  0.3862440588752430  0.2284825650299098
  0.3219753267043433  0.3976160555139999  0.2606943942463993
  0.3664707822498785  0.3433648148285692  0.2285051634025885
  0.3219635354331626  0.3462498776968552  0.2305508975238240
  0.3664837765589191  0.4004996732256383  0.2627397295065569
  0.3219655875081497  0.3234551084841000  0.2627397295065569
  0.3219621660560322  0.3689491704516463  0.3011839312441269
  0.3664697501947013  0.3718342333199322  0.3032296653653624
  0.3416769573177729  0.3347838497567814  0.3011613328714481
  0.3416832082364255  0.3576173738377207  0.2627699811715255
  0.4554856132052633  0.3433648148285692  0.2285051634025885
  0.4554867995643432  0.3205714907724613  0.2606943942463993
  0.4109804184635344  0.3234551084841000  0.2627397295065569
  0.3912594459435735  0.3347877964471296  0.3011541252453627
  0.4306917882731573  0.3347838497567814  0.3011613328714481
  0.4306980391918100  0.3576173738377207  0.2627699811715255
  0.4109783663885472  0.3462498776968552  0.2305508975238240
  0.3912641160074362  0.3576209977437757  0.2627640555262259
  0.4109769970114170  0.3689491704516463  0.3011839312441269
  0.4109901576597279  0.3976160555139999  0.2606943942463993
  0.4554845811500857  0.3718342333199322  0.3032296653653624
  0.4554986075143037  0.4004996732256383  0.2627397295065569
  0.1884660889373806  0.4519598823440997  0.1900609616650183
  0.1884626674852631  0.4974539443116461  0.2285051634025885
  0.2081774587470037  0.4632886236167815  0.2284825650299098
  0.1687451164174197  0.4632925703071296  0.2284753574038241
  0.2081837096656561  0.4861221476977207  0.1900912133299871
  0.1687497864812825  0.4861257716037757  0.1900852876846875
  0.2132537326112658  0.4377082146840526  0.1557965895622855
  0.2329593093898782  0.4204093795701078  0.2285051634025885
  0.2329712836791095  0.4718695886885694  0.1558263955610500
  0.2329724700381893  0.4490762646324615  0.1880156264048606
  0.2526860749408496  0.4377042679937047  0.1558037971883711
  0.2774788678177778  0.4747546515568552  0.1578721296822855
  0.2971985406210409  0.4861221476977207  0.1900912133299871
  0.2774809198927651  0.4519598823440997  0.1900609616650183
  0.2577646174366672  0.4861257716037757  0.1900852876846875
  0.3022685635666503  0.4377082146840526  0.1557965895622855
  0.2774774984406478  0.4974539443116461  0.2285051634025885
  0.3219741403452632  0.4204093795701078  0.2285051634025885
  0.2971922897023883  0.4632886236167815  0.2284825650299098
  0.2577599473728041  0.4632925703071296  0.2284753574038241
  0.2081717353764254  0.4346619385792593  0.2627699811715255
  0.1687331421281888  0.4118323611886680  0.3011541252453627
  0.2081654844577727  0.4118284144983200  0.3011613328714481
  0.1884506931960324  0.4459937351931848  0.3011839312441269
  0.2329582773347010  0.4488787980614706  0.3032296653653624
  0.1884638538443433  0.4746606202555383  0.2606943942463993
  0.2132513311789580  0.4888769259302065  0.3011541252453627
  0.2329702516239317  0.5003390071799321  0.2305508975238240
  0.2329723036989190  0.4775442379671765  0.2627397295065569
  0.2971865663318100  0.4346619385792593  0.2627699811715255
  0.2774668935285470  0.4232944424383936  0.2305508975238240
  0.2971803154131574  0.4118284144983200  0.3011613328714481
  0.2577479730835734  0.4118323611886680  0.3011541252453627
  0.2577526431474365  0.4346655624853141  0.2627640555262259
  0.2774655241514169  0.4459937351931848  0.3011839312441269
  0.3219731082900856  0.4488787980614706  0.3032296653653624
  0.2774786847997278  0.4746606202555383  0.2606943942463993
  0.3022661621343428  0.4888769259302065  0.3011541252453627
  0.2526899244271946  0.5117065033207977  0.2627699811715255
  0.2132752797574198  0.5917973441671297  0.1557965895622855
  0.2329822259131626  0.5517992162983936  0.1578721296822855
  0.2081894330362344  0.5147488327352432  0.1558037971883711
  0.2329842779881499  0.5290044470856382  0.1900609616650183
  0.2132679755320517  0.5631703363453141  0.1900852876846875
  0.1884758281335739  0.5261208293739998  0.1880156264048606
  0.1884736097193164  0.5773835719214705  0.2305508975238240
  0.2132633054681889  0.5403371350486681  0.2284753574038241
  0.2329808565360323  0.5744985090531848  0.2285051634025885
  0.2774894727298787  0.5489141534301080  0.1558263955610500
  0.2972042639916188  0.5147488327352432  0.1558037971883711
  0.2577719216620350  0.5147527794255911  0.1557965895622855
  0.2527076220870035  0.5917933974767815  0.1558037971883711
  0.3022901107128044  0.5917973441671297  0.1557965895622855
  0.2329940171843431  0.6031653941155384  0.1880156264048606
  0.2774906590889587  0.5261208293739998  0.1880156264048606
  0.2526956477977728  0.5403331883583200  0.2284825650299098
  0.2527018987164256  0.5631667124392593  0.1900912133299871
  0.3022828064874364  0.5631703363453141  0.1900852876846875
  0.2774884406747010  0.5773835719214705  0.2305508975238240
  0.2132560012428209  0.5117101272268527  0.2627640555262259
  0.1884616354300858  0.5259233628030091  0.3032296653653624
  0.2329820428951129  0.5517051849970769  0.2606943942463993
  0.1884756617943035  0.5545888027087149  0.2627397295065569
  0.2081870316039267  0.5659175439813970  0.3011613328714481
  0.1687546892743426  0.5659214906717449  0.3011541252453627
  0.1687593593382056  0.5887546919683911  0.2627640555262259
  0.1884722403421863  0.6000828646762617  0.3011839312441269
  0.2081932825225791  0.5887510680623360  0.2627699811715255
  0.2329798244808549  0.6029679275445474  0.3032296653653624
  0.3219837132021859  0.5230382999347234  0.3011839312441269
  0.3022708321982057  0.5117101272268527  0.2627640555262259
  0.2774904927496882  0.5545888027087149  0.2627397295065569
  0.2774764663854702  0.5259233628030091  0.3032296653653624
  0.2972018625593113  0.5659175439813970  0.3011613328714481
  0.2577695202297273  0.5659214906717449  0.3011541252453627
  0.2972081134779638  0.5887510680623360  0.2627699811715255
  0.2577741902935902  0.5887546919683911  0.2627640555262259
  0.2774870712975708  0.6000828646762617  0.3011839312441269
  0.3664936987731623  0.4747546515568552  0.1578721296822855
  0.3219861146344939  0.4718695886885694  0.1558263955610500
  0.3417009058962344  0.4377042679937047  0.1558037971883711
  0.3219873009935740  0.4490762646324615  0.1880156264048606
  0.3664957508481494  0.4519598823440997  0.1900609616650183
  0.3467794483920517  0.4861257716037757  0.1900852876846875
  0.3862133715764252  0.4861221476977207  0.1900912133299871
  0.3467747783281886  0.4632925703071296  0.2284753574038241
  0.3664817244839314  0.4232944424383936  0.2305508975238240
  0.3664923293960324  0.4974539443116461  0.2285051634025885
  0.3862071206577729  0.4632886236167815  0.2284825650299098
  0.4555085297285473  0.4747546515568552  0.1578721296822855
  0.4307157368516191  0.4377042679937047  0.1558037971883711
  0.4110009455898787  0.4718695886885694  0.1558263955610500
  0.3912833945220349  0.4377082146840526  0.1557965895622855
  0.4110021319489586  0.4490762646324615  0.1880156264048606
  0.4555105818035346  0.4519598823440997  0.1900609616650183
  0.4357942793474363  0.4861257716037757  0.1900852876846875
  0.4555071603514167  0.4974539443116461  0.2285051634025885
  0.4357896092835734  0.4632925703071296  0.2284753574038241
  0.4554965554393164  0.4232944424383936  0.2305508975238240
  0.4109999135347008  0.5003390071799321  0.2305508975238240
  0.4109889713006473  0.4204093795701078  0.2285051634025885
  0.3862013972871945  0.4346619385792593  0.2627699811715255
  0.3467628040389582  0.4118323611886680  0.3011541252453627
  0.3861951463685422  0.4118284144983200  0.3011613328714481
  0.3467674741028210  0.4346655624853141  0.2627640555262259
  0.3664803551068014  0.4459937351931848  0.3011839312441269
  0.3664935157551126  0.4746606202555383  0.2606943942463993
  0.3219871346543038  0.4775442379671765  0.2627397295065569
  0.3416985044639266  0.4888729792398585  0.3011613328714481
  0.4554951860621858  0.4459937351931848  0.3011839312441269
  0.4357823050582054  0.4346655624853141  0.2627640555262259
  0.4357776349943429  0.4118323611886680  0.3011541252453627
  0.4109879392454706  0.4488787980614706  0.3032296653653624
  0.4555083467104971  0.4746606202555383  0.2606943942463993
  0.4110019656096882  0.4775442379671765  0.2627397295065569
  0.4307133354193112  0.4888729792398585  0.3011613328714481
  0.3912809930897276  0.4888769259302065  0.3011541252453627
  0.4307195863379638  0.5117065033207977  0.2627699811715255
  0.3912856631535900  0.5117101272268527  0.2627640555262259
  0.3417224530423880  0.5917933974767815  0.1558037971883711
  0.3219970568685470  0.5517992162983936  0.1578721296822855
  0.3665054900443432  0.5261208293739998  0.1880156264048606
  0.3219991089435347  0.5290044470856382  0.1900609616650183
  0.3219956874914168  0.5744985090531848  0.2285051634025885
  0.3220088481397279  0.6031653941155384  0.1880156264048606
  0.3417167296718101  0.5631667124392593  0.1900912133299871
  0.3912929673789579  0.5403371350486681  0.2284753574038241
  0.3913049416681890  0.5917973441671297  0.1557965895622855
  0.4358015835728041  0.5147527794255911  0.1557965895622855
  0.4110118878239316  0.5517992162983936  0.1578721296822855
  0.4555191346406479  0.5489141534301080  0.1558263955610500
  0.4307372839977728  0.5917933974767815  0.1558037971883711
  0.4110236790951123  0.6031653941155384  0.1880156264048606
  0.4555203209997278  0.5261208293739998  0.1880156264048606
  0.4307253097085421  0.5403331883583200  0.2284825650299098
  0.4110139398989186  0.5290044470856382  0.1900609616650183
  0.4110105184468016  0.5744985090531848  0.2285051634025885
  0.4307315606271946  0.5631667124392593  0.1900912133299871
  0.3912976374428212  0.5631703363453141  0.1900852876846875
  0.3665053237050730  0.5545888027087149  0.2627397295065569
  0.3664912973408548  0.5259233628030091  0.3032296653653624
  0.3862166935146958  0.5659175439813970  0.3011613328714481
  0.3467843511851118  0.5659214906717449  0.3011541252453627
  0.3665032716300855  0.5773835719214705  0.2305508975238240
  0.3665019022529556  0.6000828646762617  0.3011839312441269
  0.3467890212489749  0.5887546919683911  0.2627640555262259
  0.3862229444333482  0.5887510680623360  0.2627699811715255
  0.3219946554362397  0.6029679275445474  0.3032296653653624
  0.4555181025854698  0.5773835719214705  0.2305508975238240
  0.4555201546604574  0.5545888027087149  0.2627397295065569
  0.4110117048058818  0.5517051849970769  0.2606943942463993
  0.4358038522043592  0.5887546919683911  0.2627640555262259
  0.4357991821404968  0.5659214906717449  0.3011541252453627
  0.4555167332083399  0.6000828646762617  0.3011839312441269
  0.4109985441575707  0.5230382999347234  0.3011839312441269
  0.4555061282962398  0.5259233628030091  0.3032296653653624
  0.4110094863916240  0.6029679275445474  0.3032296653653624
  0.1884171717606481  0.2404443965916460  0.3738626990856653
  0.1884183581197276  0.2176510725355384  0.4060519299294760
  0.2081382139410405  0.2291125999777207  0.3354487490130640
  0.2329268079743035  0.2205346902471766  0.4080972651896339
  0.2526444287025794  0.2546969556007976  0.4081275168546026
  0.2329247558993162  0.2433294594599320  0.3759084332069008
  0.2132105055182055  0.2547005795068525  0.4081215912093027
  0.1884303324089585  0.2691112816539997  0.3333731620879377
  0.2329387822635345  0.2719948993656383  0.3354184973480950
  0.2132178097435736  0.2833275873286683  0.3738328930869010
  0.2329365471704967  0.2946956372770768  0.4060519299294760
  0.2132224798074364  0.3061607886253140  0.3354428233677643
  0.1884301660696883  0.2975792549887149  0.4080972651896339
  0.3219416389296883  0.2205346902471766  0.4080972651896339
  0.2577191217120519  0.2291162238837759  0.3354428233677643
  0.2774331890751127  0.2176510725355384  0.4060519299294760
  0.2971530448964254  0.2291125999777207  0.3354487490130640
  0.2774320027160325  0.2404443965916460  0.3738626990856653
  0.3219395868547014  0.2433294594599320  0.3759084332069008
  0.3022253364735902  0.2547005795068525  0.4081215912093027
  0.2774451633643432  0.2691112816539997  0.3333731620879377
  0.2526501520731573  0.2833236406383199  0.3738401007129865
  0.2774449970250732  0.2975792549887149  0.4080972651896339
  0.2526564029918098  0.3061571647192590  0.3354487490130640
  0.3022373107628211  0.3061607886253140  0.3354428233677643
  0.3022326406989578  0.2833275873286683  0.3738328930869010
  0.1884421403589188  0.3490394641071768  0.3354184973480950
  0.2329353608114170  0.3174889613331846  0.3738626990856653
  0.2081477867979639  0.3317415203423359  0.4081275168546026
  0.1884281139947012  0.3203740242014705  0.3759084332069008
  0.2081535101685422  0.3603682053798583  0.3738401007129865
  0.2329483551204576  0.3746238197302535  0.4080972651896339
  0.1687258379028209  0.3832053533668526  0.3354428233677643
  0.2081597610871947  0.3832017294607977  0.3354487490130640
  0.2132320526643594  0.4087897089899295  0.4081215912093027
  0.2329463030454703  0.3974185889430090  0.3759084332069008
  0.2329485214597276  0.3461558463955383  0.3333731620879377
  0.2577286945689746  0.3317451442483911  0.4081215912093027
  0.2971626177533486  0.3317415203423359  0.4081275168546026
  0.2774429449500854  0.3203740242014705  0.3759084332069008
  0.2577359987943427  0.3603721520702065  0.3738328930869010
  0.2971683411239265  0.3603682053798583  0.3738401007129865
  0.2774569713143032  0.3490394641071768  0.3354184973480950
  0.2774547362212659  0.3717402020186151  0.4060519299294760
  0.2971745920425793  0.3832017294607977  0.3354487490130640
  0.2577406688582056  0.3832053533668526  0.3354428233677643
  0.2774535498621862  0.3945335260747233  0.3738626990856653
  0.2526659758487332  0.4087860850838747  0.4081275168546026
  0.3022468836197439  0.4087897089899295  0.4081215912093027
  0.1884161397054703  0.2689138150830091  0.4485872010484396
  0.2329233865221861  0.2660287522147231  0.4465414669272036
  0.2526381777839268  0.2318634315198584  0.4465188685545251
  0.2081415358793116  0.3089079962613970  0.4465188685545251
  0.2132058354543426  0.2318673782102064  0.4465116609284394
  0.2329245728812663  0.2432354281586153  0.4787306977710146
  0.2081295615900804  0.2574477871429353  0.5191976363960634
  0.1884181917804576  0.2461190458702535  0.4807760330311722
  0.2081358125087332  0.2802813112238745  0.4808062846961408
  0.2329223544670085  0.2944981707060857  0.5212659688899779
  0.2577240245051117  0.3089119429517450  0.4465116609284394
  0.3219382174775708  0.2660287522147231  0.4465414669272036
  0.2971563668346960  0.3089079962613970  0.4465188685545251
  0.2774309706608549  0.2689138150830091  0.4485872010484396
  0.3022206664097269  0.2318673782102064  0.4465116609284394
  0.3219394038366506  0.2432354281586153  0.4787306977710146
  0.2774330227358418  0.2461190458702535  0.4807760330311722
  0.2577167202797442  0.2802849351299295  0.4808003590508411
  0.2971506434641181  0.2802813112238745  0.4808062846961408
  0.3219371854223932  0.2944981707060857  0.5212659688899779
  0.2971443925454650  0.2574477871429353  0.5191976363960634
  0.2774296012837243  0.2916131078378000  0.5192202347687425
  0.2577120502158808  0.2574517338332833  0.5191904287699780
  0.2329343287562390  0.3459583798245477  0.4485872010484396
  0.1884267446175706  0.3430733169562615  0.4465414669272036
  0.2132273826004961  0.3859565076932831  0.4465116609284394
  0.1884279309766508  0.3202799929001537  0.4787306977710146
  0.1884397389266115  0.4002081753533304  0.4807760330311722
  0.2329363808312267  0.3231636106117918  0.4807760330311722
  0.2132154083112656  0.3344962985748219  0.5191904287699780
  0.2132200783751287  0.3573294998714681  0.4808003590508411
  0.2329329593791093  0.3686576725793383  0.5192202347687425
  0.2081511087362345  0.4115369166260122  0.5191976363960634
  0.3022422135558810  0.3859565076932831  0.4465116609284394
  0.2526597249300809  0.3859525610029353  0.4465188685545251
  0.2774415755729553  0.3430733169562615  0.4465414669272036
  0.2329461200274199  0.3973245576416920  0.4787306977710146
  0.2774427619320355  0.3202799929001537  0.4787306977710146
  0.2774545698819959  0.4002081753533304  0.4807760330311722
  0.3022349093305134  0.3573294998714681  0.4808003590508411
  0.3022302392666500  0.3344962985748219  0.5191904287699780
  0.2526540015595025  0.3573258759654128  0.4808062846961408
  0.2526477506408495  0.3344923518844739  0.5191976363960634
  0.2774405435177781  0.3715427354476243  0.5212659688899779
  0.3219477903344936  0.3686576725793383  0.5192202347687425
  0.2971659396916188  0.4115369166260122  0.5191976363960634
  0.3912401674289750  0.2547005795068525  0.4081215912093027
  0.3664480200304970  0.2176510725355384  0.4060519299294760
  0.3664468336714173  0.2404443965916460  0.3738626990856653
  0.3861678758518102  0.2291125999777207  0.3354487490130640
  0.3219536132189188  0.2719948993656383  0.3354184973480950
  0.3416649830285416  0.2833236406383199  0.3738401007129865
  0.3219513781258815  0.2946956372770768  0.4060519299294760
  0.3912474716543425  0.2833275873286683  0.3738328930869010
  0.3416712339471946  0.3061571647192590  0.3354487490130640
  0.3664598279804575  0.2975792549887149  0.4080972651896339
  0.4109564698850726  0.2205346902471766  0.4080972651896339
  0.4554628509858818  0.2176510725355384  0.4060519299294760
  0.4357487836228210  0.2291162238837759  0.3354428233677643
  0.4554616646268017  0.2404443965916460  0.3738626990856653
  0.4109544178100853  0.2433294594599320  0.3759084332069008
  0.4554748252751123  0.2691112816539997  0.3333731620879377
  0.4109684441743036  0.2719948993656383  0.3354184973480950
  0.4306798139839268  0.2833236406383199  0.3738401007129865
  0.4306860649025794  0.3061571647192590  0.3354487490130640
  0.4554746589358418  0.2975792549887149  0.4080972651896339
  0.4109662090812662  0.2946956372770768  0.4060519299294760
  0.3912521417182054  0.3061607886253140  0.3354428233677643
  0.3664718022696880  0.3490394641071768  0.3354184973480950
  0.3219633524151124  0.3461558463955383  0.3333731620879377
  0.3664577759054702  0.3203740242014705  0.3759084332069008
  0.3219501917668018  0.3174889613331846  0.3738626990856653
  0.3467435255243594  0.3317451442483911  0.4081215912093027
  0.3861831720793112  0.3603682053798583  0.3738401007129865
  0.3467508297497270  0.3603721520702065  0.3738328930869010
  0.3664695671766507  0.3717402020186151  0.4060519299294760
  0.3219631860758424  0.3746238197302535  0.4080972651896339
  0.3664683808175708  0.3945335260747233  0.3738626990856653
  0.3861894229979638  0.3832017294607977  0.3354487490130640
  0.3219611340008549  0.3974185889430090  0.3759084332069008
  0.3467554998135903  0.3832053533668526  0.3354428233677643
  0.4357583564797442  0.3317451442483911  0.4081215912093027
  0.4554726068608546  0.3203740242014705  0.3759084332069008
  0.4109650227221861  0.3174889613331846  0.3738626990856653
  0.4554866332250728  0.3490394641071768  0.3354184973480950
  0.4109781833704967  0.3461558463955383  0.3333731620879377
  0.4357656607051117  0.3603721520702065  0.3738328930869010
  0.4554843981320355  0.3717402020186151  0.4060519299294760
  0.4109780170312263  0.3746238197302535  0.4080972651896339
  0.4357703307689746  0.3832053533668526  0.3354428233677643
  0.4554832117729555  0.3945335260747233  0.3738626990856653
  0.4109759649562394  0.3974185889430090  0.3759084332069008
  0.3912617145751286  0.4087897089899295  0.4081215912093027
  0.3861711977900807  0.3089079962613970  0.4465188685545251
  0.3664458016162393  0.2689138150830091  0.4485872010484396
  0.3416530087393115  0.2318634315198584  0.4465188685545251
  0.3416592596579637  0.2546969556007976  0.4081275168546026
  0.3467388554604965  0.3089119429517450  0.4465116609284394
  0.3912354973651117  0.2318673782102064  0.4465116609284394
  0.4109530484329552  0.2660287522147231  0.4465414669272036
  0.4306678396946959  0.2318634315198584  0.4465188685545251
  0.4306740906133484  0.2546969556007976  0.4081275168546026
  0.3861592235008494  0.2574477871429353  0.5191976363960634
  0.3664575928874198  0.3202799929001537  0.4787306977710146
  0.3467268811712656  0.2574517338332833  0.5191904287699780
  0.3467315512351285  0.2802849351299295  0.4808003590508411
  0.3664444322391092  0.2916131078378000  0.5192202347687425
  0.3664478536912262  0.2461190458702535  0.4807760330311722
  0.3861654744195028  0.2802813112238745  0.4808062846961408
  0.4109520163777780  0.2944981707060857  0.5212659688899779
  0.4109542347920354  0.2432354281586153  0.4787306977710146
  0.4357417121266504  0.2574517338332833  0.5191904287699780
  0.4554592631944939  0.2916131078378000  0.5192202347687425
  0.4554626846466114  0.2461190458702535  0.4807760330311722
  0.3664564065283401  0.3430733169562615  0.4465414669272036
  0.3416745558854652  0.3859525610029353  0.4465188685545251
  0.3861774487087329  0.3317415203423359  0.4081275168546026
  0.3416808068041178  0.4087860850838747  0.4081275168546026
  0.3219491597116242  0.3459583798245477  0.4485872010484396
  0.3219512117866111  0.3231636106117918  0.4807760330311722
  0.3416688325148873  0.3573258759654128  0.4808062846961408
  0.3664694008373803  0.4002081753533304  0.4807760330311722
  0.3219609509828047  0.3973245576416920  0.4787306977710146
  0.3664553744731625  0.3715427354476243  0.5212659688899779
  0.3416625815962343  0.3344923518844739  0.5191976363960634
  0.3912570445112658  0.3859565076932831  0.4465116609284394
  0.4306893868408496  0.3859525610029353  0.4465188685545251
  0.4109639906670085  0.3459583798245477  0.4485872010484396
  0.4306956377595023  0.4087860850838747  0.4081275168546026
  0.4554712374837244  0.3430733169562615  0.4465414669272036
  0.4109757819381890  0.3973245576416920  0.4787306977710146
  0.4554842317927650  0.4002081753533304  0.4807760330311722
  0.4109660427419958  0.3231636106117918  0.4807760330311722
  0.3912497402858977  0.3573294998714681  0.4808003590508411
  0.4306836634702716  0.3573258759654128  0.4808062846961408
  0.4306774125516186  0.3344923518844739  0.5191976363960634
  0.4554702054285468  0.3715427354476243  0.5212659688899779
  0.4109626212898784  0.3686576725793383  0.5192202347687425
  0.3912450702220348  0.3344962985748219  0.5191904287699780
  0.2132393568897274  0.4374167168117449  0.3738328930869010
  0.2329603294096883  0.4260840288487152  0.3354184973480950
  0.2132440269535902  0.4602499181083911  0.3354428233677643
  0.1884518795551123  0.4232004111370768  0.3333731620879377
  0.1884496611408549  0.4744631536845475  0.3759084332069008
  0.2329569079575709  0.4715780908162617  0.3738626990856653
  0.1687307406958812  0.4630010724348219  0.4465116609284394
  0.2081693339441178  0.4858306498254131  0.4081275168546026
  0.1884517132158421  0.4516683844717920  0.4080972651896339
  0.2329580943166508  0.4487847667601537  0.4060519299294760
  0.1687354107597441  0.4858342737314679  0.4081215912093027
  0.2526779501379640  0.4602462942023362  0.3354487490130640
  0.3022588579089748  0.4602499181083911  0.3354428233677643
  0.2774667105104971  0.4232004111370768  0.3333731620879377
  0.2774644920962395  0.4744631536845475  0.3759084332069008
  0.3022541878451119  0.4374167168117449  0.3738328930869010
  0.3219717389129554  0.4715780908162617  0.3738626990856653
  0.2526716992193112  0.4374127701213969  0.3738401007129865
  0.2971841648995022  0.4858306498254131  0.4081275168546026
  0.2577502417151286  0.4858342737314679  0.4081215912093027
  0.2774665441712268  0.4516683844717920  0.4080972651896339
  0.2577455716512658  0.4630010724348219  0.4465116609284394
  0.2132609040358812  0.5915058462948219  0.3738328930869010
  0.1884636875050730  0.5031285935902536  0.3354184973480950
  0.1687473850489750  0.5372944828499295  0.3354428233677643
  0.2081813082333484  0.5372908589438746  0.3354487490130640
  0.1884734267012665  0.5772895406201539  0.3333731620879377
  0.1687427149851120  0.5144612815532834  0.3738328930869010
  0.2081750573146958  0.5144573348629354  0.3738401007129865
  0.1884602660529555  0.5486226555578001  0.3738626990856653
  0.2132489297466504  0.5400456371763603  0.4465116609284394
  0.2329678501916240  0.5515077184260859  0.3759084332069008
  0.2132535998105135  0.5628788384730063  0.4081215912093027
  0.1884614524120358  0.5258293315016924  0.4060519299294760
  0.2329699022666113  0.5287129492133305  0.4080972651896339
  0.2971961391887332  0.5372908589438746  0.3354487490130640
  0.2329818765558422  0.5801731583317918  0.3354184973480950
  0.2774882576566510  0.5772895406201539  0.3333731620879377
  0.2577575459404968  0.5144612815532834  0.3738328930869010
  0.3022757349912660  0.5915058462948219  0.3738328930869010
  0.2971898882700806  0.5144573348629354  0.3738401007129865
  0.2526932463654650  0.5915018996044737  0.3738401007129865
  0.2526875229948871  0.5628752145669516  0.4081275168546026
  0.2329796414628049  0.6028738962432307  0.4060519299294760
  0.3022684307658978  0.5628788384730063  0.4081215912093027
  0.3022637607020351  0.5400456371763603  0.4465116609284394
  0.2774762833674203  0.5258293315016924  0.4060519299294760
  0.2774750970083399  0.5486226555578001  0.3738626990856653
  0.2329449336683400  0.4201178816978001  0.4465414669272036
  0.1884482917637246  0.4971624464393387  0.4465414669272036
  0.2081630830254651  0.4629971257444739  0.4465188685545251
  0.1687234364705135  0.4343740646130064  0.4808003590508411
  0.1884376868516241  0.4230029445660858  0.4485872010484396
  0.2329579279773810  0.4772527400948690  0.4807760330311722
  0.1884494781228046  0.4743691223832307  0.4787306977710146
  0.2081573596548868  0.4343704407069515  0.4808062846961408
  0.1687187664066503  0.4115408633163603  0.5191904287699780
  0.2329439016131626  0.4485873001891629  0.5212659688899779
  0.2132369554574195  0.4885854280578988  0.5191904287699780
  0.2526692977870036  0.4885814813675508  0.5191976363960634
  0.1884363174744939  0.4457022373208770  0.5192202347687425
  0.2774525178070086  0.4230029445660858  0.4485872010484396
  0.2577335973620345  0.4115408633163603  0.5191904287699780
  0.3219597646237245  0.4201178816978001  0.4465414669272036
  0.2774511484298784  0.4457022373208770  0.5192202347687425
  0.2577382674258978  0.4343740646130064  0.4808003590508411
  0.2971721906102715  0.4343704407069515  0.4808062846961408
  0.3219587325685473  0.4485873001891629  0.5212659688899779
  0.2971779139808499  0.4629971257444739  0.4465188685545251
  0.2774643090781894  0.4743691223832307  0.4787306977710146
  0.3219727589327652  0.4772527400948690  0.4807760330311722
  0.3022517864128039  0.4885854280578988  0.5191904287699780
  0.2774631227191094  0.4971624464393387  0.4465414669272036
  0.3219707068577778  0.5000475093076244  0.4485872010484396
  0.2329558759023933  0.5000475093076244  0.4485872010484396
  0.2132416255212826  0.5114186293545450  0.4808003590508411
  0.2329545065252631  0.5227468020624154  0.5192202347687425
  0.2081726558823881  0.5656260461090892  0.5191976363960634
  0.1884612860727653  0.5542973048364074  0.4807760330311722
  0.1687403135528042  0.5656299927994372  0.5191904287699780
  0.2329664808144938  0.5742070111808770  0.4465414669272036
  0.2329654487593162  0.6026764296722398  0.5212659688899779
  0.2081789068010409  0.5884595701900285  0.4808062846961408
  0.1884592339977779  0.5770920740491630  0.4485872010484396
  0.1687449836166673  0.5884631940960834  0.4808003590508411
  0.1884578646206477  0.5997913668039538  0.5192202347687425
  0.3022564564766670  0.5114186293545450  0.4808003590508411
  0.2526755487056562  0.5114150054484899  0.4808062846961408
  0.2526812720762343  0.5400416904860122  0.4465188685545251
  0.2774620906639318  0.5256318649307012  0.5212659688899779
  0.3219693374806475  0.5227468020624154  0.5192202347687425
  0.2329676671735740  0.5514136871247691  0.4787306977710146
  0.2971874868377729  0.5656260461090892  0.5191976363960634
  0.2774740649531627  0.5770920740491630  0.4485872010484396
  0.2577598145720519  0.5884631940960834  0.4808003590508411
  0.3912690188004964  0.4374167168117449  0.3738328930869010
  0.3219751603650729  0.4260840288487152  0.3354184973480950
  0.3219848995612663  0.5002449758786153  0.3333731620879377
  0.3416927810933485  0.4602462942023362  0.3354487490130640
  0.3664933494158421  0.5031285935902536  0.3354184973480950
  0.3664815414658816  0.4232004111370768  0.3333731620879377
  0.3416865301746957  0.4374127701213969  0.3738401007129865
  0.3862047192254649  0.5144573348629354  0.3738401007129865
  0.3664793230516241  0.4744631536845475  0.3759084332069008
  0.3664813751266112  0.4516683844717920  0.4080972651896339
  0.3219729252720356  0.4487847667601537  0.4060519299294760
  0.3861989958548870  0.4858306498254131  0.4081275168546026
  0.3467650726705133  0.4858342737314679  0.4081215912093027
  0.4555081803712271  0.5031285935902536  0.3354184973480950
  0.4109997305166511  0.5002449758786153  0.3333731620879377
  0.3912736888643595  0.4602499181083911  0.3354428233677643
  0.4554963724212666  0.4232004111370768  0.3333731620879377
  0.4109899913204577  0.4260840288487152  0.3354184973480950
  0.4307076120487330  0.4602462942023362  0.3354487490130640
  0.4307013611300805  0.4374127701213969  0.3738401007129865
  0.4109865698683400  0.4715780908162617  0.3738626990856653
  0.4554941540070087  0.4744631536845475  0.3759084332069008
  0.4357799036258979  0.4858342737314679  0.4081215912093027
  0.4554962060819959  0.4516683844717920  0.4080972651896339
  0.4109877562274200  0.4487847667601537  0.4060519299294760
  0.3862109701441179  0.5372908589438746  0.3354487490130640
  0.3219967075112268  0.5801731583317918  0.3354184973480950
  0.3665030886120355  0.5772895406201539  0.3333731620879377
  0.3467770469597440  0.5372944828499295  0.3354428233677643
  0.3417080773208496  0.5915018996044737  0.3738401007129865
  0.3467723768958813  0.5144612815532834  0.3738328930869010
  0.3664899279637249  0.5486226555578001  0.3738626990856653
  0.3219826811470087  0.5515077184260859  0.3759084332069008
  0.3664911143228048  0.5258293315016924  0.4060519299294760
  0.3219944724181895  0.6028738962432307  0.4060519299294760
  0.3219847332219961  0.5287129492133305  0.4080972651896339
  0.3417023539502717  0.5628752145669516  0.4081275168546026
  0.3912905659466506  0.5915058462948219  0.3738328930869010
  0.4357872078512657  0.5144612815532834  0.3738328930869010
  0.4357918779151288  0.5372944828499295  0.3354428233677643
  0.4555179195674203  0.5772895406201539  0.3333731620879377
  0.4110115384666111  0.5801731583317918  0.3354184973480950
  0.4307229082762343  0.5915018996044737  0.3738401007129865
  0.4555047589191094  0.5486226555578001  0.3738626990856653
  0.4109975121023935  0.5515077184260859  0.3759084332069008
  0.4110093033735741  0.6028738962432307  0.4060519299294760
  0.4109995641773804  0.5287129492133305  0.4080972651896339
  0.4307171849056562  0.5628752145669516  0.4081275168546026
  0.4555059452781894  0.5258293315016924  0.4060519299294760
  0.3912832617212823  0.5628788384730063  0.4081215912093027
  0.3861807706470035  0.4115369166260122  0.5191976363960634
  0.3467484283174197  0.4115408633163603  0.5191904287699780
  0.3664659793852633  0.4457022373208770  0.5192202347687425
  0.3861870215656561  0.4343704407069515  0.4808062846961408
  0.3467530983812826  0.4343740646130064  0.4808003590508411
  0.3664673487623932  0.4230029445660858  0.4485872010484396
  0.3861927449362344  0.4629971257444739  0.4465188685545251
  0.3664791400335737  0.4743691223832307  0.4787306977710146
  0.3467604026066502  0.4630010724348219  0.4465116609284394
  0.3912666173681889  0.4885854280578988  0.5191904287699780
  0.3416841287423882  0.4885814813675508  0.5191976363960634
  0.3664779536744935  0.4971624464393387  0.4465414669272036
  0.3416903796610410  0.5114150054484899  0.4808062846961408
  0.4554808103406476  0.4457022373208770  0.5192202347687425
  0.4357679293366671  0.4343740646130064  0.4808003590508411
  0.4109745955791090  0.4201178816978001  0.4465414669272036
  0.4554821797177777  0.4230029445660858  0.4485872010484396
  0.4357632592728040  0.4115408633163603  0.5191904287699780
  0.4109735635239317  0.4485873001891629  0.5212659688899779
  0.4357752335620350  0.4630010724348219  0.4465116609284394
  0.4554939709889587  0.4743691223832307  0.4787306977710146
  0.4109875898881499  0.4772527400948690  0.4807760330311722
  0.4306989596977727  0.4885814813675508  0.5191976363960634
  0.4109855378131622  0.5000475093076244  0.4485872010484396
  0.4554927846298785  0.4971624464393387  0.4465414669272036
  0.4307052106164253  0.5114150054484899  0.4808062846961408
  0.3416961030316189  0.5400416904860122  0.4465188685545251
  0.3664769216193166  0.5256318649307012  0.5212659688899779
  0.3664909479835344  0.5542973048364074  0.4807760330311722
  0.3219824981289586  0.5514136871247691  0.4787306977710146
  0.3862023177931574  0.5656260461090892  0.5191976363960634
  0.3467699754635731  0.5656299927994372  0.5191904287699780
  0.3219813117698786  0.5742070111808770  0.4465414669272036
  0.3862085687118102  0.5884595701900285  0.4808062846961408
  0.3467746455274363  0.5884631940960834  0.4808003590508411
  0.3664888959085471  0.5770920740491630  0.4485872010484396
  0.3912785916574194  0.5400456371763603  0.4465116609284394
  0.4554917525747009  0.5256318649307012  0.5212659688899779
  0.3912712874320520  0.5114186293545450  0.4808003590508411
  0.4307109339870037  0.5400416904860122  0.4465188685545251
  0.4109841684360325  0.5227468020624154  0.5192202347687425
  0.4555057789389191  0.5542973048364074  0.4807760330311722
  0.4109973290843431  0.5514136871247691  0.4787306977710146
  0.4555023574868017  0.5997913668039538  0.5192202347687425
  0.4357848064189581  0.5656299927994372  0.5191904287699780
  0.4555037268639318  0.5770920740491630  0.4485872010484396
  0.4357894764828210  0.5884631940960834  0.4808003590508411
  0.4109951106700858  0.6026764296722398  0.5212659688899779
  0.4109961427252630  0.5742070111808770  0.4465414669272036
  0.2329928308252632  0.6259587181716461  0.1558263955610500
  0.1884876360835345  0.6060490118271767  0.1900609616650183
  0.1687666635635733  0.6173816997902065  0.2284753574038241
  0.1884842146314170  0.6515430737947232  0.2285051634025885
  0.2081990058931574  0.6173777530998583  0.2284825650299098
  0.2082052568118100  0.6402112771807977  0.1900912133299871
  0.2329917987700856  0.6544281366630090  0.2305508975238240
  0.2132848526143425  0.6944262645317449  0.2284753574038241
  0.2330024036821862  0.7285876385362616  0.2285051634025885
  0.2527234458625792  0.7172558419223362  0.1900912133299871
  0.2527171949439266  0.6944223178413970  0.2284825650299098
  0.2330058251343036  0.6830935765687151  0.1900609616650183
  0.3022947807766671  0.6146305454637756  0.1174065198431490
  0.3468082997635736  0.6688419089086680  0.1557965895622855
  0.3220076617806478  0.6259587181716461  0.1558263955610500
  0.2972258111377729  0.6688379622183200  0.1558037971883711
  0.3417287039610406  0.6146269215577207  0.1174124454884485
  0.2577934688081889  0.6688419089086680  0.1557965895622855
  0.3665258508314170  0.7030032829131848  0.1558263955610500
  0.2775110198760322  0.7030032829131848  0.1558263955610500
  0.4307492582870037  0.6432536065952431  0.0831250293468327
  0.3913169159574195  0.6432575532855910  0.0831178217207471
  0.4110356533843432  0.6546256032339999  0.1153368585633223
  0.4555441032389192  0.6575092209456379  0.1173821938234798
  0.3913096117320516  0.6146305454637756  0.1174065198431490
  0.4307435349164254  0.6146269215577207  0.1174124454884485
  0.3862406420931570  0.6688379622183200  0.1558037971883711
  0.4110224927360323  0.6259587181716461  0.1558263955610500
  0.4358231307189580  0.6688419089086680  0.1557965895622855
  0.4555420511639321  0.6803039901583936  0.0851933618407472
  0.4555538424351124  0.7316701679755382  0.1153368585633223
  0.4358278007828211  0.6916751102053142  0.1174065198431490
  0.4555406817868015  0.7030032829131848  0.1558263955610500
  0.3862468930118100  0.6916714862992590  0.1174124454884485
  0.2972138368485420  0.6173777530998583  0.2284825650299098
  0.2775004149639319  0.6288437810399320  0.1578721296822855
  0.2775024670389194  0.6060490118271767  0.1900609616650183
  0.2774990455868017  0.6515430737947232  0.2285051634025885
  0.2577861645828211  0.6402149010868526  0.1900852876846875
  0.2577814945189582  0.6173816997902065  0.2284753574038241
  0.2972200877671948  0.6402112771807977  0.1900912133299871
  0.3467963254743425  0.6173816997902065  0.2284753574038241
  0.3665138765421860  0.6515430737947232  0.2285051634025885
  0.3468009955382056  0.6402149010868526  0.1900852876846875
  0.3023043536335903  0.7172594658283911  0.1900852876846875
  0.2775122062351124  0.6802099588570769  0.1880156264048606
  0.2775099878208551  0.7314727014045476  0.2305508975238240
  0.3220172346375709  0.7285876385362616  0.2285051634025885
  0.3417382768179640  0.7172558419223362  0.1900912133299871
  0.3220186040147011  0.7058883457814705  0.1578721296822855
  0.3220206560896882  0.6830935765687151  0.1900609616650183
  0.3862286678039265  0.6173777530998583  0.2284825650299098
  0.3665152459193162  0.6288437810399320  0.1578721296822855
  0.3665172979943035  0.6060490118271767  0.1900609616650183
  0.4110214606808547  0.6544281366630090  0.2305508975238240
  0.3862349187225793  0.6402112771807977  0.1900912133299871
  0.4358111564297271  0.6173816997902065  0.2284753574038241
  0.4358158264935902  0.6402149010868526  0.1900852876846875
  0.4555300768747008  0.6288437810399320  0.1578721296822855
  0.4555321289496880  0.6060490118271767  0.1900609616650183
  0.4555287074975708  0.6515430737947232  0.2285051634025885
  0.3665248187762392  0.7314727014045476  0.2305508975238240
  0.3913191845889749  0.7172594658283911  0.1900852876846875
  0.3665270371904971  0.6802099588570769  0.1880156264048606
  0.3913145145251117  0.6944262645317449  0.2284753574038241
  0.4110320655929553  0.7285876385362616  0.2285051634025885
  0.4110334349700854  0.7058883457814705  0.1578721296822855
  0.4110354870450727  0.6830935765687151  0.1900609616650183
  0.4307468568546958  0.6944223178413970  0.2284825650299098
  0.4307531077733485  0.7172558419223362  0.1900912133299871
  0.4555396497316241  0.7314727014045476  0.2305508975238240
  0.4555418681458815  0.6802099588570769  0.1880156264048606
  0.2578030416651119  0.7714708292732835  0.2284753574038241
  0.2972353839946961  0.7714668825829354  0.2284825650299098
  0.3220303952858816  0.7572545235986153  0.1880156264048606
  0.3417440001885421  0.7458825269598585  0.1558037971883711
  0.3468225426843595  0.7943040305699295  0.1900852876846875
  0.3468178726204966  0.7714708292732835  0.2284753574038241
  0.3220281768716241  0.8085172661460858  0.2305508975238240
  0.4555516240208546  0.7829329105230088  0.1578721296822855
  0.3665388451404574  0.7601381413102536  0.1900609616650183
  0.4110452262412664  0.7572545235986153  0.1880156264048606
  0.4555536760958420  0.7601381413102536  0.1900609616650183
  0.4358373736397443  0.7943040305699295  0.1900852876846875
  0.3862564658687332  0.7943004066638747  0.1900912133299871
  0.4358327035758812  0.7714708292732835  0.2284753574038241
  0.3862502149500807  0.7714668825829354  0.2284825650299098
  0.4555634152920356  0.8342990883401536  0.1880156264048606
  0.4307684040008496  0.8485114473244737  0.2284825650299098
  0.4555502546437250  0.8056322032778002  0.2285051634025885
  0.3913360616712658  0.8485153940148219  0.2284753574038241
  0.4110430078270086  0.8085172661460858  0.2305508975238240
  0.3665354236883404  0.8056322032778002  0.2285051634025885
  0.1242580473697274  0.6429660554132833  0.3011541252453627
  0.0994704036958423  0.6572177230733304  0.3354184973480950
  0.1191880244241176  0.6913799884269515  0.3354487490130640
  0.1242507431443594  0.6143390475914681  0.3354428233677643
  0.1191817735054650  0.6685464643460123  0.3738401007129865
  0.1636966406179637  0.6657956328038748  0.2627699811715255
  0.1439790198896883  0.6316333674502536  0.2627397295065569
  0.1439755984375708  0.6771274294178001  0.3011839312441269
  0.1636903896993113  0.6429621087229352  0.3011613328714481
  0.1884831825762396  0.6800124922860860  0.3032296653653624
  0.1439767847966509  0.6543341053616921  0.3333731620879377
  0.1884852346512268  0.6572177230733304  0.3354184973480950
  0.1687689321951285  0.6913836123330064  0.3354428233677643
  0.1636846663287330  0.6143354236854132  0.3354487490130640
  0.1884972089404576  0.7086779321917919  0.2627397295065569
  0.1884854009904971  0.6287497497386153  0.2606943942463993
  0.2132655740997441  0.6143390475914681  0.3354428233677643
  0.2132728783251119  0.6429660554132833  0.3011541252453627
  0.2082028553795022  0.6913799884269515  0.3354487490130640
  0.2132775483889747  0.6657992567099295  0.2627640555262259
  0.2329904293929553  0.6771274294178001  0.3011839312441269
  0.2526994972841176  0.6143354236854132  0.3354487490130640
  0.2330035900412663  0.7057943144801537  0.2606943942463993
  0.2329938508450727  0.6316333674502536  0.2627397295065569
  0.2329916157520356  0.6543341053616921  0.3333731620879377
  0.3022877092804965  0.6429660554132833  0.3011541252453627
  0.2527114715733485  0.6657956328038748  0.2627699811715255
  0.2775002319458817  0.6287497497386153  0.2606943942463993
  0.2775120398958421  0.7086779321917919  0.2627397295065569
  0.2774980135316241  0.6800124922860860  0.3032296653653624
  0.2527052206546958  0.6429621087229352  0.3011613328714481
  0.3022804050551282  0.6143390475914681  0.3354428233677643
  0.2972176863348868  0.6913799884269515  0.3354487490130640
  0.2577837631505133  0.6913836123330064  0.3354428233677643
  0.2775000656066114  0.6572177230733304  0.3354184973480950
  0.2972114354162342  0.6685464643460123  0.3738401007129865
  0.2577790930866504  0.6685504110363604  0.3738328930869010
  0.2082148296687329  0.7428401975454129  0.2627699811715255
  0.1884949738474201  0.7313786701032307  0.3333731620879377
  0.1687762364204965  0.7200106201548219  0.3011541252453627
  0.1439885927466113  0.7342622878148690  0.3354184973480950
  0.2082085787500805  0.7200066734644739  0.3011613328714481
  0.1884937874883399  0.7541719941593386  0.3011839312441269
  0.1636999625562345  0.7455910290875507  0.3738401007129865
  0.2132824511820350  0.7455949757778988  0.3738328930869010
  0.2132944254712659  0.7970551848963604  0.3011541252453627
  0.2082181516070035  0.8226355938290892  0.3738401007129865
  0.1637062134748868  0.7684245531684899  0.3354487490130640
  0.2972296606241178  0.7428401975454129  0.2627699811715255
  0.2330153979912268  0.7857224969333304  0.2627397295065569
  0.2577957374397440  0.7428438214514681  0.2627640555262259
  0.2775217790920358  0.7828388792216923  0.2606943942463993
  0.2972234097054652  0.7200066734644739  0.3011613328714481
  0.2577910673758811  0.7200106201548219  0.3011541252453627
  0.2775086184437245  0.7541719941593386  0.3011839312441269
  0.2330034237019959  0.7342622878148690  0.3354184973480950
  0.2775098048028046  0.7313786701032307  0.3333731620879377
  0.2527210444302713  0.7684245531684899  0.3354487490130640
  0.2527147935116189  0.7455910290875507  0.3738401007129865
  0.2775195606777780  0.8341016217691629  0.3032296653653624
  0.2972392334810409  0.8454691179100284  0.3354487490130640
  0.2775216127527653  0.8113068525564072  0.3354184973480950
  0.2578053102966670  0.8454727418160832  0.3354428233677643
  0.1191760501348871  0.6399197793084901  0.4081275168546026
  0.0994584294066113  0.6057575139548689  0.4080972651896339
  0.0994563773316241  0.6285522831676245  0.3759084332069008
  0.1439636241483402  0.6256672202993385  0.3738626990856653
  0.1439766184573806  0.6828020786964074  0.4080972651896339
  0.1687569579058979  0.6399234032145448  0.4081215912093027
  0.1884712082870086  0.6285522831676245  0.3759084332069008
  0.1884732603619959  0.6057575139548689  0.4080972651896339
  0.1439625920931624  0.6541366387907014  0.4485872010484396
  0.1191697992162343  0.6170862552275508  0.4465188685545251
  0.1687522878420350  0.6170902019178989  0.4465116609284394
  0.1884698389098785  0.6512515759224156  0.4465414669272036
  0.1636879882670036  0.6941308199690891  0.4465188685545251
  0.2081846301716191  0.6170862552275508  0.4465188685545251
  0.1884710252689587  0.6284582518663077  0.4787306977710146
  0.1884688068547010  0.6797209944137781  0.5212659688899779
  0.1636822648964255  0.6655041349315669  0.4808062846961408
  0.1636760139777727  0.6426706108506279  0.5191976363960634
  0.1439646441681500  0.6313418695779457  0.4807760330311722
  0.2329784551037248  0.6256672202993385  0.3738626990856653
  0.2132704768928041  0.6941347666594372  0.4465116609284394
  0.2329914494127652  0.6828020786964074  0.4080972651896339
  0.2577671187974198  0.6170902019178989  0.4465116609284394
  0.2577717888612827  0.6399234032145448  0.4081215912093027
  0.2774978305135741  0.6799184609847692  0.4060519299294760
  0.2774860392423932  0.6285522831676245  0.3759084332069008
  0.2774880913173805  0.6057575139548689  0.4080972651896339
  0.2972057120456561  0.6399197793084901  0.4081275168546026
  0.3022853078481887  0.6941347666594372  0.4465116609284394
  0.2329774230485472  0.6541366387907014  0.4485872010484396
  0.2527028192223882  0.6941308199690891  0.4465188685545251
  0.2774846698652630  0.6512515759224156  0.4465414669272036
  0.2971994611270035  0.6170862552275508  0.4465188685545251
  0.2774858562243432  0.6284582518663077  0.4787306977710146
  0.2329794751235345  0.6313418695779457  0.4807760330311722
  0.3022780036228211  0.6655077588376217  0.4808003590508411
  0.2132631726674363  0.6655077588376217  0.4808003590508411
  0.2329760536714170  0.6768359315454924  0.5192202347687425
  0.2132585026035735  0.6426745575409759  0.5191904287699780
  0.2774836378100857  0.6797209944137781  0.5212659688899779
  0.2526970958518103  0.6655041349315669  0.4808062846961408
  0.2526908449331575  0.6426706108506279  0.5191976363960634
  0.3022733335589580  0.6426745575409759  0.5191904287699780
  0.1636942391856563  0.7169643440500285  0.4081275168546026
  0.1439745663823933  0.7055968479091628  0.3759084332069008
  0.2329893973377781  0.7055968479091628  0.3759084332069008
  0.1884818131991093  0.7027117850408771  0.3738626990856653
  0.2132751469566672  0.7169679679560834  0.4081215912093027
  0.2330011886089586  0.7569630257263077  0.4060519299294760
  0.1884948075081497  0.7598466434379459  0.4080972651896339
  0.1884927554331625  0.7826414126507013  0.3759084332069008
  0.2082124282364254  0.7940089087915668  0.4081275168546026
  0.2330000022498784  0.7797563497824156  0.3738626990856653
  0.2774966441544940  0.7027117850408771  0.3738626990856653
  0.2775096384635344  0.7598466434379459  0.4080972651896339
  0.2527090701410408  0.7169643440500285  0.4081275168546026
  0.3022899779120516  0.7169679679560834  0.4081215912093027
  0.2577886659435734  0.7711793314009757  0.4465116609284394
  0.2775075863885473  0.7826414126507013  0.3759084332069008
  0.2330129965589191  0.8368912081794843  0.4080972651896339
  0.2775181913006476  0.8568009145239539  0.3738626990856653
  0.1884807811439317  0.7311812035322398  0.4485872010484396
  0.2082004539471946  0.7425486996731054  0.4808062846961408
  0.1884828332189191  0.7083864343194843  0.4807760330311722
  0.2081942030285421  0.7197151755921661  0.5191976363960634
  0.2329892143197277  0.7055028166078461  0.4787306977710146
  0.2329880279606477  0.7282961406639540  0.4465414669272036
  0.2577766916543427  0.7197191222825140  0.5191904287699780
  0.2774942427221863  0.7538804962870308  0.5192202347687425
  0.2577813617182056  0.7425523235791605  0.4808003590508411
  0.2972090339839267  0.7197151755921661  0.5191976363960634
  0.2774956120993164  0.7311812035322398  0.4485872010484396
  0.2774976641743037  0.7083864343194843  0.4807760330311722
  0.2972152849025791  0.7425486996731054  0.4808062846961408
  0.2329869959054704  0.7567655591553167  0.5212659688899779
  0.2082061773177727  0.7711753847106277  0.4465188685545251
  0.2330010222696884  0.7854309990610226  0.4807760330311722
  0.2329989701947008  0.8082257682737783  0.4485872010484396
  0.2527123920793114  0.7967597403337046  0.5191976363960634
  0.2527186429979640  0.8195932644146436  0.4808062846961408
  0.2527243663685419  0.8482199494521662  0.4465188685545251
  0.2775074033704967  0.7825473813493845  0.4787306977710146
  0.2775051849562395  0.8338101238968550  0.5212659688899779
  0.2775192113204574  0.8624755638025612  0.4807760330311722
  0.2775062170114169  0.8053407054054924  0.4465414669272036
  0.2972210082731574  0.7711753847106277  0.4465188685545251
  0.3665150629012667  0.6287497497386153  0.2606943942463993
  0.3862382406608497  0.7200066734644739  0.3011613328714481
  0.3417200516100805  0.6429621087229352  0.3011613328714481
  0.3022923793443594  0.6657992567099295  0.2627640555262259
  0.3220086818004575  0.6316333674502536  0.2627397295065569
  0.3220052603483398  0.6771274294178001  0.3011839312441269
  0.3468058983312657  0.7200106201548219  0.3011541252453627
  0.3665128444870089  0.6800124922860860  0.3032296653653624
  0.3468105683951286  0.7428438214514681  0.2627640555262259
  0.3665268708512267  0.7086779321917919  0.2627397295065569
  0.3467939240420350  0.6685504110363604  0.3738328930869010
  0.3862262663716190  0.6685464643460123  0.3738401007129865
  0.3220064467074202  0.6543341053616921  0.3333731620879377
  0.3417143282395024  0.6143354236854132  0.3354487490130640
  0.3219932860591091  0.6256672202993385  0.3738626990856653
  0.3665148965619960  0.6572177230733304  0.3354184973480950
  0.3665008701977780  0.6285522831676245  0.3759084332069008
  0.3862325172902716  0.6913799884269515  0.3354487490130640
  0.3467985941058979  0.6913836123330064  0.3354428233677643
  0.3665114751098787  0.7027117850408771  0.3738626990856653
  0.3220042282931627  0.7055968479091628  0.3759084332069008
  0.3665246357581894  0.7313786701032307  0.3333731620879377
  0.3220182546573807  0.7342622878148690  0.3354184973480950
  0.4307411334841176  0.6657956328038748  0.2627699811715255
  0.3913025402358812  0.6429660554132833  0.3011541252453627
  0.4555298938566510  0.6287497497386153  0.2606943942463993
  0.4110235127558425  0.6316333674502536  0.2627397295065569
  0.4307348825654650  0.6429621087229352  0.3011613328714481
  0.3913072102997441  0.6657992567099295  0.2627640555262259
  0.4358207292866504  0.7200106201548219  0.3011541252453627
  0.4110332519520357  0.7057943144801537  0.2606943942463993
  0.4555276754423933  0.6800124922860860  0.3032296653653624
  0.4110200913037248  0.6771274294178001  0.3011839312441269
  0.3862444915795023  0.7428401975454129  0.2627699811715255
  0.4555417018066115  0.7086779321917919  0.2627397295065569
  0.4358253993505133  0.7428438214514681  0.2627640555262259
  0.4555157011531628  0.6285522831676245  0.3759084332069008
  0.4110081170144939  0.6256672202993385  0.3738626990856653
  0.3912952360105132  0.6143390475914681  0.3354428233677643
  0.4307291591948871  0.6143354236854132  0.3354487490130640
  0.4555297275173805  0.6572177230733304  0.3354184973480950
  0.4110212776628047  0.6543341053616921  0.3333731620879377
  0.4358087549974196  0.6685504110363604  0.3738328930869010
  0.4358134250612825  0.6913836123330064  0.3354428233677643
  0.4110190592485472  0.7055968479091628  0.3759084332069008
  0.4555263060652633  0.7027117850408771  0.3738626990856653
  0.4555394667135740  0.7313786701032307  0.3333731620879377
  0.4110330856127652  0.7342622878148690  0.3354184973480950
  0.3220302289466114  0.7857224969333304  0.2627397295065569
  0.3665366100474203  0.7828388792216923  0.2606943942463993
  0.3665234493991092  0.7541719941593386  0.3011839312441269
  0.3220162025823933  0.7570570570276244  0.3032296653653624
  0.3023092564266506  0.7970551848963604  0.3011541252453627
  0.3417415987562344  0.7970512382060123  0.3011613328714481
  0.3417478496748868  0.8198847622869515  0.2627699811715255
  0.3665343916331625  0.8341016217691629  0.3032296653653624
  0.3023139264905135  0.8198883861930064  0.2627640555262259
  0.3220268074944939  0.8312165589008770  0.3011839312441269
  0.3665224173439317  0.7826414126507013  0.3759084332069008
  0.3220148332052632  0.7797563497824156  0.3738626990856653
  0.3023019522012824  0.7684281770745450  0.3354428233677643
  0.3417358753856558  0.7684245531684899  0.3354487490130640
  0.3417296244670034  0.7455910290875507  0.3738401007129865
  0.3022972821374197  0.7455949757778988  0.3738328930869010
  0.3220279938535738  0.8084232348447692  0.3333731620879377
  0.3665364437081499  0.8113068525564072  0.3354184973480950
  0.3862478135177727  0.8226355938290892  0.3738401007129865
  0.3665330222560324  0.8568009145239539  0.3738626990856653
  0.3468154711881889  0.8226395405194373  0.3738328930869010
  0.3468201412520516  0.8454727418160832  0.3354428233677643
  0.3862540644364255  0.8454691179100284  0.3354487490130640
  0.3220257754393165  0.8596859773922397  0.3759084332069008
  0.4555382803544940  0.7541719941593386  0.3011839312441269
  0.4555514410028049  0.7828388792216923  0.2606943942463993
  0.4307626806302715  0.8198847622869515  0.2627699811715255
  0.4110547990981893  0.8598834439632309  0.2606943942463993
  0.3913240873820351  0.7970551848963604  0.3011541252453627
  0.4110416384498782  0.8312165589008770  0.3011839312441269
  0.4110450599019959  0.7857224969333304  0.2627397295065569
  0.4307564297116191  0.7970512382060123  0.3011613328714481
  0.3913287574458978  0.8198883861930064  0.2627640555262259
  0.4110310335377781  0.7570570570276244  0.3032296653653624
  0.4555492225885476  0.8341016217691629  0.3032296653653624
  0.4307507063410408  0.7684245531684899  0.3354487490130640
  0.4307444554223880  0.7455910290875507  0.3738401007129865
  0.3913121130928042  0.7455949757778988  0.3738328930869010
  0.3913167831566671  0.7684281770745450  0.3354428233677643
  0.4555372482993164  0.7826414126507013  0.3759084332069008
  0.4110296641606475  0.7797563497824156  0.3738626990856653
  0.4110428248089587  0.8084232348447692  0.3333731620879377
  0.4555512746635344  0.8113068525564072  0.3354184973480950
  0.4358349722074363  0.8454727418160832  0.3354428233677643
  0.4358303021435737  0.8226395405194373  0.3738328930869010
  0.4555478532114170  0.8568009145239539  0.3738626990856653
  0.4110406063947011  0.8596859773922397  0.3759084332069008
  0.3467866198166672  0.6399234032145448  0.4081215912093027
  0.3220062803681497  0.6828020786964074  0.4080972651896339
  0.3467819497528043  0.6170902019178989  0.4465116609284394
  0.3417176501777730  0.6941308199690891  0.4465188685545251
  0.3417239010964258  0.7169643440500285  0.4081275168546026
  0.3220028589160323  0.7282961406639540  0.4465414669272036
  0.3665029222727649  0.6057575139548689  0.4080972651896339
  0.3664995008206478  0.6512515759224156  0.4465414669272036
  0.3862205430010407  0.6399197793084901  0.4081275168546026
  0.3862142920823881  0.6170862552275508  0.4465188685545251
  0.3665126614689585  0.6799184609847692  0.4060519299294760
  0.4358014507720517  0.6399234032145448  0.4081215912093027
  0.4555177532281499  0.6057575139548689  0.4080972651896339
  0.4357967807081886  0.6170902019178989  0.4465116609284394
  0.4555143317760324  0.6512515759224156  0.4465414669272036
  0.4555274924243433  0.6799184609847692  0.4060519299294760
  0.4110211113235343  0.6828020786964074  0.4080972651896339
  0.3913001388035735  0.6941347666594372  0.4465116609284394
  0.4307324811331573  0.6941308199690891  0.4465188685545251
  0.4307387320518101  0.7169643440500285  0.4081275168546026
  0.4110176898714171  0.7282961406639540  0.4465414669272036
  0.3913048088674364  0.7169679679560834  0.4081215912093027
  0.3665006871797278  0.6284582518663077  0.4787306977710146
  0.3417056758885423  0.6426706108506279  0.5191976363960634
  0.3219943060789190  0.6313418695779457  0.4807760330311722
  0.3417119268071946  0.6655041349315669  0.4808062846961408
  0.3219922540039315  0.6541366387907014  0.4485872010484396
  0.3219908846268016  0.6768359315454924  0.5192202347687425
  0.3664984687654703  0.6797209944137781  0.5212659688899779
  0.3467915226097272  0.7197191222825140  0.5191904287699780
  0.3220040452751124  0.7055028166078461  0.4787306977710146
  0.3665104430547007  0.7311812035322398  0.4485872010484396
  0.3665124951296883  0.7083864343194843  0.4807760330311722
  0.3862238649393113  0.7197151755921661  0.5191976363960634
  0.3912881645143426  0.6426745575409759  0.5191904287699780
  0.4307205068439268  0.6426706108506279  0.5191976363960634
  0.4110091370343036  0.6313418695779457  0.4807760330311722
  0.4555155181351123  0.6284582518663077  0.4787306977710146
  0.4307267577625794  0.6655041349315669  0.4808062846961408
  0.4110070849593163  0.6541366387907014  0.4485872010484396
  0.3912928345782055  0.6655077588376217  0.4808003590508411
  0.4110057155821861  0.6768359315454924  0.5192202347687425
  0.4555132997208550  0.6797209944137781  0.5212659688899779
  0.4110188762304970  0.7055028166078461  0.4787306977710146
  0.4555273260850728  0.7083864343194843  0.4807760330311722
  0.4555252740100855  0.7311812035322398  0.4485872010484396
  0.4358063535651116  0.7197191222825140  0.5191904287699780
  0.3665244694189192  0.7598466434379459  0.4080972651896339
  0.3665342086151126  0.8340075904678461  0.4060519299294760
  0.3220160195643432  0.7569630257263077  0.4060519299294760
  0.3220278275143034  0.8368912081794843  0.4080972651896339
  0.3468034968989577  0.7711793314009757  0.4465116609284394
  0.3417391973239269  0.8482199494521662  0.4465188685545251
  0.3023068549943426  0.8482238961425143  0.4465116609284394
  0.3468081669628209  0.7940125326976218  0.4081215912093027
  0.3220138011500856  0.8082257682737783  0.4485872010484396
  0.3220018268608549  0.7567655591553167  0.5212659688899779
  0.3467961926735904  0.7425523235791605  0.4808003590508411
  0.3862301158579639  0.7425486996731054  0.4808062846961408
  0.3665090736775708  0.7538804962870308  0.5192202347687425
  0.3220158532250729  0.7854309990610226  0.4807760330311722
  0.3665222343258817  0.7825473813493845  0.4787306977710146
  0.3417272230346959  0.7967597403337046  0.5191976363960634
  0.3022948807051119  0.7967636870240525  0.5191904287699780
  0.3022995507689748  0.8195968883206988  0.4808003590508411
  0.3417334739533483  0.8195932644146436  0.4808062846961408
  0.3220124317729555  0.8309250610285692  0.5192202347687425
  0.3665200159116239  0.8338101238968550  0.5212659688899779
  0.3220255924212663  0.8595919460909230  0.4787306977710146
  0.3665340422758421  0.8624755638025612  0.4807760330311722
  0.4358229979182056  0.7940125326976218  0.4081215912093027
  0.3862420901471944  0.7940089087915668  0.4081275168546026
  0.4358183278543427  0.7711793314009757  0.4465116609284394
  0.4555393003743037  0.7598466434379459  0.4080972651896339
  0.4110308505197277  0.7569630257263077  0.4060519299294760
  0.4555358789221858  0.8053407054054924  0.4465414669272036
  0.4110286321054704  0.8082257682737783  0.4485872010484396
  0.4110426584696882  0.8368912081794843  0.4080972651896339
  0.4555490395704971  0.8340075904678461  0.4060519299294760
  0.4307540282793114  0.8482199494521662  0.4465188685545251
  0.3913216859497272  0.8482238961425143  0.4465116609284394
  0.4358110236289747  0.7425523235791605  0.4808003590508411
  0.4110166578162395  0.7567655591553167  0.5212659688899779
  0.4555370652812662  0.7825473813493845  0.4787306977710146
  0.4555239046329556  0.7538804962870308  0.5192202347687425
  0.3913097116604965  0.7967636870240525  0.5191904287699780
  0.4307420539900805  0.7967597403337046  0.5191976363960634
  0.4307483049087333  0.8195932644146436  0.4808062846961408
  0.4555348468670087  0.8338101238968550  0.5212659688899779
  0.4110404233766509  0.8595919460909230  0.4787306977710146
  0.4110272627283396  0.8309250610285692  0.5192202347687425
  0.3468274454774198  0.8740997496378987  0.3011541252453627
  0.3862597878070036  0.8740958029475507  0.3011613328714481
  0.3665484179973808  0.8627670616748689  0.2627397295065569
  0.4358422764328042  0.8740997496378987  0.3011541252453627
  0.4555598275006477  0.9082611236424155  0.3011839312441269
  0.4555632489527651  0.8627670616748689  0.2627397295065569
  0.3220398018035345  0.8883514172979459  0.3354184973480950
  0.3220375667104970  0.9110521552093847  0.4060519299294760
  0.3417511716131573  0.8996801585706277  0.3738401007129865
  0.3665461829043431  0.8854677995863078  0.3333731620879377
  0.3665319902008548  0.8852703330153167  0.4485872010484396
  0.3023115250582057  0.8710570974391602  0.4081215912093027
  0.2527306172871946  0.8710534735331054  0.4081275168546026
  0.3417454482425792  0.8710534735331054  0.4081275168546026
  0.2775171592454703  0.8852703330153167  0.4485872010484396
  0.3220244060621862  0.8823852701470308  0.4465414669272036
  0.3468130697558812  0.8738082517655911  0.5191904287699780
  0.3468177398197441  0.8966414530622371  0.4808003590508411
  0.3665306208237247  0.9079696257701078  0.5192202347687425
  0.2972305811300806  0.8738043050752431  0.5191976363960634
  0.2972368320487332  0.8966378291561823  0.4808062846961408
  0.3220233740070088  0.9108546886383937  0.5212659688899779
  0.3468250440451121  0.9252684608840525  0.4465116609284394
  0.3665460165650731  0.9139357729210227  0.4080972651896339
  0.3665437814720355  0.9366365108324617  0.4787306977710146
  0.4307602791979640  0.8710534735331054  0.4081275168546026
  0.3913263560135903  0.8710570974391602  0.4081215912093027
  0.4110523976658818  0.9110521552093847  0.4060519299294760
  0.4110546327589188  0.8883514172979459  0.3354184973480950
  0.4555610138597279  0.8854677995863078  0.3333731620879377
  0.3913336602389581  0.8996841052609755  0.3738328930869010
  0.4307660025685421  0.8996801585706277  0.3738401007129865
  0.4555608475204576  0.9139357729210227  0.4080972651896339
  0.4110512113068016  0.9338454792654924  0.3738626990856653
  0.4307722534871947  0.9225136826515667  0.3354487490130640
  0.4555587954454705  0.9367305421337783  0.3759084332069008
  0.4555586124274201  0.9366365108324617  0.4787306977710146
  0.3862573863746959  0.9252645141937045  0.4465188685545251
  0.4358398750004966  0.9252684608840525  0.4465116609284394
  0.4110392370175707  0.8823852701470308  0.4465414669272036
  0.4110522313266113  0.9395201285440996  0.4807760330311722
  0.4358325707751288  0.8966414530622371  0.4808003590508411
  0.3862516630041177  0.8966378291561823  0.4808062846961408
  0.4358279007112657  0.8738082517655911  0.5191904287699780
  0.4555454517791092  0.9079696257701078  0.5192202347687425
  0.4110382049623933  0.9108546886383937  0.5212659688899779
  0.3862454120854649  0.8738043050752431  0.5191976363960634
  0.4307636011362344  0.9508488698167814  0.5191976363960634
  0.4802886526204967  0.3350792943194373  0.0831178217207471
  0.5197209949500805  0.3350753476290892  0.0831250293468327
  0.5445137878270089  0.3721257311922398  0.0851933618407472
  0.5000062036883403  0.3692406683239539  0.0831476277195115
  0.4752243530454652  0.4121199123706278  0.0831250293468327
  0.4752306039641177  0.4349534364515669  0.0447336776469103
  0.5248068416712659  0.4121238590609756  0.0831178217207471
  0.6335286187823936  0.3721257311922398  0.0851933618407472
  0.5890210346437248  0.3692406683239539  0.0831476277195115
  0.6087358259054650  0.3350753476290892  0.0831250293468327
  0.5693034835758815  0.3350792943194373  0.0831178217207471
  0.5642391840008499  0.4121199123706278  0.0831250293468327
  0.6138216726266507  0.4121238590609756  0.0831178217207471
  0.6532540149562343  0.4121199123706278  0.0831250293468327
  0.5000171459223933  0.4491702959337783  0.0851933618407472
  0.5445243927391092  0.4462852330654923  0.0831476277195115
  0.5197425420962346  0.4891644771121663  0.0831250293468327
  0.5445375533874203  0.4749521181278460  0.0426580907217838
  0.5000311722866115  0.4778357358394842  0.0447034259819415
  0.4803101997666508  0.4891684238025142  0.0831178217207471
  0.5000277508344941  0.5233297978070308  0.0831476277195115
  0.4803148698305132  0.5120016250991600  0.0447277520016107
  0.5197487930148870  0.5119980011931053  0.0447336776469103
  0.5000409114828047  0.5519966828693844  0.0426580907217838
  0.5445353349731625  0.5262148606753166  0.0851933618407472
  0.6335392236944940  0.4462852330654923  0.0831476277195115
  0.5890319768777781  0.4491702959337783  0.0851933618407472
  0.6087573730516191  0.4891644771121663  0.0831250293468327
  0.5693250307220349  0.4891684238025142  0.0831178217207471
  0.5693297007858981  0.5120016250991600  0.0447277520016107
  0.5890425817898784  0.5233297978070308  0.0831476277195115
  0.6335501659285473  0.5262148606753166  0.0851933618407472
  0.5248283888174200  0.5662129885440527  0.0831178217207471
  0.4752459001916188  0.5662090418537046  0.0831250293468327
  0.5445493613373807  0.5548803005810228  0.0447034259819415
  0.5445459398852631  0.6003743625485694  0.0831476277195115
  0.5000386930685472  0.6032594254168551  0.0851933618407472
  0.5197640892423883  0.6432536065952431  0.0831250293468327
  0.4803317469128042  0.6432575532855910  0.0831178217207471
  0.5642607311470034  0.5662090418537046  0.0831250293468327
  0.6138432197728041  0.5662129885440527  0.0831178217207471
  0.6335607708406477  0.6003743625485694  0.0831476277195115
  0.5890535240239317  0.6032594254168551  0.0851933618407472
  0.6087789201977728  0.6432536065952431  0.0831250293468327
  0.5693465778681890  0.6432575532855910  0.0831178217207471
  0.6780468078331628  0.4491702959337783  0.0851933618407472
  0.6583398616774196  0.4891684238025142  0.0831178217207471
  0.6977722040070035  0.4891644771121663  0.0831250293468327
  0.6780574127452632  0.5233297978070308  0.0831476277195115
  0.6532755621023884  0.5662090418537046  0.0831250293468327
  0.4999836244870087  0.2436209573322397  0.1578721296822855
  0.4802813483951289  0.3064522864976219  0.1174065198431490
  0.4802693741058975  0.2549920773791602  0.1900852876846875
  0.4802766783312655  0.2836190852009756  0.1557965895622855
  0.5197032972902714  0.2549884534731053  0.1900912133299871
  0.4999954157581892  0.2949871351493845  0.1880156264048606
  0.4999856765619956  0.2208261881194843  0.1900609616650183
  0.4999942293991093  0.3177804592054923  0.1558263955610500
  0.4999976508512265  0.2722863972379457  0.1173821938234798
  0.5197090206608498  0.2836151385106276  0.1558037971883711
  0.5197152715795024  0.3064486625915668  0.1174124454884485
  0.5890005075173804  0.2208261881194843  0.1900609616650183
  0.5444920576628048  0.2179425704078459  0.1880156264048606
  0.5444908713037242  0.2407358944639539  0.1558263955610500
  0.5889984554423935  0.2436209573322397  0.1578721296822855
  0.5692842050612823  0.2549920773791602  0.1900852876846875
  0.5692915092866503  0.2836190852009756  0.1557965895622855
  0.5445040319520353  0.2694027795263076  0.1153368585633223
  0.5692961793505132  0.3064522864976219  0.1174065198431490
  0.5445038656127653  0.2978707528610228  0.1900609616650183
  0.5196970463716188  0.2321549293921661  0.2284825650299098
  0.5247828930928042  0.3092034408240524  0.2284753574038241
  0.4802647040420351  0.2321588760825141  0.2284753574038241
  0.4752004044670037  0.3091994941337045  0.2284825650299098
  0.4999822551098781  0.2663202500870310  0.2285051634025885
  0.4751946810964254  0.2805728090961822  0.2627699811715255
  0.4999812230547010  0.2947896685783937  0.3032296653653624
  0.4999834414689588  0.2435269260309228  0.2606943942463993
  0.5247709188035734  0.2577432317055910  0.3011541252453627
  0.5247755888674362  0.2805764330022372  0.2627640555262259
  0.4751884301777728  0.2577392850152430  0.3011613328714481
  0.5889970860652629  0.2663202500870310  0.2285051634025885
  0.5642152354223885  0.3091994941337045  0.2284825650299098
  0.5444898392485470  0.2692053129553168  0.2305508975238240
  0.5692795349974198  0.2321588760825141  0.2284753574038241
  0.5889982724243431  0.2435269260309228  0.2606943942463993
  0.5445016305197276  0.3205714907724613  0.2606943942463993
  0.5444918913235344  0.2464105437425614  0.2627397295065569
  0.5642095120518097  0.2805728090961822  0.2627699811715255
  0.5444884698714169  0.2919046057101079  0.3011839312441269
  0.5642032611331576  0.2577392850152430  0.3011613328714481
  0.5444778649593162  0.2177451038368551  0.3032296653653624
  0.5889960540100854  0.2947896685783937  0.3032296653653624
  0.5445018135377779  0.3206655220737782  0.1578721296822855
  0.5642272097116188  0.3606597032521661  0.1558037971883711
  0.5000073900474202  0.3464473442678461  0.1153368585633223
  0.5642334606302716  0.3834932273331054  0.1174124454884485
  0.5445158399019959  0.3493309619794844  0.1173821938234798
  0.5247948673820352  0.3606636499425142  0.1557965895622855
  0.5247995374458977  0.3834968512391602  0.1174065198431490
  0.5445124184498785  0.3948250239470309  0.1558263955610500
  0.4752123787562345  0.3606597032521661  0.1558037971883711
  0.4752186296748870  0.3834932273331054  0.1174124454884485
  0.5000191979973806  0.4263755267210227  0.1173821938234798
  0.5445255790981894  0.4234919090093846  0.1153368585633223
  0.5000051716331626  0.3977100868153167  0.1578721296822855
  0.5000072237081502  0.3749153176025613  0.1900609616650183
  0.4752066553856561  0.3320330182146438  0.1900912133299871
  0.5247875631566672  0.3320366421206987  0.1900852876846875
  0.5445136048089585  0.3720316998909229  0.1880156264048606
  0.5642214863410406  0.3320330182146438  0.1900912133299871
  0.5197185935177729  0.3862440588752430  0.2284825650299098
  0.5693010821435734  0.3862480055655911  0.2284753574038241
  0.5197248444364251  0.4090775829561824  0.1900912133299871
  0.4802862511881890  0.3862480055655911  0.2284753574038241
  0.4802909212520516  0.4090812068622373  0.1900852876846875
  0.4802789469628211  0.3576209977437757  0.2627640555262259
  0.5197066192285420  0.3347838497567814  0.3011613328714481
  0.5197128701471946  0.3576173738377207  0.2627699811715255
  0.4802742768989582  0.3347877964471296  0.3011541252453627
  0.4999952494189188  0.3234551084841000  0.2627397295065569
  0.4999931973439319  0.3462498776968552  0.2305508975238240
  0.4999918279668016  0.3689491704516463  0.3011839312441269
  0.5000049886151124  0.3976160555139999  0.2606943942463993
  0.5000038022560322  0.4204093795701078  0.2285051634025885
  0.4752162282425793  0.4346619385792593  0.2627699811715255
  0.4752099773239265  0.4118284144983200  0.3011613328714481
  0.5692937779182057  0.3576209977437757  0.2627640555262259
  0.5692891078543426  0.3347877964471296  0.3011541252453627
  0.5445004441606478  0.3433648148285692  0.2285051634025885
  0.5890066589221861  0.3689491704516463  0.3011839312441269
  0.5444994121054703  0.3718342333199322  0.3032296653653624
  0.5445134384696887  0.4004996732256383  0.2627397295065569
  0.5247971360135901  0.4346655624853141  0.2627640555262259
  0.5642248082793111  0.4118284144983200  0.3011613328714481
  0.5445113863947012  0.4232944424383936  0.2305508975238240
  0.5642310591979638  0.4346619385792593  0.2627699811715255
  0.5890090603544939  0.3177804592054923  0.1558263955610500
  0.5890102467135740  0.2949871351493845  0.1880156264048606
  0.6087238516162341  0.2836151385106276  0.1558037971883711
  0.5890124818066113  0.2722863972379457  0.1173821938234798
  0.6087301025348869  0.3064486625915668  0.1174124454884485
  0.6335057022591090  0.2407358944639539  0.1558263955610500
  0.6335166444931627  0.3206655220737782  0.1578721296822855
  0.6335068886181892  0.2179425704078459  0.1880156264048606
  0.6335186965681496  0.2978707528610228  0.1900609616650183
  0.6780153384727647  0.2208261881194843  0.1900609616650183
  0.6582990360166671  0.2549920773791602  0.1900852876846875
  0.6977386825716189  0.2836151385106276  0.1558037971883711
  0.6583063402420350  0.2836190852009756  0.1557965895622855
  0.6780250776689584  0.2949871351493845  0.1880156264048606
  0.6583110103058978  0.3064522864976219  0.1174065198431490
  0.6780238913098786  0.3177804592054923  0.1558263955610500
  0.6087181282456562  0.2549884534731053  0.1900912133299871
  0.6977329592010405  0.2549884534731053  0.1900912133299871
  0.6582943659528042  0.2321588760825141  0.2284753574038241
  0.6087118773270036  0.2321549293921661  0.2284825650299098
  0.6977267082823879  0.2321549293921661  0.2284825650299098
  0.6780119170206477  0.2663202500870310  0.2285051634025885
  0.6335046702039319  0.2692053129553168  0.2305508975238240
  0.7028125550035734  0.3092034408240524  0.2284753574038241
  0.6532300663777728  0.3091994941337045  0.2284825650299098
  0.6137977240481890  0.3092034408240524  0.2284753574038241
  0.6334926959147009  0.2177451038368551  0.3032296653653624
  0.6137857497589582  0.2577432317055910  0.3011541252453627
  0.5890100803743036  0.3234551084841000  0.2627397295065569
  0.6137904198228210  0.2805764330022372  0.2627640555262259
  0.6335067222789191  0.2464105437425614  0.2627397295065569
  0.6335033008268016  0.2919046057101079  0.3011839312441269
  0.6335164614751123  0.3205714907724613  0.2606943942463993
  0.6532180920885420  0.2577392850152430  0.3011613328714481
  0.6532243430071946  0.2805728090961822  0.2627699811715255
  0.7028052507782053  0.2805764330022372  0.2627640555262259
  0.6780108849654701  0.2947896685783937  0.3032296653653624
  0.7028005807143425  0.2577432317055910  0.3011541252453627
  0.6780249113296883  0.3234551084841000  0.2627397295065569
  0.6780131033797283  0.2435269260309228  0.2606943942463993
  0.5890222210028048  0.3464473442678461  0.1153368585633223
  0.5890220546635345  0.3749153176025613  0.1900609616650183
  0.6087334244731573  0.3862440588752430  0.2284825650299098
  0.5890340289527652  0.4263755267210227  0.1173821938234798
  0.6138143684012825  0.3834968512391602  0.1174065198431490
  0.6335272494052628  0.3948250239470309  0.1558263955610500
  0.6138096983374195  0.3606636499425142  0.1557965895622855
  0.6138023941120517  0.3320366421206987  0.1900852876846875
  0.6335306708573808  0.3493309619794844  0.1173821938234798
  0.6335284357643430  0.3720316998909229  0.1880156264048606
  0.6532482915856563  0.3834932273331054  0.1174124454884485
  0.6532420406670033  0.3606597032521661  0.1558037971883711
  0.6780348335439319  0.3977100868153167  0.1578721296822855
  0.6780488599081500  0.4263755267210227  0.1173821938234798
  0.6335404100535742  0.4234919090093846  0.1153368585633223
  0.6780370519581893  0.3464473442678461  0.1153368585633223
  0.6780368856189193  0.3749153176025613  0.1900609616650183
  0.7028172250674365  0.3320366421206987  0.1900852876846875
  0.6977545063471946  0.4090775829561824  0.1900912133299871
  0.6583205831628209  0.4090812068622373  0.1900852876846875
  0.6977482554285422  0.3862440588752430  0.2284825650299098
  0.6583159130989583  0.3862480055655911  0.2284753574038241
  0.6532363172964256  0.3320330182146438  0.1900912133299871
  0.6087277011025791  0.3576173738377207  0.2627699811715255
  0.6335152751160323  0.3433648148285692  0.2285051634025885
  0.6087214501839269  0.3347838497567814  0.3011613328714481
  0.5890080282993163  0.3462498776968552  0.2305508975238240
  0.6335142430608550  0.3718342333199322  0.3032296653653624
  0.5890198195704974  0.3976160555139999  0.2606943942463993
  0.6335282694250730  0.4004996732256383  0.2627397295065569
  0.6532396392346961  0.4118284144983200  0.3011613328714481
  0.6138119669689747  0.4346655624853141  0.2627640555262259
  0.6335262173500857  0.4232944424383936  0.2305508975238240
  0.5890186332114170  0.4204093795701078  0.2285051634025885
  0.6138072969051123  0.4118323611886680  0.3011541252453627
  0.6780228592547011  0.3462498776968552  0.2305508975238240
  0.6583039388097274  0.3347877964471296  0.3011541252453627
  0.6977362811393112  0.3347838497567814  0.3011613328714481
  0.6583086088735900  0.3576209977437757  0.2627640555262259
  0.6977425320579640  0.3576173738377207  0.2627699811715255
  0.6780334641668013  0.4204093795701078  0.2285051634025885
  0.6780346505258815  0.3976160555139999  0.2606943942463993
  0.6780214898775709  0.3689491704516463  0.3011839312441269
  0.7028221278604966  0.4118323611886680  0.3011541252453627
  0.6532458901533487  0.4346619385792593  0.2627699811715255
  0.4751827068071945  0.2291125999777207  0.3354487490130640
  0.4999713008404578  0.2205346902471766  0.4080972651896339
  0.5196889215687333  0.2546969556007976  0.4081275168546026
  0.4999692487654697  0.2433294594599320  0.3759084332069008
  0.4802549983843593  0.2547005795068525  0.4081215912093027
  0.4999832751296883  0.2719948993656383  0.3354184973480950
  0.5196946449393112  0.2833236406383199  0.3738401007129865
  0.5197008958579633  0.3061571647192590  0.3354487490130640
  0.4999810400366506  0.2946956372770768  0.4060519299294760
  0.4802623026097273  0.2833275873286683  0.3738328930869010
  0.4802669726735902  0.3061607886253140  0.3354428233677643
  0.4999798536775704  0.3174889613331846  0.3738626990856653
  0.5247636145782058  0.2291162238837759  0.3354428233677643
  0.5444776819412661  0.2176510725355384  0.4060519299294760
  0.5641975377625793  0.2291125999777207  0.3354487490130640
  0.5889861317958421  0.2205346902471766  0.4080972651896339
  0.5444764955821860  0.2404443965916460  0.3738626990856653
  0.5889840797208549  0.2433294594599320  0.3759084332069008
  0.5692818036289750  0.3061607886253140  0.3354428233677643
  0.5692771335651117  0.2833275873286683  0.3738328930869010
  0.5444896562304971  0.2691112816539997  0.3333731620879377
  0.5444894898912266  0.2975792549887149  0.4080972651896339
  0.5692698293397441  0.2547005795068525  0.4081215912093027
  0.5196826706500802  0.2318634315198584  0.4465188685545251
  0.5247685173712656  0.3089119429517450  0.4465116609284394
  0.4751860287454647  0.3089079962613970  0.4465188685545251
  0.4802503283204964  0.2318673782102064  0.4465116609284394
  0.4999678793883399  0.2660287522147231  0.4465414669272036
  0.4999690657474201  0.2432354281586153  0.4787306977710146
  0.4999668473331624  0.2944981707060857  0.5212659688899779
  0.4751740544562337  0.2574477871429353  0.5191976363960634
  0.5641888854116189  0.2574477871429353  0.5191976363960634
  0.5889838967028049  0.2432354281586153  0.4787306977710146
  0.5692651592758812  0.2318673782102064  0.4465116609284394
  0.5444754635270088  0.2689138150830091  0.4485872010484396
  0.5641951363302715  0.2802813112238745  0.4808062846961408
  0.5889816782885466  0.2944981707060857  0.5212659688899779
  0.5642008597008494  0.3089079962613970  0.4465188685545251
  0.5444872547981894  0.3202799929001537  0.4787306977710146
  0.5445014641804575  0.3490394641071768  0.3354184973480950
  0.4999930143258815  0.3461558463955383  0.3333731620879377
  0.5444874378162393  0.3203740242014705  0.3759084332069008
  0.5642128339900804  0.3603682053798583  0.3738401007129865
  0.4752042539533486  0.3832017294607977  0.3354487490130640
  0.5247804916604966  0.3603721520702065  0.3738328930869010
  0.4751980030346960  0.3603682053798583  0.3738401007129865
  0.5247851617243594  0.3832053533668526  0.3354428233677643
  0.5642190849087332  0.3832017294607977  0.3354487490130640
  0.4999907959116242  0.3974185889430090  0.3759084332069008
  0.5444980427283401  0.3945335260747233  0.3738626990856653
  0.4802765455305134  0.4087897089899295  0.4081215912093027
  0.4802718754666501  0.3859565076932831  0.4465116609284394
  0.4751922796641176  0.3317415203423359  0.4081275168546026
  0.4999928479866111  0.3746238197302535  0.4080972651896339
  0.5197042177962343  0.3859525610029353  0.4465188685545251
  0.5197104687148871  0.4087860850838747  0.4081275168546026
  0.5247731874351286  0.3317451442483911  0.4081215912093027
  0.5444992290874198  0.3717402020186151  0.4060519299294760
  0.5642071106195025  0.3317415203423359  0.4081275168546026
  0.5692913764858980  0.4087897089899295  0.4081215912093027
  0.5692867064220348  0.3859565076932831  0.4465116609284394
  0.4999808736973806  0.3231636106117918  0.4807760330311722
  0.5196984944256560  0.3573258759654128  0.4808062846961408
  0.5196922435070034  0.3344923518844739  0.5191976363960634
  0.4802599011774196  0.3344962985748219  0.5191904287699780
  0.4999788216223933  0.3459583798245477  0.4485872010484396
  0.4802645712412825  0.3573294998714681  0.4808003590508411
  0.4999894265344941  0.4201178816978001  0.4465414669272036
  0.4751956016023883  0.4115369166260122  0.5191976363960634
  0.4999774522452631  0.3686576725793383  0.5192202347687425
  0.4752018525210409  0.4343704407069515  0.4808062846961408
  0.4999906128935738  0.3973245576416920  0.4787306977710146
  0.5692794021966673  0.3573294998714681  0.4808003590508411
  0.5444860684391092  0.3430733169562615  0.4465414669272036
  0.5889936525777780  0.3459583798245477  0.4485872010484396
  0.5692747321328043  0.3344962985748219  0.5191904287699780
  0.5889922832006474  0.3686576725793383  0.5192202347687425
  0.5444850363839315  0.3715427354476243  0.5212659688899779
  0.5444990627481499  0.4002081753533304  0.4807760330311722
  0.5642104325577726  0.4115369166260122  0.5191976363960634
  0.5642166834764254  0.4343704407069515  0.4808062846961408
  0.5444970106731627  0.4230029445660858  0.4485872010484396
  0.5247827602920517  0.4343740646130064  0.4808003590508411
  0.5247780902281888  0.4115408633163603  0.5191904287699780
  0.5889958709920353  0.2946956372770768  0.4060519299294760
  0.6137784455335901  0.2291162238837759  0.3354428233677643
  0.6334913265375708  0.2404443965916460  0.3738626990856653
  0.5889981060850726  0.2719948993656383  0.3354184973480950
  0.6087094758946959  0.2833236406383199  0.3738401007129865
  0.6087157268133485  0.3061571647192590  0.3354487490130640
  0.6335043208466113  0.2975792549887149  0.4080972651896339
  0.6334925128966509  0.2176510725355384  0.4060519299294760
  0.6335044871858814  0.2691112816539997  0.3333731620879377
  0.6532123687179641  0.2291125999777207  0.3354487490130640
  0.6582919645204964  0.2833275873286683  0.3738328930869010
  0.6582846602951284  0.2547005795068525  0.4081215912093027
  0.6582966345843593  0.3061607886253140  0.3354428233677643
  0.6779989106762396  0.2433294594599320  0.3759084332069008
  0.6977305577687333  0.3061571647192590  0.3354487490130640
  0.7027932764889745  0.2291162238837759  0.3354428233677643
  0.6780107019474202  0.2946956372770768  0.4060519299294760
  0.6780009627512265  0.2205346902471766  0.4080972651896339
  0.6780129370404574  0.2719948993656383  0.3354184973480950
  0.6977243068500802  0.2833236406383199  0.3738401007129865
  0.6137953226158809  0.3603721520702065  0.3738328930869010
  0.5889946846329552  0.3174889613331846  0.3738626990856653
  0.6335162951358418  0.3490394641071768  0.3354184973480950
  0.6335022687716241  0.3203740242014705  0.3759084332069008
  0.6137880183905133  0.3317451442483911  0.4081215912093027
  0.5890078452812663  0.3461558463955383  0.3333731620879377
  0.6335140600428046  0.3717402020186151  0.4060519299294760
  0.5890076789419958  0.3746238197302535  0.4080972651896339
  0.6137999926797437  0.3832053533668526  0.3354428233677643
  0.5890056268670087  0.3974185889430090  0.3759084332069008
  0.6335128736837249  0.3945335260747233  0.3738626990856653
  0.5890196532312267  0.4260840288487152  0.3354184973480950
  0.6780226762366506  0.3461558463955383  0.3333731620879377
  0.6780095155883400  0.3174889613331846  0.3738626990856653
  0.7028028493458977  0.3317451442483911  0.4081215912093027
  0.6532339158641177  0.3832017294607977  0.3354487490130640
  0.7028101535712656  0.3603721520702065  0.3738328930869010
  0.6780225098973806  0.3746238197302535  0.4080972651896339
  0.6532276649454651  0.3603682053798583  0.3738401007129865
  0.7028148236351286  0.3832053533668526  0.3354428233677643
  0.6780204578223937  0.3974185889430090  0.3759084332069008
  0.6583062074412828  0.4087897089899295  0.4081215912093027
  0.6780344841866113  0.4260840288487152  0.3354184973480950
  0.6335260343320355  0.4232004111370768  0.3333731620879377
  0.6779975412991091  0.2660287522147231  0.4465414669272036
  0.6977185834795023  0.2546969556007976  0.4081275168546026
  0.6087037525241180  0.2546969556007976  0.4081275168546026
  0.6532219415748868  0.3317415203423359  0.4081275168546026
  0.6582799902312659  0.2318673782102064  0.4465116609284394
  0.6977123325608497  0.2318634315198584  0.4465188685545251
  0.7027981792820351  0.3089119429517450  0.4465116609284394
  0.6137833483266499  0.3089119429517450  0.4465116609284394
  0.6532156906562342  0.3089079962613970  0.4465188685545251
  0.6779987276581892  0.2432354281586153  0.4787306977710146
  0.6137713740374194  0.2574517338332833  0.5191904287699780
  0.7027862049928042  0.2574517338332833  0.5191904287699780
  0.6532037163670037  0.2574477871429353  0.5191976363960634
  0.6532099672856563  0.2802813112238745  0.4808062846961408
  0.6137760441012824  0.2802849351299295  0.4808003590508411
  0.5889957046527654  0.3231636106117918  0.4807760330311722
  0.6780105356081497  0.3231636106117918  0.4807760330311722
  0.6335020857535741  0.3202799929001537  0.4787306977710146
  0.7027908750566672  0.2802849351299295  0.4808003590508411
  0.6779965092439318  0.2944981707060857  0.5212659688899779
  0.5890042574898786  0.4201178816978001  0.4465414669272036
  0.6087252996702719  0.4087860850838747  0.4081275168546026
  0.6087190487516191  0.3859525610029353  0.4465188685545251
  0.6335008993944935  0.3430733169562615  0.4465414669272036
  0.6335118416285472  0.4230029445660858  0.4485872010484396
  0.6780084835331623  0.3459583798245477  0.4485872010484396
  0.6780190884452632  0.4201178816978001  0.4465414669272036
  0.6583015373774191  0.3859565076932831  0.4465116609284394
  0.6977338797070038  0.3859525610029353  0.4465188685545251
  0.6977401306256564  0.4087860850838747  0.4081275168546026
  0.6334998673393163  0.3715427354476243  0.5212659688899779
  0.5890054438489586  0.3973245576416920  0.4787306977710146
  0.6087070744623881  0.3344923518844739  0.5191976363960634
  0.6137975912474365  0.4343740646130064  0.4808003590508411
  0.6137929211835735  0.4115408633163603  0.5191904287699780
  0.6087133253810407  0.3573258759654128  0.4808062846961408
  0.6532315144318099  0.4343704407069515  0.4808062846961408
  0.6532252635131574  0.4115369166260122  0.5191976363960634
  0.6335138937035342  0.4002081753533304  0.4807760330311722
  0.6582895630881886  0.3344962985748219  0.5191904287699780
  0.6582942331520516  0.3573294998714681  0.4808003590508411
  0.6780071141560322  0.3686576725793383  0.5192202347687425
  0.6780202748043429  0.3973245576416920  0.4787306977710146
  0.7028124222028213  0.4343740646130064  0.4808003590508411
  0.6977281563364255  0.3573258759654128  0.4808062846961408
  0.6977219054177729  0.3344923518844739  0.5191976363960634
  0.5197305678070037  0.4377042679937047  0.1558037971883711
  0.4803028955412825  0.4605414159806988  0.1174065198431490
  0.5197368187256562  0.4605377920746438  0.1174124454884485
  0.5000169629043434  0.4490762646324615  0.1880156264048606
  0.4802982254774196  0.4377082146840526  0.1557965895622855
  0.5000157765452632  0.4718695886885694  0.1558263955610500
  0.4752282025318100  0.4861221476977207  0.1900912133299871
  0.4752339259023883  0.5147488327352432  0.1558037971883711
  0.5000287708543036  0.5290044470856382  0.1900609616650183
  0.4752401768210409  0.5375823568161823  0.1174124454884485
  0.5000289371935739  0.5005364737509230  0.1153368585633223
  0.5248164145281891  0.5147527794255911  0.1557965895622855
  0.5248091103028211  0.4861257716037757  0.1900852876846875
  0.5248210845920518  0.5375859807222372  0.1174065198431490
  0.5642487568577729  0.5147488327352432  0.1558037971883711
  0.5445373870481499  0.5034200914625613  0.1173821938234798
  0.5642550077764255  0.5375823568161823  0.1174124454884485
  0.5693130564328042  0.4377082146840526  0.1557965895622855
  0.5693177264966676  0.4605414159806988  0.1174065198431490
  0.5890306075006480  0.4718695886885694  0.1558263955610500
  0.5445233606839318  0.4747546515568552  0.1578721296822855
  0.5445254127589194  0.4519598823440997  0.1900609616650183
  0.5642430334871950  0.4861221476977207  0.1900912133299871
  0.5890317938597277  0.4490762646324615  0.1880156264048606
  0.5445351519551124  0.5261208293739998  0.1880156264048606
  0.4752219516131574  0.4632886236167815  0.2284825650299098
  0.5197281663746960  0.4888729792398585  0.3011613328714481
  0.5000167965650729  0.4775442379671765  0.2627397295065569
  0.5248044402389581  0.4632925703071296  0.2284753574038241
  0.4802958240451121  0.4888769259302065  0.3011541252453627
  0.5197344172933485  0.5117065033207977  0.2627699811715255
  0.4803004941089748  0.5117101272268527  0.2627640555262259
  0.5000147444900858  0.5003390071799321  0.2305508975238240
  0.5000133751129556  0.5230382999347234  0.3011839312441269
  0.5445100170175707  0.4459937351931848  0.3011839312441269
  0.5890176011562395  0.4488787980614706  0.3032296653653624
  0.5642367825685419  0.4632886236167815  0.2284825650299098
  0.5445231776658817  0.4746606202555383  0.2606943942463993
  0.5693106550004969  0.4888769259302065  0.3011541252453627
  0.5890282060683403  0.5230382999347234  0.3011839312441269
  0.5445209592516241  0.5259233628030091  0.3032296653653624
  0.5197463915825794  0.5631667124392593  0.1900912133299871
  0.4803124683982057  0.5631703363453141  0.1900852876846875
  0.5000267187793165  0.5517992162983936  0.1578721296822855
  0.5693272993535903  0.5631703363453141  0.1900852876846875
  0.5445339655960324  0.5489141534301080  0.1558263955610500
  0.5693346035789583  0.5917973441671297  0.1557965895622855
  0.5197521149531573  0.5917933974767815  0.1558037971883711
  0.5000407451435346  0.5804646562040996  0.1173821938234798
  0.5445471262443433  0.5775810384924613  0.1153368585633223
  0.4803197726235737  0.5917973441671297  0.1557965895622855
  0.5000385100504970  0.6031653941155384  0.1880156264048606
  0.5000373236914168  0.6259587181716461  0.1558263955610500
  0.5693392736428210  0.6146305454637756  0.1174065198431490
  0.5445469599050731  0.6060490118271767  0.1900609616650183
  0.4752497496779639  0.6402112771807977  0.1900912133299871
  0.5445449078300855  0.6288437810399320  0.1578721296822855
  0.5197583658718101  0.6146269215577207  0.1174124454884485
  0.4803244426874366  0.6146305454637756  0.1174065198431490
  0.5642645806333484  0.6402112771807977  0.1900912133299871
  0.5248306574489749  0.6402149010868526  0.1900852876846875
  0.5000504843397282  0.6546256032339999  0.1153368585633223
  0.4752377753887332  0.5887510680623360  0.2627699811715255
  0.4752315244700804  0.5659175439813970  0.3011613328714481
  0.5000265357612663  0.5517051849970769  0.2606943942463993
  0.5000253494021857  0.5744985090531848  0.2285051634025885
  0.4803077983343426  0.5403371350486681  0.2284753574038241
  0.5197401406639268  0.5403331883583200  0.2284825650299098
  0.5248140130958814  0.5659214906717449  0.3011541252453627
  0.5248186831597440  0.5887546919683911  0.2627640555262259
  0.5445329335408549  0.5773835719214705  0.2305508975238240
  0.5445349856158421  0.5545888027087149  0.2627397295065569
  0.5642526063441178  0.5887510680623360  0.2627699811715255
  0.5642463554254654  0.5659175439813970  0.3011613328714481
  0.5693226292897270  0.5403371350486681  0.2284753574038241
  0.5000383437112268  0.6316333674502536  0.2627397295065569
  0.5000362916362397  0.6544281366630090  0.2305508975238240
  0.4803173711912656  0.6429660554132833  0.3011541252453627
  0.5000243173470090  0.6029679275445474  0.3032296653653624
  0.4752434987593111  0.6173777530998583  0.2284825650299098
  0.5197497135208499  0.6429621087229352  0.3011613328714481
  0.5445315641637247  0.6000828646762617  0.3011839312441269
  0.5248259873851119  0.6173816997902065  0.2284753574038241
  0.5642583297146956  0.6173777530998583  0.2284825650299098
  0.5693322021466506  0.6429660554132833  0.3011541252453627
  0.5445435384529556  0.6515430737947232  0.2285051634025885
  0.5445447248120355  0.6287497497386153  0.2606943942463993
  0.6138312454835736  0.5147527794255911  0.1557965895622855
  0.5890436018096886  0.5290044470856382  0.1900609616650183
  0.6138239412582061  0.4861257716037757  0.1900852876846875
  0.6087516496810408  0.4605377920746438  0.1174124454884485
  0.5890437681489584  0.5005364737509230  0.1153368585633223
  0.6138359155474366  0.5375859807222372  0.1174065198431490
  0.6335402437143037  0.4519598823440997  0.1900609616650183
  0.6335381916393164  0.4747546515568552  0.1578721296822855
  0.6335487965514172  0.5489141534301080  0.1558263955610500
  0.6335499829104969  0.5261208293739998  0.1880156264048606
  0.6335522180035345  0.5034200914625613  0.1173821938234798
  0.6977664806364255  0.4605377920746438  0.1174124454884485
  0.6977602297177727  0.4377042679937047  0.1558037971883711
  0.6780466248151122  0.4490762646324615  0.1880156264048606
  0.6583278873881889  0.4377082146840526  0.1557965895622855
  0.6583325574520519  0.4605414159806988  0.1174065198431490
  0.6780454384560323  0.4718695886885694  0.1558263955610500
  0.6532578644425795  0.4861221476977207  0.1900912133299871
  0.6780585991043430  0.5005364737509230  0.1153368585633223
  0.6780584327650729  0.5290044470856382  0.1900609616650183
  0.6532698387318100  0.5375823568161823  0.1174124454884485
  0.6532635878131574  0.5147488327352432  0.1558037971883711
  0.6335368222621862  0.4974539443116461  0.2285051634025885
  0.6532516135239269  0.4632886236167815  0.2284825650299098
  0.6138192711943428  0.4632925703071296  0.2284753574038241
  0.6335380086212666  0.4746606202555383  0.2606943942463993
  0.6780464584758420  0.4775442379671765  0.2627397295065569
  0.6780324321116242  0.4488787980614706  0.3032296653653624
  0.6335248479729554  0.4459937351931848  0.3011839312441269
  0.6087429973300805  0.4888729792398585  0.3011613328714481
  0.6977578282854653  0.4888729792398585  0.3011613328714481
  0.6583254859558815  0.4888769259302065  0.3011541252453627
  0.6087549716193114  0.5403331883583200  0.2284825650299098
  0.6087492482487331  0.5117065033207977  0.2627699811715255
  0.6335357902070087  0.5259233628030091  0.3032296653653624
  0.5890413667166511  0.5517051849970769  0.2606943942463993
  0.6583374602451120  0.5403371350486681  0.2284753574038241
  0.6583301560197443  0.5117101272268527  0.2627640555262259
  0.6780430370237248  0.5230382999347234  0.3011839312441269
  0.6780444064008549  0.5003390071799321  0.2305508975238240
  0.6977698025746962  0.5403331883583200  0.2284825650299098
  0.6780561976720358  0.5517051849970769  0.2606943942463993
  0.6977640792041176  0.5117065033207977  0.2627699811715255
  0.6087731968271947  0.6146269215577207  0.1174124454884485
  0.6087669459085421  0.5917933974767815  0.1558037971883711
  0.5890521546468016  0.6259587181716461  0.1558263955610500
  0.5890555760989191  0.5804646562040996  0.1173821938234798
  0.6335619571997279  0.5775810384924613  0.1153368585633223
  0.5890653152951125  0.6546256032339999  0.1153368585633223
  0.5890415497347010  0.5517992162983936  0.1578721296822855
  0.6335597387854701  0.6288437810399320  0.1578721296822855
  0.6335617908604578  0.6060490118271767  0.1900609616650183
  0.5890533410058818  0.6031653941155384  0.1880156264048606
  0.6087612225379642  0.5631667124392593  0.1900912133299871
  0.6138454884043595  0.6402149010868526  0.1900852876846875
  0.6583494345343428  0.5917973441671297  0.1557965895622855
  0.6977760534933485  0.5631667124392593  0.1900912133299871
  0.6780704070543037  0.5804646562040996  0.1173821938234798
  0.6583421303089748  0.5631703363453141  0.1900852876846875
  0.6780563806900857  0.5517992162983936  0.1578721296822855
  0.6977817768639264  0.5917933974767815  0.1558037971883711
  0.6780681719612663  0.6031653941155384  0.1880156264048606
  0.6977880277825792  0.6146269215577207  0.1174124454884485
  0.6583541045982058  0.6146305454637756  0.1174065198431490
  0.6780669856021864  0.6259587181716461  0.1558263955610500
  0.6532794115887334  0.6402112771807977  0.1900912133299871
  0.6780801462504971  0.6546256032339999  0.1153368585633223
  0.5890401803575709  0.5744985090531848  0.2285051634025885
  0.6138288440512661  0.5659214906717449  0.3011541252453627
  0.6335498165712271  0.5545888027087149  0.2627397295065569
  0.6138335141151285  0.5887546919683911  0.2627640555262259
  0.6335477644962396  0.5773835719214705  0.2305508975238240
  0.6335463951191095  0.6000828646762617  0.3011839312441269
  0.5890391483023933  0.6029679275445474  0.3032296653653624
  0.6138408183404966  0.6173816997902065  0.2284753574038241
  0.5890531746666113  0.6316333674502536  0.2627397295065569
  0.5890511225916238  0.6544281366630090  0.2305508975238240
  0.6087645444762342  0.6429621087229352  0.3011613328714481
  0.6532611863808497  0.5659175439813970  0.3011613328714481
  0.6532731606700807  0.6173777530998583  0.2284825650299098
  0.6780539792577779  0.6029679275445474  0.3032296653653624
  0.6780550113129554  0.5744985090531848  0.2285051634025885
  0.6532674372995023  0.5887510680623360  0.2627699811715255
  0.6335595557674203  0.6287497497386153  0.2606943942463993
  0.6780680056219959  0.6316333674502536  0.2627397295065569
  0.6583470331020354  0.6429660554132833  0.3011541252453627
  0.6977793754316187  0.6429621087229352  0.3011613328714481
  0.6780659535470086  0.6544281366630090  0.2305508975238240
  0.6335583694083399  0.6515430737947232  0.2285051634025885
  0.4752258010995022  0.5372908589438746  0.3354487490130640
  0.4752138268102716  0.4858306498254131  0.4081275168546026
  0.4752195501808494  0.5144573348629354  0.3738401007129865
  0.5000014008237246  0.4715780908162617  0.3738626990856653
  0.4802838497558815  0.4374167168117449  0.3738328930869010
  0.4802885198197439  0.4602499181083911  0.3354428233677643
  0.5247947345812827  0.4858342737314679  0.4081215912093027
  0.5000025871828047  0.4487847667601537  0.4060519299294760
  0.5000143951327654  0.5287129492133305  0.4080972651896339
  0.5000145614720356  0.5002449758786153  0.3333731620879377
  0.5197161920854650  0.4374127701213969  0.3738401007129865
  0.5890162317791096  0.4715780908162617  0.3738626990856653
  0.5693033507751286  0.4602499181083911  0.3354428233677643
  0.5890174181381894  0.4487847667601537  0.4060519299294760
  0.5445110370373807  0.4516683844717920  0.4080972651896339
  0.5692986807112660  0.4374167168117449  0.3738328930869010
  0.5445089849623934  0.4744631536845475  0.3759084332069008
  0.5642286577656561  0.4858306498254131  0.4081275168546026
  0.5445230113266114  0.5031285935902536  0.3354184973480950
  0.5642343811362345  0.5144573348629354  0.3738401007129865
  0.5248020388066507  0.5144612815532834  0.3738328930869010
  0.5642406320548871  0.5372908589438746  0.3354487490130640
  0.5445207762335740  0.5258293315016924  0.4060519299294760
  0.5000263694219961  0.5801731583317918  0.3354184973480950
  0.5445195898744940  0.5486226555578001  0.3738626990856653
  0.5000123430577779  0.5515077184260859  0.3759084332069008
  0.5197320158610408  0.5628752145669516  0.4081275168546026
  0.4802980926766671  0.5628788384730063  0.4081215912093027
  0.5248067088705131  0.5372944828499295  0.3354428233677643
  0.5445327505228048  0.5772895406201539  0.3333731620879377
  0.5197377392316189  0.5915018996044737  0.3738401007129865
  0.4803053969020349  0.5915058462948219  0.3738328930869010
  0.5000361086181893  0.6543341053616921  0.3333731620879377
  0.4752353739564255  0.6399197793084901  0.4081275168546026
  0.5000229479698787  0.6256672202993385  0.3738626990856653
  0.4803100669658980  0.6143390475914681  0.3354428233677643
  0.5000241343289585  0.6028738962432307  0.4060519299294760
  0.5197439901502715  0.6143354236854132  0.3354487490130640
  0.5445305321085471  0.6285522831676245  0.3759084332069008
  0.5248162817274363  0.6399234032145448  0.4081215912093027
  0.5445325841835341  0.6057575139548689  0.4080972651896339
  0.5693248979212824  0.6143390475914681  0.3354428233677643
  0.5642502049118100  0.6399197793084901  0.4081275168546026
  0.5197137906531575  0.4885814813675508  0.5191976363960634
  0.5000024208435345  0.4772527400948690  0.4807760330311722
  0.4999883944793163  0.4485873001891629  0.5212659688899779
  0.4752075758916192  0.4629971257444739  0.4465188685545251
  0.5247900645174199  0.4630010724348219  0.4465116609284394
  0.4802814483235735  0.4885854280578988  0.5191904287699780
  0.5197200415718101  0.5114150054484899  0.4808062846961408
  0.5000003687685471  0.5000475093076244  0.4485872010484396
  0.4802861183874363  0.5114186293545450  0.4808003590508411
  0.5197257649423884  0.5400416904860122  0.4465188685545251
  0.4999989993914168  0.5227468020624154  0.5192202347687425
  0.4802934226128042  0.5400456371763603  0.4465116609284394
  0.5693082535681889  0.5400456371763603  0.4465116609284394
  0.5890151997239317  0.5000475093076244  0.4485872010484396
  0.5642224068470035  0.4629971257444739  0.4465188685545251
  0.5445076155852628  0.4971624464393387  0.4465414669272036
  0.5445088019443430  0.4743691223832307  0.4787306977710146
  0.5890172517989191  0.4772527400948690  0.4807760330311722
  0.5693009493428209  0.5114186293545450  0.4808003590508411
  0.5692962792789580  0.4885854280578988  0.5191904287699780
  0.5890138303468015  0.5227468020624154  0.5192202347687425
  0.5445065835300856  0.5256318649307012  0.5212659688899779
  0.5444956412960323  0.4457022373208770  0.5192202347687425
  0.5890032254347010  0.4485873001891629  0.5212659688899779
  0.4752291230377726  0.6170862552275508  0.4465188685545251
  0.5000109736806477  0.5742070111808770  0.4465414669272036
  0.5000219159147010  0.6541366387907014  0.4485872010484396
  0.5000121600397279  0.5514136871247691  0.4787306977710146
  0.5000239679896884  0.6313418695779457  0.4807760330311722
  0.4752233996671945  0.5884595701900285  0.4808062846961408
  0.5197353377993114  0.6426706108506279  0.5191976363960634
  0.4803029954697276  0.6426745575409759  0.5191904287699780
  0.5247996373743424  0.5656299927994372  0.5191904287699780
  0.5000099416254701  0.6026764296722398  0.5212659688899779
  0.4752171487485422  0.5656260461090892  0.5191976363960634
  0.5642319797039269  0.5656260461090892  0.5191976363960634
  0.5890258046360320  0.5742070111808770  0.4465414669272036
  0.5445206098943035  0.5542973048364074  0.4807760330311722
  0.5248043074382056  0.5884631940960834  0.4808003590508411
  0.5642382306225793  0.5884595701900285  0.4808062846961408
  0.5445185578193164  0.5770920740491630  0.4485872010484396
  0.5445171884421862  0.5997913668039538  0.5192202347687425
  0.5890247725808547  0.6026764296722398  0.5212659688899779
  0.5642439539931574  0.6170862552275508  0.4465188685545251
  0.5445291627314169  0.6512515759224156  0.4465414669272036
  0.5693178264251116  0.6426745575409759  0.5191904287699780
  0.5445303490904971  0.6284582518663077  0.4787306977710146
  0.5248116116635734  0.6170902019178989  0.4465116609284394
  0.6335258679927654  0.4516683844717920  0.4080972651896339
  0.6087310230408496  0.4374127701213969  0.3738401007129865
  0.6138095655366672  0.4858342737314679  0.4081215912093027
  0.6335238159177780  0.4744631536845475  0.3759084332069008
  0.6087372739595024  0.4602462942023362  0.3354487490130640
  0.5890293924274201  0.5002449758786153  0.3333731620879377
  0.6335378422819962  0.5031285935902536  0.3354184973480950
  0.6532492120916190  0.5144573348629354  0.3738401007129865
  0.6138168697620352  0.5144612815532834  0.3738328930869010
  0.6335356071889587  0.5258293315016924  0.4060519299294760
  0.5890292260881499  0.5287129492133305  0.4080972651896339
  0.6138215398258979  0.5372944828499295  0.3354428233677643
  0.6335344208298785  0.5486226555578001  0.3738626990856653
  0.6977521049148869  0.4602462942023362  0.3354487490130640
  0.6977458539962341  0.4374127701213969  0.3738401007129865
  0.6583135116666505  0.4374167168117449  0.3738328930869010
  0.6780322490935743  0.4487847667601537  0.4060519299294760
  0.6583181817305133  0.4602499181083911  0.3354428233677643
  0.6780310627344941  0.4715780908162617  0.3738626990856653
  0.6780442233828047  0.5002449758786153  0.3333731620879377
  0.6780440570435345  0.5287129492133305  0.4080972651896339
  0.6532554630102714  0.5372908589438746  0.3354487490130640
  0.6335224465406478  0.4971624464393387  0.4465414669272036
  0.6138048954728045  0.4630010724348219  0.4465116609284394
  0.6087405958977727  0.5400416904860122  0.4465188685545251
  0.6532372378023883  0.4629971257444739  0.4465188685545251
  0.6532434887210411  0.4858306498254131  0.4081275168546026
  0.6583230845235732  0.5400456371763603  0.4465116609284394
  0.6780300306793162  0.5000475093076244  0.4485872010484396
  0.7028197264281890  0.4630010724348219  0.4465116609284394
  0.6977554268531575  0.5400416904860122  0.4465188685545251
  0.6335236328997278  0.4743691223832307  0.4787306977710146
  0.6780180563900856  0.4485873001891629  0.5212659688899779
  0.6335104722514171  0.4457022373208770  0.5192202347687425
  0.6977434525639266  0.4885814813675508  0.5191976363960634
  0.6087286216085418  0.4885814813675508  0.5191976363960634
  0.6780320827543040  0.4772527400948690  0.4807760330311722
  0.6583111102343427  0.4885854280578988  0.5191904287699780
  0.6087348725271946  0.5114150054484899  0.4808062846961408
  0.6977497034825796  0.5114150054484899  0.4808062846961408
  0.6780418219504970  0.5514136871247691  0.4787306977710146
  0.6780286613021863  0.5227468020624154  0.5192202347687425
  0.6583157802982057  0.5114186293545450  0.4808003590508411
  0.5890269909951122  0.5514136871247691  0.4787306977710146
  0.6138311126828211  0.6399234032145448  0.4081215912093027
  0.5890412003773806  0.5801731583317918  0.3354184973480950
  0.5890271740131628  0.5515077184260859  0.3759084332069008
  0.5890509395735740  0.6543341053616921  0.3333731620879377
  0.5890377789252632  0.6256672202993385  0.3738626990856653
  0.6087588211056563  0.6143354236854132  0.3354487490130640
  0.6335475814781893  0.5772895406201539  0.3333731620879377
  0.6335453630639318  0.6285522831676245  0.3759084332069008
  0.6335474151389192  0.6057575139548689  0.4080972651896339
  0.6583277545874364  0.5628788384730063  0.4081215912093027
  0.6583397288766671  0.6143390475914681  0.3354428233677643
  0.6583350588128042  0.5915058462948219  0.3738328930869010
  0.6780420049685472  0.5515077184260859  0.3759084332069008
  0.6780526098806477  0.6256672202993385  0.3738626990856653
  0.6780537962397279  0.6028738962432307  0.4060519299294760
  0.6780560313327652  0.5801731583317918  0.3354184973480950
  0.6977674011423882  0.5915018996044737  0.3738401007129865
  0.6977736520610408  0.6143354236854132  0.3354487490130640
  0.6780657705289587  0.6543341053616921  0.3333731620879377
  0.5890367468700856  0.6541366387907014  0.4485872010484396
  0.6087468468164253  0.5628752145669516  0.4081275168546026
  0.6138264426189584  0.6170902019178989  0.4465116609284394
  0.6335439936868017  0.6512515759224156  0.4465414669272036
  0.6335333887747011  0.5770920740491630  0.4485872010484396
  0.6532587849485422  0.6170862552275508  0.4465188685545251
  0.6532650358671948  0.6399197793084901  0.4081275168546026
  0.6780406355914170  0.5742070111808770  0.4465414669272036
  0.6780515778254701  0.6541366387907014  0.4485872010484396
  0.6977616777718103  0.5628752145669516  0.4081275168546026
  0.6335320193975708  0.5997913668039538  0.5192202347687425
  0.6087501687546961  0.6426706108506279  0.5191976363960634
  0.5890387989450727  0.6313418695779457  0.4807760330311722
  0.6138191383935901  0.5884631940960834  0.4808003590508411
  0.6335354408496883  0.5542973048364074  0.4807760330311722
  0.6335451800458815  0.6284582518663077  0.4787306977710146
  0.6583326573804963  0.6426745575409759  0.5191904287699780
  0.6977649997100804  0.6426706108506279  0.5191976363960634
  0.6532530615779638  0.5884595701900285  0.4808062846961408
  0.6780536299004579  0.6313418695779457  0.4807760330311722
  0.6780396035362397  0.6026764296722398  0.5212659688899779
  0.7225335275235339  0.2978707528610228  0.1900609616650183
  0.7670399086243427  0.2949871351493845  0.1880156264048606
  0.7670279343351126  0.2435269260309228  0.2606943942463993
  0.7225075268700857  0.2177451038368551  0.3032296653653624
  0.7473091969081885  0.2321588760825141  0.2284753574038241
  0.7225215532343039  0.2464105437425614  0.2627397295065569
  0.7670267479760320  0.2663202500870310  0.2285051634025885
  0.7422329230439263  0.2577392850152430  0.3011613328714481
  0.7225195011593162  0.2692053129553168  0.2305508975238240
  0.7225181317821860  0.2919046057101079  0.3011839312441269
  0.7670257159208549  0.2947896685783937  0.3032296653653624
  0.7422391739625793  0.2805728090961822  0.2627699811715255
  0.7422448973331576  0.3091994941337045  0.2284825650299098
  0.7225312924304971  0.3205714907724613  0.2606943942463993
  0.8312477539993111  0.2577392850152430  0.3011613328714481
  0.7918154116697272  0.2577432317055910  0.3011541252453627
  0.7918200817335901  0.2805764330022372  0.2627640555262259
  0.8115329627375708  0.2919046057101079  0.3011839312441269
  0.7918273859589577  0.3092034408240524  0.2284753574038241
  0.8115461233858814  0.3205714907724613  0.2606943942463993
  0.7225314754485472  0.3206655220737782  0.1578721296822855
  0.7422511482518099  0.3320330182146438  0.1900912133299871
  0.7422568716223878  0.3606597032521661  0.1558037971883711
  0.7028245292928045  0.3606636499425142  0.1557965895622855
  0.7225432667197278  0.3720316998909229  0.1880156264048606
  0.7028291993566670  0.3834968512391602  0.1174065198431490
  0.7225552410089587  0.4234919090093846  0.1153368585633223
  0.7225420803606478  0.3948250239470309  0.1558263955610500
  0.7473354141182057  0.4090812068622373  0.1900852876846875
  0.7670496644993166  0.3977100868153167  0.1578721296822855
  0.7670517165743038  0.3749153176025613  0.1900609616650183
  0.8115580976751121  0.3720316998909229  0.1880156264048606
  0.7918320560228210  0.3320366421206987  0.1900852876846875
  0.7867693373025795  0.4090775829561824  0.1900912133299871
  0.7473234398289750  0.3576209977437757  0.2627640555262259
  0.8115449370268017  0.3433648148285692  0.2285051634025885
  0.7670376902100858  0.3462498776968552  0.2305508975238240
  0.7225301060714169  0.3433648148285692  0.2285051634025885
  0.7670397422850727  0.3234551084841000  0.2627397295065569
  0.7867573630133485  0.3576173738377207  0.2627699811715255
  0.7473187697651121  0.3347877964471296  0.3011541252453627
  0.7867511120946959  0.3347838497567814  0.3011613328714481
  0.7225290740162398  0.3718342333199322  0.3032296653653624
  0.7670363208329555  0.3689491704516463  0.3011839312441269
  0.8115439049716241  0.3718342333199322  0.3032296653653624
  0.7422544701900802  0.4118284144983200  0.3011613328714481
  0.7473307440543426  0.3862480055655911  0.2284753574038241
  0.7422607211087332  0.4346619385792593  0.2627699811715255
  0.7225410483054703  0.4232944424383936  0.2305508975238240
  0.7225431003804575  0.4004996732256383  0.2627397295065569
  0.7670482951221862  0.4204093795701078  0.2285051634025885
  0.7670494814812663  0.3976160555139999  0.2606943942463993
  0.7867630863839269  0.3862440588752430  0.2284825650299098
  0.7918369588158811  0.4118323611886680  0.3011541252453627
  0.8115558792608550  0.4232944424383936  0.2305508975238240
  0.8115579313358423  0.4004996732256383  0.2627397295065569
  0.8312693011454649  0.4118284144983200  0.3011613328714481
  0.8560405468762396  0.2947896685783937  0.3032296653653624
  0.8363455750097274  0.3862480055655911  0.2284753574038241
  0.8363382707843593  0.3576209977437757  0.2627640555262259
  0.8363336007204965  0.3347877964471296  0.3011541252453627
  0.8757659430500803  0.3347838497567814  0.3011613328714481
  0.8560511517883400  0.3689491704516463  0.3011839312441269
  0.8560643124366513  0.3976160555139999  0.2606943942463993
  0.8808517897712659  0.4118323611886680  0.3011541252453627
  0.7670137416316239  0.2433294594599320  0.3759084332069008
  0.7225073438520353  0.2176510725355384  0.4060519299294760
  0.7225061574929555  0.2404443965916460  0.3738626990856653
  0.7670157937066109  0.2205346902471766  0.4080972651896339
  0.7422271996733484  0.2291125999777207  0.3354487490130640
  0.7472994912505132  0.2547005795068525  0.4081215912093027
  0.7225191518019958  0.2975792549887149  0.4080972651896339
  0.7225193181412661  0.2691112816539997  0.3333731620879377
  0.7473114655397441  0.3061607886253140  0.3354428233677643
  0.7473067954758812  0.2833275873286683  0.3738328930869010
  0.7225170997270088  0.3203740242014705  0.3759084332069008
  0.7670243465437248  0.3174889613331846  0.3738626990856653
  0.8312420306287331  0.2291125999777207  0.3354487490130640
  0.8115221748074201  0.2176510725355384  0.4060519299294760
  0.8115209884483399  0.2404443965916460  0.3738626990856653
  0.7918081074443593  0.2291162238837759  0.3354428233677643
  0.7867334144348866  0.2546969556007976  0.4081275168546026
  0.8115341490966509  0.2691112816539997  0.3333731620879377
  0.7670277679958422  0.2719948993656383  0.3354184973480950
  0.7867391378054650  0.2833236406383199  0.3738401007129865
  0.7670255329028045  0.2946956372770768  0.4060519299294760
  0.8115339827573805  0.2975792549887149  0.4080972651896339
  0.7867453887241176  0.3061571647192590  0.3354487490130640
  0.7422424959008495  0.3603682053798583  0.3738401007129865
  0.7225288909981894  0.3717402020186151  0.4060519299294760
  0.7670375071920353  0.3461558463955383  0.3333731620879377
  0.7225311260912266  0.3490394641071768  0.3354184973480950
  0.7422367725302715  0.3317415203423359  0.4081275168546026
  0.7670373408527650  0.3746238197302535  0.4080972651896339
  0.7422487468195025  0.3832017294607977  0.3354487490130640
  0.7225277046391094  0.3945335260747233  0.3738626990856653
  0.7670352887777780  0.3974185889430090  0.3759084332069008
  0.7473210383966673  0.4087897089899295  0.4081215912093027
  0.7225408652874200  0.4232004111370768  0.3333731620879377
  0.8115437219535737  0.3717402020186151  0.4060519299294760
  0.8312573268562342  0.3603682053798583  0.3738401007129865
  0.7918249845266504  0.3603721520702065  0.3738328930869010
  0.8312516034856559  0.3317415203423359  0.4081275168546026
  0.7918176803012824  0.3317451442483911  0.4081215912093027
  0.8115459570466114  0.3490394641071768  0.3354184973480950
  0.8115319306823932  0.3203740242014705  0.3759084332069008
  0.8312635777748870  0.3832017294607977  0.3354487490130640
  0.7918296545905131  0.3832053533668526  0.3354428233677643
  0.7670493151419960  0.4260840288487152  0.3354184973480950
  0.8115556962428049  0.4232004111370768  0.3333731620879377
  0.8115425355944942  0.3945335260747233  0.3738626990856653
  0.7867549615810407  0.4087860850838747  0.4081275168546026
  0.7670135586135740  0.2432354281586153  0.4787306977710146
  0.7472948211866502  0.2318673782102064  0.4465116609284394
  0.7670123722544938  0.2660287522147231  0.4465414669272036
  0.7225071775127653  0.2461190458702535  0.4807760330311722
  0.7422185473223880  0.2574477871429353  0.5191976363960634
  0.7225051254377779  0.2689138150830091  0.4485872010484396
  0.7225169167089585  0.3202799929001537  0.4787306977710146
  0.7422305216116190  0.3089079962613970  0.4465188685545251
  0.7225037560606478  0.2916131078378000  0.5192202347687425
  0.7670113401993163  0.2944981707060857  0.5212659688899779
  0.7422247982410406  0.2802813112238745  0.4808062846961408
  0.7867271635162345  0.2318634315198584  0.4465188685545251
  0.8312453525670033  0.3089079962613970  0.4465188685545251
  0.7918130102374195  0.3089119429517450  0.4465116609284394
  0.8115199563931622  0.2689138150830091  0.4485872010484396
  0.8115317476643432  0.3202799929001537  0.4787306977710146
  0.8115220084681500  0.2461190458702535  0.4807760330311722
  0.7918057060120519  0.2802849351299295  0.4808003590508411
  0.7918010359481886  0.2574517338332833  0.5191904287699780
  0.8312396291964254  0.2802813112238745  0.4808062846961408
  0.7670253665635345  0.3231636106117918  0.4807760330311722
  0.8312333782777728  0.2574477871429353  0.5191976363960634
  0.8115185870160325  0.2916131078378000  0.5192202347687425
  0.7473043940435735  0.3344962985748219  0.5191904287699780
  0.7225157303498783  0.3430733169562615  0.4465414669272036
  0.7670233144885463  0.3459583798245477  0.4485872010484396
  0.7473090641074364  0.3573294998714681  0.4808003590508411
  0.7670219451114170  0.3686576725793383  0.5192202347687425
  0.7225146982947012  0.3715427354476243  0.5212659688899779
  0.7225287246589194  0.4002081753533304  0.4807760330311722
  0.7473163683328039  0.3859565076932831  0.4465116609284394
  0.7225266725839318  0.4230029445660858  0.4485872010484396
  0.8115435556143037  0.4002081753533304  0.4807760330311722
  0.7670351057597277  0.3973245576416920  0.4787306977710146
  0.8115305613052630  0.3430733169562615  0.4465414669272036
  0.7867487106623882  0.3859525610029353  0.4465188685545251
  0.8115415035393163  0.4230029445660858  0.4485872010484396
  0.7670339194006477  0.4201178816978001  0.4465414669272036
  0.7918272531582056  0.4343740646130064  0.4808003590508411
  0.7867429872918098  0.3573258759654128  0.4808062846961408
  0.8312611763425795  0.4343704407069515  0.4808062846961408
  0.7918225830943427  0.4115408633163603  0.5191904287699780
  0.8312549254239265  0.4115369166260122  0.5191976363960634
  0.7867367363731572  0.3344923518844739  0.5191976363960634
  0.8115295292500855  0.3715427354476243  0.5212659688899779
  0.8757482453902719  0.2546969556007976  0.4081275168546026
  0.8560285725870087  0.2433294594599320  0.3759084332069008
  0.8363143222058975  0.2547005795068525  0.4081215912093027
  0.8560425989512265  0.2719948993656383  0.3354184973480950
  0.8757539687608493  0.2833236406383199  0.3738401007129865
  0.8363216264312655  0.2833275873286683  0.3738328930869010
  0.8560403638581893  0.2946956372770768  0.4060519299294760
  0.8363262964951285  0.3061607886253140  0.3354428233677643
  0.8757602196795023  0.3061571647192590  0.3354487490130640
  0.9005488137127649  0.2975792549887149  0.4080972651896339
  0.8560523381474202  0.3461558463955383  0.3333731620879377
  0.8560391774991091  0.3174889613331846  0.3738626990856653
  0.8808325112566672  0.3317451442483911  0.4081215912093027
  0.9005467616377779  0.3203740242014705  0.3759084332069008
  0.8560521718081497  0.3746238197302535  0.4080972651896339
  0.8808398154820347  0.3603721520702065  0.3738328930869010
  0.8808444855458979  0.3832053533668526  0.3354428233677643
  0.9005573665498785  0.3945335260747233  0.3738626990856653
  0.8560501197331628  0.3974185889430090  0.3759084332069008
  0.8757697925364257  0.4087860850838747  0.4081275168546026
  0.8363358693520516  0.4087897089899295  0.4081215912093027
  0.8560641460973807  0.4260840288487152  0.3354184973480950
  0.9005585529089585  0.3717402020186151  0.4060519299294760
  0.9005607880019958  0.3490394641071768  0.3354184973480950
  0.9202721578116190  0.3603682053798583  0.3738401007129865
  0.9253507003074364  0.4087897089899295  0.4081215912093027
  0.9005705271981894  0.4232004111370768  0.3333731620879377
  0.8808158669035734  0.2574517338332833  0.5191904287699780
  0.8560272032098786  0.2660287522147231  0.4465414669272036
  0.8560283895689583  0.2432354281586153  0.4787306977710146
  0.8363096521420346  0.2318673782102064  0.4465116609284394
  0.8808278411928039  0.3089119429517450  0.4465116609284394
  0.8808205369674362  0.2802849351299295  0.4808003590508411
  0.8560261711547010  0.2944981707060857  0.5212659688899779
  0.8757515673285421  0.3344923518844739  0.5191976363960634
  0.8560401975189188  0.3231636106117918  0.4807760330311722
  0.9005334179714168  0.2916131078378000  0.5192202347687425
  0.9005465786197275  0.3202799929001537  0.4787306977710146
  0.8757578182471946  0.3573258759654128  0.4808062846961408
  0.8363192249989578  0.3344962985748219  0.5191904287699780
  0.8560381454439315  0.3459583798245477  0.4485872010484396
  0.9005443602054702  0.3715427354476243  0.5212659688899779
  0.8363238950628211  0.3573294998714681  0.4808003590508411
  0.8560367760668017  0.3686576725793383  0.5192202347687425
  0.8757635416177729  0.3859525610029353  0.4465188685545251
  0.8560499367151124  0.3973245576416920  0.4787306977710146
  0.8363311992881887  0.3859565076932831  0.4465116609284394
  0.8560487503560322  0.4201178816978001  0.4465414669272036
  0.8808420841135906  0.4343740646130064  0.4808003590508411
  0.8808374140497270  0.4115408633163603  0.5191904287699780
  0.9450635813114170  0.4201178816978001  0.4465414669272036
  0.9005453922606478  0.3430733169562615  0.4465414669272036
  0.9253460302435735  0.3859565076932831  0.4465116609284394
  0.9005563344947012  0.4230029445660858  0.4485872010484396
  0.9450647676704967  0.3973245576416920  0.4787306977710146
  0.9005583865696880  0.4002081753533304  0.4807760330311722
  0.9202760072979639  0.4343704407069515  0.4808062846961408
  0.9253387260182054  0.3573294998714681  0.4808003590508411
  0.9253340559543426  0.3344962985748219  0.5191904287699780
  0.9202697563793113  0.4115369166260122  0.5191976363960634
  0.7422726953979640  0.4861221476977207  0.1900912133299871
  0.7225550746696885  0.4519598823440997  0.1900609616650183
  0.7670602694114173  0.4718695886885694  0.1558263955610500
  0.7473473884074364  0.4605414159806988  0.1174065198431490
  0.7473427183435736  0.4377082146840526  0.1557965895622855
  0.7225530225947010  0.4747546515568552  0.1578721296822855
  0.7028387722135904  0.4861257716037757  0.1900852876846875
  0.7422784187685419  0.5147488327352432  0.1558037971883711
  0.7225670489589192  0.5034200914625613  0.1173821938234798
  0.7028460764389584  0.5147527794255911  0.1557965895622855
  0.7225648138658817  0.5261208293739998  0.1880156264048606
  0.7422846696871943  0.5375823568161823  0.1174124454884485
  0.7028507465028209  0.5375859807222372  0.1174065198431490
  0.7867750606731571  0.4377042679937047  0.1558037971883711
  0.7670614557704970  0.4490762646324615  0.1880156264048606
  0.8115699056250728  0.4519598823440997  0.1900609616650183
  0.7918536031689749  0.4861257716037757  0.1900852876846875
  0.8115796448212662  0.5261208293739998  0.1880156264048606
  0.7670732637204577  0.5290044470856382  0.1900609616650183
  0.7918609073943428  0.5147527794255911  0.1557965895622855
  0.7670592373562395  0.5003390071799321  0.2305508975238240
  0.7422664444793116  0.4632886236167815  0.2284825650299098
  0.7028341021497275  0.4632925703071296  0.2284753574038241
  0.7225516532175708  0.4974539443116461  0.2285051634025885
  0.7225528395766512  0.4746606202555383  0.2606943942463993
  0.7670612894312268  0.4775442379671765  0.2627397295065569
  0.7867846335300808  0.5403331883583200  0.2284825650299098
  0.8115676705320355  0.4746606202555383  0.2606943942463993
  0.8115664841729556  0.4974539443116461  0.2285051634025885
  0.7918489331051118  0.4632925703071296  0.2284753574038241
  0.7225506211623934  0.5259233628030091  0.3032296653653624
  0.7028267979243592  0.4346655624853141  0.2627640555262259
  0.7225396789283401  0.4459937351931848  0.3011839312441269
  0.7473449869751286  0.5117101272268527  0.2627640555262259
  0.7473403169112658  0.4888769259302065  0.3011541252453627
  0.7670472630670090  0.4488787980614706  0.3032296653653624
  0.7670578679791094  0.5230382999347234  0.3011839312441269
  0.7867789101595024  0.5117065033207977  0.2627699811715255
  0.7867726592408498  0.4888729792398585  0.3011613328714481
  0.7918416288797442  0.4346655624853141  0.2627640555262259
  0.8115654521177782  0.5259233628030091  0.3032296653653624
  0.8115545098837247  0.4459937351931848  0.3011839312441269
  0.7225767881551124  0.5775810384924613  0.1153368585633223
  0.7473642654897277  0.5917973441671297  0.1557965895622855
  0.7225636275068015  0.5489141534301080  0.1558263955610500
  0.7670712116454704  0.5517992162983936  0.1578721296822855
  0.7670830029166509  0.6031653941155384  0.1880156264048606
  0.7473569612643596  0.5631703363453141  0.1900852876846875
  0.7867908844487334  0.5631667124392593  0.1900912133299871
  0.7473522912004967  0.5403371350486681  0.2284753574038241
  0.7225745697408549  0.6288437810399320  0.1578721296822855
  0.7225766218158424  0.6060490118271767  0.1900609616650183
  0.7422942425441180  0.6402112771807977  0.1900912133299871
  0.7028603193597440  0.6402149010868526  0.1900852876846875
  0.7028556492958812  0.6173816997902065  0.2284753574038241
  0.7422879916254652  0.6173777530998583  0.2284825650299098
  0.7918704802512659  0.6173816997902065  0.2284753574038241
  0.7422760173362345  0.5659175439813970  0.3011613328714481
  0.7225646475266112  0.5545888027087149  0.2627397295065569
  0.7225625954516242  0.5773835719214705  0.2305508975238240
  0.7028436750066502  0.5659214906717449  0.3011541252453627
  0.7670698422683399  0.5744985090531848  0.2285051634025885
  0.7422822682548869  0.5887510680623360  0.2627699811715255
  0.7028483450705131  0.5887546919683911  0.2627640555262259
  0.7225612260744940  0.6000828646762617  0.3011839312441269
  0.7670688102131626  0.6029679275445474  0.3032296653653624
  0.7225732003637247  0.6515430737947232  0.2285051634025885
  0.7225743867228051  0.6287497497386153  0.2606943942463993
  0.8115794784819960  0.5545888027087149  0.2627397295065569
  0.7670710286274204  0.5517051849970769  0.2606943942463993
  0.8115774264070087  0.5773835719214705  0.2305508975238240
  0.7918585059620350  0.5659214906717449  0.3011541252453627
  0.7918631760258980  0.5887546919683911  0.2627640555262259
  0.8115760570298786  0.6000828646762617  0.3011839312441269
  0.8115892176781894  0.6287497497386153  0.2606943942463993
  0.7670828365773804  0.6316333674502536  0.2627397295065569
  0.7867942063870037  0.6429621087229352  0.3011613328714481
  0.8115880313191095  0.6515430737947232  0.2285051634025885
  0.7670807845023934  0.6544281366630090  0.2305508975238240
  0.8312875263533489  0.4861221476977207  0.1900912133299871
  0.8312812754346963  0.4632886236167815  0.2284825650299098
  0.8560620940223933  0.4488787980614706  0.3032296653653624
  0.8312755520641177  0.4346619385792593  0.2627699811715255
  0.8560761203866115  0.4775442379671765  0.2627397295065569
  0.8757874901962344  0.4888729792398585  0.3011613328714481
  0.8363551478666506  0.4888769259302065  0.3011541252453627
  0.8560740683116242  0.5003390071799321  0.2305508975238240
  0.8363598179305133  0.5117101272268527  0.2627640555262259
  0.8560726989344939  0.5230382999347234  0.3011839312441269
  0.8757937411148869  0.5117065033207977  0.2627699811715255
  0.9005693408391094  0.4459937351931848  0.3011839312441269
  0.9005802830731625  0.5259233628030091  0.3032296653653624
  0.8363671221558810  0.5403371350486681  0.2284753574038241
  0.8560846732237244  0.5744985090531848  0.2285051634025885
  0.8560858595828049  0.5517051849970769  0.2606943942463993
  0.8312970992102716  0.5887510680623360  0.2627699811715255
  0.8312908482916190  0.5659175439813970  0.3011613328714481
  0.8808733369174195  0.5659214906717449  0.3011541252453627
  0.8808780069812825  0.5887546919683911  0.2627640555262259
  0.8560976675327652  0.6316333674502536  0.2627397295065569
  0.8363766950128042  0.6429660554132833  0.3011541252453627
  0.8560836411685476  0.6029679275445474  0.3032296653653624
  0.8313028225808500  0.6173777530998583  0.2284825650299098
  0.8758090373423882  0.6429621087229352  0.3011613328714481
  0.9005908879852633  0.6000828646762617  0.3011839312441269
  0.7473330126858978  0.4602499181083911  0.3354428233677643
  0.7867669358702717  0.4602462942023362  0.3354487490130640
  0.7867606849516187  0.4374127701213969  0.3738401007129865
  0.7473283426220353  0.4374167168117449  0.3738328930869010
  0.7670458936898786  0.4715780908162617  0.3738626990856653
  0.8115534778285473  0.4744631536845475  0.3759084332069008
  0.7225406989481499  0.4516683844717920  0.4080972651896339
  0.7670470800489586  0.4487847667601537  0.4060519299294760
  0.7918392274474365  0.4858342737314679  0.4081215912093027
  0.8115555299035346  0.4516683844717920  0.4080972651896339
  0.7225526732373807  0.5031285935902536  0.3354184973480950
  0.7028363707812827  0.5372944828499295  0.3354428233677643
  0.7028317007174197  0.5144612815532834  0.3738328930869010
  0.7225504381443435  0.5258293315016924  0.4060519299294760
  0.7422702939656561  0.5372908589438746  0.3354487490130640
  0.7670588879989191  0.5287129492133305  0.4080972651896339
  0.7670590543381893  0.5002449758786153  0.3333731620879377
  0.7918465316728045  0.5144612815532834  0.3738328930869010
  0.7918512017366670  0.5372944828499295  0.3354428233677643
  0.8115652690997280  0.5258293315016924  0.4060519299294760
  0.8115675041927652  0.5031285935902536  0.3354184973480950
  0.8115640827406476  0.5486226555578001  0.3738626990856653
  0.7473379154789582  0.5400456371763603  0.4465116609284394
  0.7918345573835738  0.4630010724348219  0.4465116609284394
  0.7670448616347010  0.5000475093076244  0.4485872010484396
  0.8312668997131576  0.4629971257444739  0.4465188685545251
  0.8312731506318100  0.4858306498254131  0.4081275168546026
  0.8115521084514173  0.4971624464393387  0.4465414669272036
  0.7225372774960324  0.4971624464393387  0.4465414669272036
  0.7422520687577731  0.4629971257444739  0.4465188685545251
  0.8115401341621860  0.4457022373208770  0.5192202347687425
  0.8115532948104971  0.4743691223832307  0.4787306977710146
  0.7670469137096886  0.4772527400948690  0.4807760330311722
  0.7225384638551126  0.4743691223832307  0.4787306977710146
  0.7225362454408550  0.5256318649307012  0.5212659688899779
  0.8115510763962396  0.5256318649307012  0.5212659688899779
  0.7670434922575708  0.5227468020624154  0.5192202347687425
  0.7473306112535902  0.5114186293545450  0.4808003590508411
  0.7867645344379641  0.5114150054484899  0.4808062846961408
  0.7867822320977730  0.5915018996044737  0.3738401007129865
  0.7225492517852633  0.5486226555578001  0.3738626990856653
  0.7225624124335740  0.5772895406201539  0.3333731620879377
  0.8115772433889588  0.5772895406201539  0.3333731620879377
  0.7670708622881498  0.5801731583317918  0.3354184973480950
  0.7670568359239317  0.5515077184260859  0.3759084332069008
  0.7473498897681892  0.5915058462948219  0.3738328930869010
  0.7867884830164253  0.6143354236854132  0.3354487490130640
  0.7473545598320519  0.6143390475914681  0.3354428233677643
  0.8115750249747011  0.6285522831676245  0.3759084332069008
  0.7225601940193164  0.6285522831676245  0.3759084332069008
  0.7670674408360325  0.6256672202993385  0.3738626990856653
  0.7028459436382059  0.6399234032145448  0.4081215912093027
  0.7225622460943035  0.6057575139548689  0.4080972651896339
  0.7422798668225793  0.6399197793084901  0.4081275168546026
  0.7473425855428212  0.5628788384730063  0.4081215912093027
  0.7670686271951127  0.6028738962432307  0.4060519299294760
  0.7867765087271948  0.5628752145669516  0.4081275168546026
  0.7918607745935904  0.6399234032145448  0.4081215912093027
  0.8115770770496883  0.6057575139548689  0.4080972651896339
  0.7422678925333488  0.5884595701900285  0.4808062846961408
  0.7225482197300854  0.5770920740491630  0.4485872010484396
  0.7225502718050733  0.5542973048364074  0.4807760330311722
  0.7422616416146958  0.5656260461090892  0.5191976363960634
  0.7028292992851121  0.5656299927994372  0.5191904287699780
  0.7028339693489749  0.5884631940960834  0.4808003590508411
  0.7225468503529555  0.5997913668039538  0.5192202347687425
  0.7670544344916242  0.6026764296722398  0.5212659688899779
  0.7422736159039269  0.6170862552275508  0.4465188685545251
  0.7225600110012664  0.6284582518663077  0.4787306977710146
  0.7473474883358813  0.6426745575409759  0.5191904287699780
  0.7225588246421862  0.6512515759224156  0.4465414669272036
  0.7028412735743425  0.6170902019178989  0.4465116609284394
  0.7918441302404966  0.5656299927994372  0.5191904287699780
  0.8115651027604576  0.5542973048364074  0.4807760330311722
  0.8312764725700809  0.5656260461090892  0.5191976363960634
  0.8115616813083401  0.5997913668039538  0.5192202347687425
  0.8115630506854705  0.5770920740491630  0.4485872010484396
  0.7918561045297274  0.6170902019178989  0.4465116609284394
  0.7670684608558425  0.6313418695779457  0.4807760330311722
  0.7867798306654655  0.6426706108506279  0.5191976363960634
  0.8115736555975708  0.6512515759224156  0.4465414669272036
  0.7670664087808547  0.6541366387907014  0.4485872010484396
  0.8115748419566510  0.6284582518663077  0.4787306977710146
  0.8560607246452632  0.4715780908162617  0.3738626990856653
  0.8363478436412826  0.4602499181083911  0.3354428233677643
  0.8312788740023883  0.5144573348629354  0.3738401007129865
  0.8312851249210409  0.5372908589438746  0.3354487490130640
  0.8363431735774198  0.4374167168117449  0.3738328930869010
  0.8808613626281890  0.5144612815532834  0.3738328930869010
  0.8560619110043434  0.4487847667601537  0.4060519299294760
  0.8757817668256562  0.4602462942023362  0.3354487490130640
  0.8560738852935741  0.5002449758786153  0.3333731620879377
  0.8757755159070032  0.4374127701213969  0.3738401007129865
  0.8808660326920518  0.5372944828499295  0.3354428233677643
  0.9005683087839320  0.4744631536845475  0.3759084332069008
  0.9005823351481499  0.5031285935902536  0.3354184973480950
  0.9202999558764257  0.5372908589438746  0.3354487490130640
  0.9253580045328044  0.4374167168117449  0.3738328930869010
  0.9253626745966671  0.4602499181083911  0.3354428233677643
  0.9005801000551126  0.5258293315016924  0.4060519299294760
  0.9202937049577724  0.5144573348629354  0.3738401007129865
  0.9450767419597277  0.4487847667601537  0.4060519299294760
  0.8560596925900856  0.5000475093076244  0.4485872010484396
  0.9005669394068014  0.4971624464393387  0.4465414669272036
  0.8560737189543038  0.5287129492133305  0.4080972651896339
  0.8808493883389582  0.4630010724348219  0.4465116609284394
  0.8808540584028208  0.4858342737314679  0.4081215912093027
  0.9005681257658816  0.4743691223832307  0.4787306977710146
  0.9202817306685421  0.4629971257444739  0.4465188685545251
  0.9005703608589192  0.4516683844717920  0.4080972651896339
  0.9202879815871949  0.4858306498254131  0.4081275168546026
  0.9450745235454697  0.5000475093076244  0.4485872010484396
  0.9450885499096884  0.5287129492133305  0.4080972651896339
  0.8560617446650729  0.4772527400948690  0.4807760330311722
  0.8363454422089748  0.5114186293545450  0.4808003590508411
  0.8363407721451119  0.4885854280578988  0.5191904287699780
  0.8560583232129555  0.5227468020624154  0.5192202347687425
  0.8560477183008551  0.4485873001891629  0.5212659688899779
  0.8757793653933487  0.5114150054484899  0.4808062846961408
  0.8757731144746960  0.4885814813675508  0.5191976363960634
  0.9005549651175709  0.4457022373208770  0.5192202347687425
  0.9253602731643595  0.5114186293545450  0.4808003590508411
  0.9005659073516243  0.5256318649307012  0.5212659688899779
  0.9450625492562394  0.4485873001891629  0.5212659688899779
  0.9253556031004967  0.4885854280578988  0.5191904287699780
  0.9450731541683403  0.5227468020624154  0.5192202347687425
  0.9450765756204577  0.4772527400948690  0.4807760330311722
  0.8757970630531575  0.5915018996044737  0.3738401007129865
  0.9253795516789580  0.5915058462948219  0.3738328930869010
  0.8560856932435346  0.5801731583317918  0.3354184973480950
  0.9005920743443433  0.5772895406201539  0.3333731620879377
  0.8363647207235735  0.5915058462948219  0.3738328930869010
  0.9005789136960326  0.5486226555578001  0.3738626990856653
  0.8560716668793165  0.5515077184260859  0.3759084332069008
  0.8560834581504970  0.6028738962432307  0.4060519299294760
  0.8757913396825792  0.5628752145669516  0.4081275168546026
  0.9253722474535900  0.5628788384730063  0.4081215912093027
  0.8363574164982055  0.5628788384730063  0.4081215912093027
  0.8758033139718103  0.6143354236854132  0.3354487490130640
  0.8560954324397280  0.6543341053616921  0.3333731620879377
  0.8363693907874362  0.6143390475914681  0.3354428233677643
  0.8560822717914168  0.6256672202993385  0.3738626990856653
  0.9005898559300859  0.6285522831676245  0.3759084332069008
  0.8312946977779638  0.6399197793084901  0.4081275168546026
  0.9203095287333484  0.6399197793084901  0.4081275168546026
  0.8808756055489749  0.6399234032145448  0.4081215912093027
  0.9005919080050726  0.6057575139548689  0.4080972651896339
  0.8757850887639268  0.5400416904860122  0.4465188685545251
  0.8808589611958811  0.5656299927994372  0.5191904287699780
  0.8808636312597440  0.5884631940960834  0.4808003590508411
  0.9005778816408548  0.5770920740491630  0.4485872010484396
  0.9450851284575706  0.5742070111808770  0.4465414669272036
  0.9253675773897272  0.5400456371763603  0.4465116609284394
  0.9202975544441180  0.5884595701900285  0.4808062846961408
  0.9450863148166508  0.5514136871247691  0.4787306977710146
  0.9005799337158421  0.5542973048364074  0.4807760330311722
  0.9202913035254654  0.5656260461090892  0.5191976363960634
  0.8757946616208498  0.6426706108506279  0.5191976363960634
  0.8560812397362393  0.6541366387907014  0.4485872010484396
  0.8363623192912658  0.6426745575409759  0.5191904287699780
  0.8560692654470088  0.6026764296722398  0.5212659688899779
  0.8560832918112268  0.6313418695779457  0.4807760330311722
  0.8312884468593115  0.6170862552275508  0.4465188685545251
  0.8808709354851123  0.6170902019178989  0.4465116609284394
  0.9005765122637247  0.5997913668039538  0.5192202347687425
  0.9005884865529558  0.6512515759224156  0.4465414669272036
  0.9005896729120355  0.6284582518663077  0.4787306977710146
  0.9253771502466503  0.6426745575409759  0.5191904287699780
  0.9203032778146960  0.6170862552275508  0.4465188685545251
  0.9450840964023935  0.6026764296722398  0.5212659688899779
  0.5445568821193164  0.6803039901583936  0.0851933618407472
  0.5000492979806478  0.6774189272901077  0.0831476277195115
  0.4752554730485420  0.6688379622183200  0.1558037971883711
  0.5445589341943036  0.6575092209456379  0.1173821938234798
  0.5248379616743427  0.6688419089086680  0.1557965895622855
  0.5248426317382054  0.6916751102053142  0.1174065198431490
  0.4752617239671946  0.6916714862992590  0.1174124454884485
  0.5445555127421863  0.7030032829131848  0.1558263955610500
  0.5000482659254699  0.7058883457814705  0.1578721296822855
  0.5197616878100807  0.6944223178413970  0.2284825650299098
  0.5000503180004577  0.6830935765687151  0.1900609616650183
  0.4803293454804965  0.6944262645317449  0.2284753574038241
  0.4803340155443596  0.7172594658283911  0.1900852876846875
  0.5197679387287333  0.7172558419223362  0.1900912133299871
  0.5445566991012663  0.6802099588570769  0.1880156264048606
  0.5000622922896885  0.7345537856871764  0.1173821938234798
  0.5197736620993114  0.7458825269598585  0.1558037971883711
  0.4803413197697274  0.7458864736502064  0.1557965895622855
  0.5000588708375709  0.7800478476547231  0.1558263955610500
  0.5000468965483400  0.7285876385362616  0.2285051634025885
  0.4752650459054652  0.7714668825829354  0.2284825650299098
  0.5248475345312658  0.7714708292732835  0.2284753574038241
  0.4752712968241180  0.7943004066638747  0.1900912133299871
  0.5248522045951288  0.7943040305699295  0.1900852876846875
  0.5000600571966507  0.7572545235986153  0.1880156264048606
  0.6138527926297273  0.6688419089086680  0.1557965895622855
  0.5445686733904970  0.7316701679755382  0.1153368585633223
  0.5890771232450730  0.7345537856871764  0.1173821938234798
  0.6138574626935902  0.6916751102053142  0.1174065198431490
  0.5642765549225791  0.6916714862992590  0.1174124454884485
  0.5693561507251121  0.7458864736502064  0.1557965895622855
  0.5445664549762392  0.7829329105230088  0.1578721296822855
  0.6087884930546960  0.7458825269598585  0.1558037971883711
  0.5890630968808550  0.7058883457814705  0.1578721296822855
  0.5642703040039267  0.6688379622183200  0.1558037971883711
  0.5890737017929555  0.7800478476547231  0.1558263955610500
  0.6087827696841176  0.7172558419223362  0.1900912133299871
  0.6087765187654651  0.6944223178413970  0.2284825650299098
  0.5890651489558423  0.6830935765687151  0.1900609616650183
  0.5693441764358813  0.6944262645317449  0.2284753574038241
  0.5890617275037248  0.7285876385362616  0.2285051634025885
  0.5693488464997442  0.7172594658283911  0.1900852876846875
  0.5890748881520357  0.7572545235986153  0.1880156264048606
  0.6138623654866505  0.7714708292732835  0.2284753574038241
  0.5642861277795023  0.7943004066638747  0.1900912133299871
  0.5642798768608496  0.7714668825829354  0.2284825650299098
  0.6138670355505134  0.7943040305699295  0.1900852876846875
  0.5445685070512269  0.7601381413102536  0.1900609616650183
  0.5445650855991092  0.8056322032778002  0.2285051634025885
  0.5197832349562345  0.8485114473244737  0.2284825650299098
  0.5000718651466116  0.8371827060517919  0.1900609616650183
  0.4803508926266504  0.8485153940148219  0.2284753574038241
  0.5445782462474201  0.8342990883401536  0.1880156264048606
  0.5693657235820350  0.8485153940148219  0.2284753574038241
  0.6087980659116192  0.8485114473244737  0.2284825650299098
  0.6583590073912658  0.6944262645317449  0.2284753574038241
  0.6335715300566508  0.6802099588570769  0.1880156264048606
  0.6335703436975710  0.7030032829131848  0.1558263955610500
  0.6335737651496883  0.6575092209456379  0.1173821938234798
  0.6532913858779636  0.6916714862992590  0.1174124454884485
  0.6532851349593113  0.6688379622183200  0.1558037971883711
  0.6780765584591092  0.7285876385362616  0.2285051634025885
  0.6583636774551287  0.7172594658283911  0.1900852876846875
  0.6977976006395027  0.7172558419223362  0.1900912133299871
  0.6780799799112268  0.6830935765687151  0.1900609616650183
  0.6977913497208494  0.6944223178413970  0.2284825650299098
  0.6780779278362395  0.7058883457814705  0.1578721296822855
  0.7028676235851121  0.6688419089086680  0.1557965895622855
  0.7422999659146957  0.6688379622183200  0.1558037971883711
  0.7225851746529556  0.7030032829131848  0.1558263955610500
  0.7225863610120353  0.6802099588570769  0.1880156264048606
  0.7473785084105132  0.7172594658283911  0.1900852876846875
  0.7670913894144942  0.7285876385362616  0.2285051634025885
  0.7473738383466504  0.6944262645317449  0.2284753574038241
  0.7670948108666114  0.6830935765687151  0.1900609616650183
  0.6583709816804968  0.7458864736502064  0.1557965895622855
  0.6780897191074202  0.7572545235986153  0.1880156264048606
  0.6335833380066115  0.7601381413102536  0.1900609616650183
  0.6532947078162343  0.7714668825829354  0.2284825650299098
  0.6533009587348874  0.7943004066638747  0.1900912133299871
  0.7423095387716191  0.7714668825829354  0.2284825650299098
  0.7028771964420351  0.7714708292732835  0.2284753574038241
  0.6335799165544941  0.8056322032778002  0.2285051634025885
  0.7868061806762344  0.6944223178413970  0.2284825650299098
  0.5000480829074202  0.7057943144801537  0.2606943942463993
  0.5445544806870090  0.7314727014045476  0.2305508975238240
  0.4752593225348868  0.7428401975454129  0.2627699811715255
  0.5445565327619962  0.7086779321917919  0.2627397295065569
  0.5197559644395024  0.6657956328038748  0.2627699811715255
  0.5642741534902714  0.7428401975454129  0.2627699811715255
  0.4803220412551285  0.6657992567099295  0.2627640555262259
  0.5248402303058977  0.7428438214514681  0.2627640555262259
  0.5642679025716191  0.7200066734644739  0.3011613328714481
  0.5248355602420350  0.7200106201548219  0.3011541252453627
  0.4752530716162343  0.7200066734644739  0.3011613328714481
  0.5000479165681497  0.7342622878148690  0.3354184973480950
  0.4752410973270036  0.6685464643460123  0.3738401007129865
  0.5000349222591092  0.6771274294178001  0.3011839312441269
  0.4752473482456563  0.6913799884269515  0.3354487490130640
  0.5248235859528043  0.6685504110363604  0.3738328930869010
  0.5248282560166669  0.6913836123330064  0.3354428233677643
  0.5445411370206479  0.7027117850408771  0.3738626990856653
  0.5445425063977782  0.6800124922860860  0.3032296653653624
  0.5445445584727653  0.6572177230733304  0.3354184973480950
  0.5642559282823884  0.6685464643460123  0.3738401007129865
  0.5445542976689587  0.7313786701032307  0.3333731620879377
  0.5642621792010407  0.6913799884269515  0.3354487490130640
  0.5000578387823932  0.8085172661460858  0.2305508975238240
  0.5197775115856561  0.8198847622869515  0.2627699811715255
  0.5445662719581894  0.7828388792216923  0.2606943942463993
  0.5000598908573809  0.7857224969333304  0.2627397295065569
  0.4803435884012826  0.8198883861930064  0.2627640555262259
  0.5000458644931625  0.7570570570276244  0.3032296653653624
  0.5445531113098784  0.7541719941593386  0.3011839312441269
  0.5197712606670035  0.7970512382060123  0.3011613328714481
  0.5000564694052633  0.8312165589008770  0.3011839312441269
  0.4803389183374199  0.7970551848963604  0.3011541252453627
  0.5445640535439321  0.8341016217691629  0.3032296653653624
  0.4752626444731575  0.8226355938290892  0.3738401007129865
  0.5000576557643431  0.8084232348447692  0.3333731620879377
  0.4803316141120517  0.7684281770745450  0.3354428233677643
  0.5000444951160323  0.7797563497824156  0.3738626990856653
  0.4803269440481888  0.7455949757778988  0.3738328930869010
  0.5197592863777726  0.7455910290875507  0.3738401007129865
  0.5197655372964254  0.7684245531684899  0.3354487490130640
  0.5248451330989582  0.8226395405194373  0.3738328930869010
  0.5642774754285420  0.8226355938290892  0.3738401007129865
  0.5445661056189189  0.8113068525564072  0.3354184973480950
  0.6087707953948870  0.6657956328038748  0.2627699811715255
  0.6138550612612824  0.7428438214514681  0.2627640555262259
  0.5693368722105132  0.6657992567099295  0.2627640555262259
  0.6335713637173805  0.7086779321917919  0.2627397295065569
  0.6532889844456562  0.7428401975454129  0.2627699811715255
  0.6335693116423933  0.7314727014045476  0.2305508975238240
  0.5890629138628047  0.7057943144801537  0.2606943942463993
  0.6583517031658978  0.6657992567099295  0.2627640555262259
  0.5890497532144939  0.6771274294178001  0.3011839312441269
  0.6532827335270036  0.7200066734644739  0.3011613328714481
  0.6138503911974196  0.7200106201548219  0.3011541252453627
  0.6335573373531626  0.6800124922860860  0.3032296653653624
  0.6335593894281500  0.6572177230733304  0.3354184973480950
  0.6335691286243433  0.7313786701032307  0.3333731620879377
  0.6335559679760324  0.7027117850408771  0.3738626990856653
  0.6087741173331573  0.7455910290875507  0.3738401007129865
  0.5890627475235347  0.7342622878148690  0.3354184973480950
  0.6138430869720516  0.6913836123330064  0.3354428233677643
  0.6532770101564255  0.6913799884269515  0.3354487490130640
  0.6138384169081891  0.6685504110363604  0.3738328930869010
  0.6532707592377729  0.6685464643460123  0.3738401007129865
  0.5890713003606476  0.8312165589008770  0.3011839312441269
  0.5693537492928047  0.7970551848963604  0.3011541252453627
  0.5693584193566673  0.8198883861930064  0.2627640555262259
  0.5890726697377782  0.8085172661460858  0.2305508975238240
  0.5890747218127654  0.7857224969333304  0.2627397295065569
  0.6087860916223883  0.7970512382060123  0.3011613328714481
  0.6087923425410406  0.8198847622869515  0.2627699811715255
  0.6335679422652631  0.7541719941593386  0.3011839312441269
  0.6583685802481892  0.7970551848963604  0.3011541252453627
  0.6583732503120517  0.8198883861930064  0.2627640555262259
  0.6335811029135739  0.7828388792216923  0.2606943942463993
  0.5693464450674365  0.7684281770745450  0.3354428233677643
  0.5693417750035737  0.7455949757778988  0.3738328930869010
  0.5890606954485474  0.7570570570276244  0.3032296653653624
  0.5890593260714173  0.7797563497824156  0.3738626990856653
  0.6087803682518099  0.7684245531684899  0.3354487490130640
  0.5890724867197279  0.8084232348447692  0.3333731620879377
  0.6138599640543427  0.8226395405194373  0.3738328930869010
  0.6335788844993164  0.8341016217691629  0.3032296653653624
  0.6532923063839268  0.8226355938290892  0.3738401007129865
  0.6335809365743037  0.8113068525564072  0.3354184973480950
  0.6583566059589583  0.7455949757778988  0.3738328930869010
  0.6583612760228208  0.7684281770745450  0.3354428233677643
  0.5000325208268014  0.7282961406639540  0.4465414669272036
  0.4803196398228209  0.7169679679560834  0.4081215912093027
  0.4803149697589578  0.6941347666594372  0.4465116609284394
  0.5000359422789188  0.6828020786964074  0.4080972651896339
  0.5000338902039322  0.7055968479091628  0.3759084332069008
  0.5197535630071949  0.7169643440500285  0.4081275168546026
  0.5445423233797279  0.6799184609847692  0.4060519299294760
  0.5445401049654702  0.7311812035322398  0.4485872010484396
  0.5197473120885421  0.6941308199690891  0.4465188685545251
  0.5000337071858814  0.7055028166078461  0.4787306977710146
  0.5000205465375709  0.6768359315454924  0.5192202347687425
  0.4752449468133488  0.7425486996731054  0.4808062846961408
  0.4803076655335903  0.6655077588376217  0.4808003590508411
  0.4752386958946958  0.7197151755921661  0.5191976363960634
  0.5197415887179637  0.6655041349315669  0.4808062846961408
  0.5248211845204965  0.7197191222825140  0.5191904287699780
  0.5445281306762394  0.6797209944137781  0.5212659688899779
  0.5248258545843595  0.7425523235791605  0.4808003590508411
  0.5642535268500803  0.7197151755921661  0.5191976363960634
  0.5642597777687329  0.7425486996731054  0.4808062846961408
  0.5445387355883401  0.7538804962870308  0.5192202347687425
  0.5445421570404578  0.7083864343194843  0.4807760330311722
  0.5248378288735904  0.7940125326976218  0.4081215912093027
  0.4752506701839265  0.7711753847106277  0.4465188685545251
  0.5000456814751127  0.7569630257263077  0.4060519299294760
  0.5248331588097273  0.7711793314009757  0.4465116609284394
  0.5000574894250728  0.8368912081794843  0.4080972651896339
  0.4752569211025793  0.7940089087915668  0.4081275168546026
  0.5445507098775706  0.8053407054054924  0.4465414669272036
  0.5445520792547014  0.7826414126507013  0.3759084332069008
  0.5445541313296883  0.7598466434379459  0.4080972651896339
  0.5642717520579639  0.7940089087915668  0.4081275168546026
  0.5642655011393113  0.7711753847106277  0.4465188685545251
  0.5445638705258817  0.8340075904678461  0.4060519299294760
  0.5000434630608545  0.8082257682737783  0.4485872010484396
  0.4803245426158810  0.7967636870240525  0.5191904287699780
  0.5000314887716242  0.7567655591553167  0.5212659688899779
  0.5000420936837245  0.8309250610285692  0.5192202347687425
  0.4803292126797439  0.8195968883206988  0.4808003590508411
  0.5000455151358421  0.7854309990610226  0.4807760330311722
  0.5197568849454652  0.7967597403337046  0.5191976363960634
  0.5197631358641178  0.8195932644146436  0.4808062846961408
  0.5445518962366508  0.7825473813493845  0.4787306977710146
  0.5445496778223935  0.8338101238968550  0.5212659688899779
  0.5693298007143426  0.6941347666594372  0.4465116609284394
  0.5890473517821861  0.7282961406639540  0.4465414669272036
  0.5693344707782055  0.7169679679560834  0.4081215912093027
  0.5890507732343039  0.6828020786964074  0.4080972651896339
  0.5890487211593163  0.7055968479091628  0.3759084332069008
  0.6087621430439268  0.6941308199690891  0.4465188685545251
  0.6087683939625794  0.7169643440500285  0.4081275168546026
  0.6583446316697276  0.6941347666594372  0.4465116609284394
  0.6335549359208548  0.7311812035322398  0.4485872010484396
  0.6335571543351124  0.6799184609847692  0.4060519299294760
  0.6583493017335901  0.7169679679560834  0.4081215912093027
  0.6780621827375709  0.7282961406639540  0.4465414669272036
  0.5693224964889748  0.6655077588376217  0.4808003590508411
  0.5890353774929554  0.6768359315454924  0.5192202347687425
  0.6087564196733485  0.6655041349315669  0.4808062846961408
  0.5890485381412663  0.7055028166078461  0.4787306977710146
  0.6335429616316239  0.6797209944137781  0.5212659688899779
  0.6138360154758810  0.7197191222825140  0.5191904287699780
  0.6335569879958421  0.7083864343194843  0.4807760330311722
  0.6532683578054653  0.7197151755921661  0.5191976363960634
  0.6532746087241179  0.7425486996731054  0.4808062846961408
  0.6780502084483400  0.6768359315454924  0.5192202347687425
  0.6780633690966504  0.7055028166078461  0.4787306977710146
  0.6583373274443594  0.6655077588376217  0.4808003590508411
  0.6335669102100855  0.7826414126507013  0.3759084332069008
  0.5890605124304973  0.7569630257263077  0.4060519299294760
  0.6335787014812663  0.8340075904678461  0.4060519299294760
  0.5890723203804573  0.8368912081794843  0.4080972651896339
  0.6335689622850731  0.7598466434379459  0.4080972651896339
  0.6138526598289747  0.7940125326976218  0.4081215912093027
  0.6138479897651118  0.7711793314009757  0.4465116609284394
  0.6532865830133484  0.7940089087915668  0.4081275168546026
  0.6335655408329554  0.8053407054054924  0.4465414669272036
  0.6532803320946960  0.7711753847106277  0.4465188685545251
  0.5890582940162394  0.8082257682737783  0.4485872010484396
  0.5693393735712656  0.7967636870240525  0.5191904287699780
  0.5890463197270086  0.7567655591553167  0.5212659688899779
  0.5890603460912268  0.7854309990610226  0.4807760330311722
  0.5693440436351287  0.8195968883206988  0.4808003590508411
  0.5890569246391093  0.8309250610285692  0.5192202347687425
  0.6087717159008496  0.7967597403337046  0.5191976363960634
  0.6087779668195021  0.8195932644146436  0.4808062846961408
  0.6335645087777778  0.8338101238968550  0.5212659688899779
  0.6335535665437246  0.7538804962870308  0.5192202347687425
  0.6138406855397440  0.7425523235791605  0.4808003590508411
  0.6780611506823936  0.7567655591553167  0.5212659688899779
  0.6335667271920356  0.7825473813493845  0.4787306977710146
  0.6583588745905132  0.8195968883206988  0.4808003590508411
  0.6583542045266502  0.7967636870240525  0.5191904287699780
  0.5445746584560325  0.9082611236424155  0.3011839312441269
  0.5642894497177727  0.8740958029475507  0.3011613328714481
  0.5445780799081499  0.8627670616748689  0.2627397295065569
  0.5248571073881889  0.8740997496378987  0.3011541252453627
  0.5000696300535743  0.8598834439632309  0.2606943942463993
  0.4752746187623881  0.8740958029475507  0.3011613328714481
  0.5000674116393166  0.9111461865107012  0.3032296653653624
  0.5000554373500856  0.8596859773922397  0.3759084332069008
  0.4803531612582055  0.9225173065576219  0.3354428233677643
  0.4803484911943429  0.8996841052609755  0.3738328930869010
  0.4752688953918101  0.8454691179100284  0.3354487490130640
  0.5000660422621862  0.9338454792654924  0.3738626990856653
  0.5000694637143038  0.8883514172979459  0.3354184973480950
  0.5197808335239267  0.8996801585706277  0.3738401007129865
  0.5445626841668015  0.8568009145239539  0.3738626990856653
  0.5248498031628211  0.8454727418160832  0.3354428233677643
  0.5197870844425793  0.9225136826515667  0.3354487490130640
  0.5642837263471948  0.8454691179100284  0.3354487490130640
  0.5445758448151128  0.8854677995863078  0.3333731620879377
  0.5445736264008550  0.9367305421337783  0.3759084332069008
  0.6533042806731575  0.8740958029475507  0.3011613328714481
  0.6138719383435737  0.8740997496378987  0.3011541252453627
  0.6335929108635346  0.8627670616748689  0.2627397295065569
  0.5890844610089588  0.8598834439632309  0.2606943942463993
  0.6335775151221865  0.8568009145239539  0.3738626990856653
  0.6532985573025791  0.8454691179100284  0.3354487490130640
  0.6138646341182057  0.8454727418160832  0.3354428233677643
  0.6335906757704970  0.8854677995863078  0.3333731620879377
  0.5890702683054706  0.8596859773922397  0.3759084332069008
  0.5890842946696879  0.8883514172979459  0.3354184973480950
  0.6087956644793108  0.8996801585706277  0.3738401007129865
  0.6583781531051119  0.8996841052609755  0.3738328930869010
  0.5693633221497272  0.8996841052609755  0.3738328930869010
  0.5693679922135904  0.9225173065576219  0.3354428233677643
  0.5890808732175707  0.9338454792654924  0.3738626990856653
  0.4803411869689748  0.8710570974391602  0.4081215912093027
  0.4752722173300806  0.9252645141937045  0.4465188685545251
  0.5000672286212662  0.9110521552093847  0.4060519299294760
  0.5197688592346960  0.8482199494521662  0.4465188685545251
  0.5197751101533485  0.8710534735331054  0.4081275168546026
  0.5248547059558811  0.9252684608840525  0.4465116609284394
  0.5642870482854652  0.9252645141937045  0.4465188685545251
  0.5445756784758422  0.9139357729210227  0.4080972651896339
  0.4752602430408500  0.8738043050752431  0.5191976363960634
  0.5000530359177782  0.9108546886383937  0.5212659688899779
  0.5248474017305134  0.8966414530622371  0.4808003590508411
  0.5248427316666506  0.8738082517655911  0.5191904287699780
  0.5445602827344938  0.9079696257701078  0.5192202347687425
  0.5642813249148870  0.8966378291561823  0.4808062846961408
  0.5445616521116239  0.8852703330153167  0.4485872010484396
  0.5445637041866113  0.8624755638025612  0.4807760330311722
  0.5445734433828049  0.9366365108324617  0.4787306977710146
  0.5642750739962344  0.8738043050752431  0.5191976363960634
  0.4752784682487334  0.9480980382746437  0.4081275168546026
  0.5248593760197441  0.9481016621806988  0.4081215912093027
  0.4803460897620351  0.9508528165071295  0.5191904287699780
  0.5000670622819964  0.9395201285440996  0.4807760330311722
  0.5197784320916189  0.9508488698167814  0.5191976363960634
  0.6335905094312265  0.9139357729210227  0.4080972651896339
  0.5890820595766512  0.9110521552093847  0.4060519299294760
  0.5693560179243594  0.8710570974391602  0.4081215912093027
  0.6583708488797440  0.8710570974391602  0.4081215912093027
  0.6087899411087331  0.8710534735331054  0.4081275168546026
  0.5693513478604962  0.8482238961425143  0.4465116609284394
  0.6583661788158810  0.8482238961425143  0.4465116609284394
  0.6138695369112657  0.9252684608840525  0.4465116609284394
  0.6087836901900805  0.8482199494521662  0.4465188685545251
  0.6335785351419962  0.8624755638025612  0.4807760330311722
  0.5890700852874200  0.8595919460909230  0.4787306977710146
  0.6138575626220353  0.8738082517655911  0.5191904287699780
  0.5890688989283398  0.8823852701470308  0.4465414669272036
  0.6532899049516191  0.8738043050752431  0.5191976363960634
  0.6335764830670085  0.8852703330153167  0.4485872010484396
  0.6532961558702716  0.8966378291561823  0.4808062846961408
  0.6138622326858979  0.8966414530622371  0.4808003590508411
  0.6335751136898785  0.9079696257701078  0.5192202347687425
  0.5890678668731627  0.9108546886383937  0.5212659688899779
  0.6335882743381894  0.9366365108324617  0.4787306977710146
  0.5890818932373807  0.9395201285440996  0.4807760330311722
  0.6533018792408497  0.9252645141937045  0.4465188685545251
  0.5693609207174195  0.9508528165071295  0.5191904287699780
  0.7225861946727655  0.7086779321917919  0.2627397295065569
  0.7225841425977778  0.7314727014045476  0.2305508975238240
  0.6780777448181895  0.7057943144801537  0.2606943942463993
  0.7670925757735740  0.7057943144801537  0.2606943942463993
  0.7028698922166673  0.7428438214514681  0.2627640555262259
  0.7473665341212824  0.6657992567099295  0.2627640555262259
  0.7028652221528043  0.7200106201548219  0.3011541252453627
  0.7423038154010407  0.7428401975454129  0.2627699811715255
  0.6977856263502713  0.6657956328038748  0.2627699811715255
  0.7422975644823882  0.7200066734644739  0.3011613328714481
  0.7028579179274363  0.6913836123330064  0.3354428233677643
  0.6780775784789190  0.7342622878148690  0.3354184973480950
  0.6977889482885421  0.7455910290875507  0.3738401007129865
  0.6780645841698787  0.6771274294178001  0.3011839312441269
  0.7028532478635734  0.6685504110363604  0.3738328930869010
  0.7225721683085471  0.6800124922860860  0.3032296653653624
  0.7422855901931574  0.6685464643460123  0.3738401007129865
  0.7225839595797279  0.7313786701032307  0.3333731620879377
  0.7422918411118098  0.6913799884269515  0.3354487490130640
  0.7670924094343037  0.7342622878148690  0.3354184973480950
  0.7225827732206477  0.7541719941593386  0.3011839312441269
  0.6780861313160323  0.8312165589008770  0.3011839312441269
  0.7473834112035738  0.7970551848963604  0.3011541252453627
  0.6978071734964256  0.8198847622869515  0.2627699811715255
  0.6780895527681498  0.7857224969333304  0.2627397295065569
  0.6780875006931625  0.8085172661460858  0.2305508975238240
  0.7225959338689587  0.7828388792216923  0.2606943942463993
  0.6978009225777728  0.7970512382060123  0.3011613328714481
  0.7670903573593163  0.7570570570276244  0.3032296653653624
  0.7473714369143426  0.7455949757778988  0.3738328930869010
  0.6977951992071947  0.7684245531684899  0.3354487490130640
  0.7473761069782056  0.7684281770745450  0.3354428233677643
  0.6780755264039320  0.7570570570276244  0.3032296653653624
  0.6780873176751125  0.8084232348447692  0.3333731620879377
  0.7225957675296881  0.8113068525564072  0.3354184973480950
  0.7423071373393113  0.8226355938290892  0.3738401007129865
  0.7423133882579641  0.8454691179100284  0.3354487490130640
  0.7028747950097275  0.8226395405194373  0.3738328930869010
  0.7225937154547014  0.8341016217691629  0.3032296653653624
  0.8115976041760322  0.7541719941593386  0.3011839312441269
  0.8115869992639319  0.6800124922860860  0.3032296653653624
  0.7918847231720516  0.7428438214514681  0.2627640555262259
  0.7918800531081889  0.7200106201548219  0.3011541252453627
  0.7868004573056563  0.6657956328038748  0.2627699811715255
  0.8116010256281498  0.7086779321917919  0.2627397295065569
  0.8313123954377729  0.7200066734644739  0.3011613328714481
  0.8363813650766669  0.6657992567099295  0.2627640555262259
  0.8560942460806478  0.6771274294178001  0.3011839312441269
  0.7918680788189584  0.6685504110363604  0.3738328930869010
  0.8115890513389190  0.6572177230733304  0.3354184973480950
  0.8313004211485420  0.6685464643460123  0.3738401007129865
  0.8313066720671946  0.6913799884269515  0.3354487490130640
  0.7918727488828211  0.6913836123330064  0.3354428233677643
  0.8115987905351124  0.7313786701032307  0.3333731620879377
  0.8561072403896884  0.7342622878148690  0.3354184973480950
  0.7868037792439266  0.7455910290875507  0.3738401007129865
  0.8363862678697276  0.7455949757778988  0.3738328930869010
  0.7868157535331574  0.7970512382060123  0.3011613328714481
  0.7671043837235347  0.7857224969333304  0.2627397295065569
  0.7918896259651118  0.8226395405194373  0.3738328930869010
  0.7671021486304971  0.8084232348447692  0.3333731620879377
  0.7868100301625792  0.7684245531684899  0.3354487490130640
  0.8363909379335901  0.7684281770745450  0.3354428233677643
  0.7225697668762394  0.7311812035322398  0.4485872010484396
  0.6977832249179642  0.7169643440500285  0.4081275168546026
  0.6780635521147010  0.7055968479091628  0.3759084332069008
  0.6977769739993114  0.6941308199690891  0.4465188685545251
  0.6780656041896884  0.6828020786964074  0.4080972651896339
  0.7225707989314170  0.7027117850408771  0.3738626990856653
  0.7225719852904972  0.6799184609847692  0.4060519299294760
  0.7670804351450730  0.6828020786964074  0.4080972651896339
  0.7473594626251121  0.6941347666594372  0.4465116609284394
  0.7670770136929554  0.7282961406639540  0.4465414669272036
  0.7670783830700856  0.7055968479091628  0.3759084332069008
  0.7473641326889751  0.7169679679560834  0.4081215912093027
  0.7670650394037247  0.6768359315454924  0.5192202347687425
  0.6977712506287332  0.6655041349315669  0.4808062846961408
  0.7473521583997441  0.6655077588376217  0.4808003590508411
  0.7670782000520354  0.7055028166078461  0.4787306977710146
  0.7225577925870089  0.6797209944137781  0.5212659688899779
  0.7225718189512269  0.7083864343194843  0.4807760330311722
  0.7422831887608500  0.7197151755921661  0.5191976363960634
  0.7028508464312657  0.7197191222825140  0.5191904287699780
  0.7422894396795024  0.7425486996731054  0.4808062846961408
  0.7028555164951292  0.7425523235791605  0.4808003590508411
  0.7225683974991094  0.7538804962870308  0.5192202347687425
  0.7225935324366508  0.8340075904678461  0.4060519299294760
  0.7225837932404576  0.7598466434379459  0.4080972651896339
  0.6780753433858818  0.7569630257263077  0.4060519299294760
  0.6780871513358421  0.8368912081794843  0.4080972651896339
  0.7423014139687332  0.7940089087915668  0.4081275168546026
  0.6780741570268016  0.7797563497824156  0.3738626990856653
  0.7225817411654702  0.7826414126507013  0.3759084332069008
  0.7028674907843593  0.7940125326976218  0.4081215912093027
  0.7225803717883401  0.8053407054054924  0.4465414669272036
  0.7422951630500804  0.7711753847106277  0.4465188685545251
  0.7670889879821864  0.7797563497824156  0.3738626990856653
  0.7028628207204968  0.7711793314009757  0.4465116609284394
  0.6977865468562346  0.7967597403337046  0.5191976363960634
  0.6780731249716239  0.8082257682737783  0.4485872010484396
  0.6780751770466116  0.7854309990610226  0.4807760330311722
  0.6780717555944938  0.8309250610285692  0.5192202347687425
  0.6977927977748869  0.8195932644146436  0.4808062846961408
  0.7225793397331628  0.8338101238968550  0.5212659688899779
  0.7225815581474203  0.7825473813493845  0.4787306977710146
  0.7473690354820351  0.7967636870240525  0.5191904287699780
  0.7670759816377781  0.7567655591553167  0.5212659688899779
  0.7670865865498787  0.8309250610285692  0.5192202347687425
  0.8560952661004575  0.6828020786964074  0.4080972651896339
  0.8560932140254706  0.7055968479091628  0.3759084332069008
  0.8115856298868017  0.7027117850408771  0.3738626990856653
  0.8115868162458817  0.6799184609847692  0.4060519299294760
  0.8363789636443594  0.7169679679560834  0.4081215912093027
  0.8758128868287335  0.7169643440500285  0.4081275168546026
  0.7867980558733487  0.7169643440500285  0.4081275168546026
  0.8758066359100807  0.6941308199690891  0.4465188685545251
  0.8560918446483400  0.7282961406639540  0.4465414669272036
  0.8115845978316240  0.7311812035322398  0.4485872010484396
  0.7867918049546959  0.6941308199690891  0.4465188685545251
  0.8363742935804968  0.6941347666594372  0.4465116609284394
  0.8560798703591094  0.6768359315454924  0.5192202347687425
  0.8363669893551289  0.6655077588376217  0.4808003590508411
  0.8758009125395027  0.6655041349315669  0.4808062846961408
  0.7867860815841180  0.6655041349315669  0.4808062846961408
  0.8560930310074200  0.7055028166078461  0.4787306977710146
  0.8115866499066117  0.7083864343194843  0.4807760330311722
  0.8115832284544940  0.7538804962870308  0.5192202347687425
  0.8313042706348871  0.7425486996731054  0.4808062846961408
  0.7918703474505135  0.7425523235791605  0.4808003590508411
  0.8560908125931627  0.7567655591553167  0.5212659688899779
  0.7918776516758814  0.7711793314009757  0.4465116609284394
  0.7670901743412666  0.7569630257263077  0.4060519299294760
  0.7671019822912268  0.8368912081794843  0.4080972651896339
  0.7918823217397440  0.7940125326976218  0.4081215912093027
  0.8115952027437247  0.8053407054054924  0.4465414669272036
  0.8115965721208552  0.7826414126507013  0.3759084332069008
  0.8115986241958424  0.7598466434379459  0.4080972651896339
  0.8313162449241179  0.7940089087915668  0.4081275168546026
  0.8313099940054653  0.7711753847106277  0.4465188685545251
  0.8561050052966511  0.7569630257263077  0.4060519299294760
  0.7868013778116192  0.7967597403337046  0.5191976363960634
  0.7670900080019961  0.7854309990610226  0.4807760330311722
  0.8115941706885473  0.8338101238968550  0.5212659688899779
  0.8115963891028046  0.7825473813493845  0.4787306977710146
  0.8363838664374195  0.7967636870240525  0.5191904287699780
  0.8561048389573809  0.7854309990610226  0.4807760330311722
  0.6780850992608551  0.8596859773922397  0.3759084332069008
  0.6780991256250730  0.8883514172979459  0.3354184973480950
  0.7225923460775711  0.8568009145239539  0.3738626990856653
  0.7028794650735902  0.8454727418160832  0.3354428233677643
  0.6780968905320357  0.9110521552093847  0.4060519299294760
  0.7473856798351287  0.8710570974391602  0.4081215912093027
  0.6978047720641178  0.8710534735331054  0.4081275168546026
  0.6977985211454653  0.8482199494521662  0.4465188685545251
  0.6780837298837246  0.8823852701470308  0.4465414669272036
  0.7225913140223933  0.8852703330153167  0.4485872010484396
  0.6780849162428048  0.8595919460909230  0.4787306977710146
  0.7225933660973808  0.8624755638025612  0.4807760330311722
  0.7028770636412827  0.8966414530622371  0.4808003590508411
  0.7423047359070039  0.8738043050752431  0.5191976363960634
  0.6780826978285472  0.9108546886383937  0.5212659688899779
  0.7028723935774196  0.8738082517655911  0.5191904287699780
  0.8808829097743427  0.6685504110363604  0.3738328930869010
  0.8808875798382054  0.6913836123330064  0.3354428233677643
  0.9006038822943038  0.6572177230733304  0.3354184973480950
  0.9006016472012662  0.6799184609847692  0.4060519299294760
  0.9005874544977780  0.6797209944137781  0.5212659688899779
  0.8808805083420350  0.7197191222825140  0.5191904287699780
  0.8808851784058983  0.7425523235791605  0.4808003590508411
  0.9006014808619960  0.7083864343194843  0.4807760330311722
  0.9253818203105132  0.6655077588376217  0.4808003590508411
  0.1438965812775707  0.2145685430962616  0.5192202347687425
  0.1191147306346961  0.2574477871429353  0.5191976363960634
  0.0746180887300807  0.3344923518844739  0.5191976363960634
  0.0993999393729554  0.2916131078378000  0.5192202347687425
  0.0549260309735741  0.4999534780063076  0.5514094656125530
  0.0797181783720518  0.5370029849776219  0.5534791268923799
  0.0797135083081889  0.5141697836809757  0.5918691966115164
  0.0994442200243429  0.5769980427478459  0.5514094656125530
  0.0994310593760322  0.5483311576854925  0.5918990026102811
  0.0549378389235343  0.5798816604594843  0.5534548008727108
  0.0746492087331572  0.5912104017321661  0.5918764042376020
  0.0746554596518102  0.6140439258131054  0.5534850525376794
  0.0994560279743036  0.6569262252010227  0.5534548008727108
  0.0549238125593163  0.5512162205537783  0.5939447367315165
  0.0994322457351126  0.5255378336293846  0.6240882334540916
  0.0797062040828209  0.4855427758591602  0.6261578947339183
  0.0746434853625793  0.5625837166946438  0.6261638203792179
  0.0994320793958422  0.5540058069640996  0.6988123365557876
  0.0994300273208546  0.5768005761768552  0.6666235045730549
  0.0994440536850729  0.6054660160825613  0.6261335687142492
  0.0994420016100856  0.6282607852953166  0.5939447367315165
  0.0797277512289750  0.6396319053422372  0.6261578947339183
  0.0994406322329552  0.6509600780501077  0.6645777704518194
  0.0994526065221861  0.7024202871685694  0.5918990026102811
  0.0994537928812663  0.6796269631124615  0.6240882334540916
  0.1439372741375703  0.5739155133085693  0.6645777704518194
  0.1242243931335901  0.5625873406006987  0.6261578947339183
  0.1242197230697274  0.5397541393040526  0.6645479644530550
  0.1242124188443592  0.5111271314822372  0.6988366625754568
  0.1439384604966509  0.5511221892524615  0.6967670012956300
  0.1242363674228208  0.6140475497191603  0.5534791268923799
  0.1687306078951284  0.5881716962237756  0.6988366625754568
  0.1242316973589581  0.5912143484225141  0.5918691966115164
  0.1191497001241173  0.5881680723177207  0.6988425882207565
  0.1439504347858814  0.6025823983709230  0.6240882334540916
  0.1191554234946957  0.6167947573552430  0.6645551720791406
  0.1687379121204966  0.6167987040455911  0.6645479644530550
  0.1884554631883395  0.6509600780501077  0.6645777704518194
  0.1191673977839264  0.6682549664737046  0.5918764042376020
  0.1687498864097274  0.6682589131640526  0.5918691966115164
  0.1191616744133487  0.6396282814361823  0.6261638203792179
  0.1439624090751123  0.6540426074893846  0.5514094656125530
  0.1687425821843593  0.6396319053422372  0.6261578947339183
  0.1439492484268015  0.6253757224270310  0.5918990026102811
  0.1439482163716239  0.6538451409183936  0.6666235045730549
  0.1242339659905135  0.6652162609653143  0.6988366625754568
  0.1636678891748868  0.6652126370592593  0.6988425882207565
  0.2132487969458976  0.6652162609653143  0.6988366625754568
  0.1439502684466114  0.6310503717056380  0.6988123365557876
  0.1884566495474199  0.6281667539939999  0.6967670012956300
  0.1884674374775707  0.7024202871685694  0.5918990026102811
  0.1439742170250728  0.7339707899425612  0.5534548008727108
  0.1687545564735903  0.6910921144606988  0.5534791268923799
  0.1191736487025789  0.6910884905546437  0.5534850525376794
  0.1884805981258815  0.7310871722309229  0.5514094656125530
  0.2132607712351285  0.7166764700837757  0.6261578947339183
  0.1439622427358421  0.6825105808240997  0.6261335687142492
  0.1884686238366508  0.6796269631124615  0.6240882334540916
  0.1439601906608548  0.7053053500368551  0.5939447367315165
  0.1636798634641177  0.7166728461777209  0.6261638203792179
  0.1242459402797442  0.7166764700837757  0.6261578947339183
  0.1242412702158813  0.6938432687871295  0.6645479644530550
  0.1439588212837244  0.7280046427916462  0.6645777704518194
  0.1636736125454649  0.6938393220967816  0.6645551720791406
  0.1439600076428050  0.7052113187355382  0.6967670012956300
  0.1687521550412827  0.7422608257068526  0.6988366625754568
  0.1884664054223931  0.7308897056599321  0.6666235045730549
  0.1884684574973804  0.7080949364471766  0.6988123365557876
  0.2081860782256558  0.7422572018007976  0.6988425882207565
  0.2329736522391093  0.7280046427916462  0.6645777704518194
  0.2577669859966669  0.7422608257068526  0.6988366625754568
  0.2329748385981890  0.7052113187355382  0.6967670012956300
  0.2132561011712659  0.6938432687871295  0.6645479644530550
  0.1884434888991090  0.5994998689316463  0.7372565382933578
  0.1884446752581894  0.5767065448755384  0.7694457691371686
  0.1439382941573805  0.5795901625871767  0.7714911043973262
  0.1439362420823931  0.6023849317999321  0.7393022724145932
  0.1687259378312659  0.5653384949271295  0.7372267322945933
  0.1687186336058979  0.5367114871053141  0.7715154304169952
  0.2132368226566671  0.6137560518468526  0.7715154304169952
  0.1636559148856563  0.6137524279407977  0.7715213560622949
  0.2132321525928042  0.5909228505502064  0.8099055001361318
  0.1884424568439319  0.6279692874230091  0.8119810402561316
  0.2329497036606479  0.6250842245547232  0.8099353061348961
  0.1636616382562342  0.6423791129783200  0.7372339399206790
  0.1884564832081497  0.6566347273287151  0.7714911043973262
  0.2081678530177725  0.6679634686013970  0.8099127077622176
  0.2132441268820351  0.6423830596686679  0.7372267322945933
  0.2329616779498784  0.6765444336731848  0.7372565382933578
  0.2577503416435736  0.6679674152917450  0.8099055001361318
  0.2329628643089585  0.6537511096170767  0.7694457691371686
  0.1884544311331624  0.6794294965414707  0.7393022724145932
  0.2577623159328040  0.7194276244102065  0.7372267322945933
  0.2081798273070034  0.7194236777198585  0.7372339399206790
  0.2329746722589190  0.7336792920702535  0.7714911043973262
  0.2774810533597278  0.7307956743586156  0.7694457691371686
  0.2577550117074365  0.6908006165883911  0.7715154304169952
  0.2081741039364253  0.6907969926823361  0.7715213560622949
  0.3022685306943428  0.7450119800332835  0.8099055001361318
  0.2774678927114171  0.7021287892962617  0.8099353061348961
  0.2329606458947012  0.7050138521645474  0.8119810402561316
  0.1439719819320355  0.7566715278540000  0.6240882334540916
  0.1242532445051118  0.7453034779055913  0.5918691966115164
  0.1636855868346958  0.7452995312152431  0.5918764042376020
  0.1636918377533486  0.7681330552961823  0.5534850525376794
  0.1884783797116242  0.7823499147783936  0.5939447367315165
  0.1884804317866113  0.7595551455656382  0.6261335687142492
  0.1687594592666503  0.7708878335286681  0.6645479644530550
  0.1687641293305134  0.7937210348253142  0.6261578947339183
  0.2577862645112659  0.8223480426471295  0.5918691966115164
  0.2132680754604966  0.7453034779055913  0.5918691966115164
  0.1884924060758420  0.8110153546840995  0.5534548008727108
  0.2329987871766509  0.8081317369724614  0.5514094656125530
  0.2132727455243595  0.7681366792022372  0.5534791268923799
  0.2082100268041178  0.8451776200377206  0.5534850525376794
  0.2577909345751288  0.8451812439437757  0.5534791268923799
  0.2082037758854650  0.8223440959567816  0.5918764042376020
  0.2329856265283402  0.7794648519101078  0.5918990026102811
  0.2329868128874199  0.7566715278540000  0.6240882334540916
  0.2329845944731622  0.8079342704014706  0.6666235045730549
  0.2329866465481499  0.7851395011887152  0.6988123365557876
  0.2081918015962341  0.7708838868383199  0.6645551720791406
  0.2081980525148869  0.7937174109192593  0.6261638203792179
  0.2329986208373808  0.8365997103071766  0.6261335687142492
  0.2577742902220350  0.7708878335286681  0.6645479644530550
  0.2527042672764253  0.8193017665423362  0.6988425882207565
  0.2774918412898785  0.8050492075331848  0.6645777704518194
  0.2577789602858979  0.7937210348253142  0.6261578947339183
  0.2774930276489587  0.7822558834770768  0.6967670012956300
  0.3022851750474366  0.8193053904483910  0.6988366625754568
  0.2775050019381896  0.8337160925955385  0.6240882334540916
  0.2774798670006476  0.7535889984147232  0.7372565382933578
  0.2526980163577727  0.7964682424613968  0.7372339399206790
  0.2329726201839317  0.7564740612830090  0.7393022724145932
  0.2526922929871948  0.7678415574238747  0.7715213560622949
  0.3219980560514168  0.8306335631562617  0.7372565382933578
  0.3022805049835737  0.7964721891517448  0.7372267322945933
  0.3219992424104970  0.8078402391001537  0.7694457691371686
  0.3022732007582057  0.7678451813299295  0.7715154304169952
  0.3219860817621863  0.7791733540378001  0.8099353061348961
  0.2329965687623936  0.8593944795199321  0.5939447367315165
  0.2775169762274201  0.8851763017139997  0.5514094656125530
  0.2775038155791090  0.8565094166516463  0.5918990026102811
  0.3023044535620351  0.8993926073886681  0.5918691966115164
  0.2527099906470037  0.8479284515798585  0.6645551720791406
  0.3220112166997279  0.8593004482186153  0.6967670012956300
  0.3022924792728046  0.8479323982702065  0.6645479644530550
  0.3220100303406473  0.8820937722747231  0.6645777704518194
  0.3022971493366675  0.8707655995668526  0.6261578947339183
  0.2132248483674362  0.5622958427283909  0.8441941982585338
  0.2329508900197276  0.6022909004986152  0.8421245369787069
  0.2577430374182055  0.6393404074699295  0.8441941982585338
  0.2774690790704968  0.6793354652401539  0.8421245369787069
  0.3022612264689747  0.7163849722114679  0.8441941982585338
  0.0797015340189581  0.4627095745625140  0.6645479644530550
  0.0549128703252630  0.4712865929439540  0.5918990026102811
  0.0994202714458818  0.4740776245109229  0.6967670012956300
  0.0994190850868017  0.4968709485670308  0.6645777704518194
  0.0746372344439267  0.5397501926137047  0.6645551720791406
  0.1242077487804968  0.4882939301855907  0.7372267322945933
  0.1191434492054650  0.5653345482367816  0.7372339399206790
  0.1439252998483398  0.5224553041901078  0.7372565382933578
  0.1687139635420347  0.5138782858086678  0.8099055001361318
  0.1439264862074201  0.4996619801339998  0.7694457691371686
  0.1884315146098788  0.5480396598131848  0.8099353061348961
  0.0549368189037243  0.5742070111808770  0.4465414669272036
  0.0549248446144943  0.5227468020624154  0.5192202347687425
  0.0549380052628045  0.5514136871247691  0.4787306977710146
  0.0797254825974195  0.5656299927994372  0.5191904287699780
  0.0797421269505133  0.6399234032145448  0.4081215912093027
  0.0797374568866504  0.6170902019178989  0.4465116609284394
  0.0994550079544935  0.6512515759224156  0.4465414669272036
  0.0549357868485471  0.6026764296722398  0.5212659688899779
  0.0746611830223882  0.6426706108506279  0.5191976363960634
  0.0746674339410408  0.6655041349315669  0.4808062846961408
  0.0994561943135737  0.6284582518663077  0.4787306977710146
  0.1242436716481887  0.6426745575409759  0.5191904287699780
  0.0994430336652635  0.5997913668039538  0.5192202347687425
  0.0797301526612824  0.5884631940960834  0.4808003590508411
  0.0994681686028046  0.6799184609847692  0.4060519299294760
  0.1242556459374196  0.6941347666594372  0.4465116609284394
  0.1439863576535738  0.7569630257263077  0.4060519299294760
  0.1242603160012825  0.7169679679560834  0.4081215912093027
  0.1687738349881888  0.7711793314009757  0.4465116609284394
  0.0994539758993164  0.6797209944137781  0.5212659688899779
  0.0994680022635342  0.7083864343194843  0.4807760330311722
  0.1439743833643429  0.7055028166078461  0.4787306977710146
  0.1242483417120516  0.6655077588376217  0.4808003590508411
  0.1439612227160327  0.6768359315454924  0.5192202347687425
  0.1687618606989579  0.7197191222825140  0.5191904287699780
  0.1191793720731574  0.7197151755921661  0.5191976363960634
  0.1439731970052636  0.7282961406639540  0.4465414669272036
  0.1687665307628213  0.7425523235791605  0.4808003590508411
  0.1191856229918100  0.7425486996731054  0.4808062846961408
  0.1884794117668015  0.7538804962870308  0.5192202347687425
  0.1439721649500860  0.7567655591553167  0.5212659688899779
  0.1884925724151126  0.7825473813493845  0.4787306977710146
  0.1439861913143038  0.7854309990610226  0.4807760330311722
  0.1687785050520517  0.7940125326976218  0.4081215912093027
  0.2132920240389581  0.8482238961425143  0.4465116609284394
  0.1636975611239266  0.7967597403337046  0.5191976363960634
  0.1884913860560328  0.8053407054054924  0.4465414669272036
  0.1884903540008552  0.8338101238968550  0.5212659688899779
  0.2132800497497276  0.7967636870240525  0.5191904287699780
  0.2330107614658818  0.8595919460909230  0.4787306977710146
  0.2329976008175707  0.8309250610285692  0.5192202347687425
  0.2577982388004968  0.8738082517655911  0.5191904287699780
  0.2132847198135900  0.8195968883206988  0.4808003590508411
  0.0746339125056562  0.4599547963300284  0.5534850525376794
  0.1191458506377728  0.5141658369906277  0.5918764042376020
  0.1687283392635734  0.5141697836809757  0.5918691966115164
  0.0994204544639318  0.4741716558122398  0.5939447367315165
  0.0994344808281498  0.5028370957179459  0.5534548008727108
  0.1687210350382055  0.4855427758591602  0.6261578947339183
  0.1191401272671946  0.4855391519531054  0.6261638203792179
  0.1636520653993113  0.5397501926137047  0.6645551720791406
  0.1884470766904971  0.5255378336293846  0.6240882334540916
  0.2132345540251118  0.5397541393040526  0.6645479644530550
  0.1884339160421862  0.4968709485670308  0.6645777704518194
  0.1439266692254702  0.4997560114353167  0.6666235045730549
  0.1439406955896883  0.5284214513410228  0.6261335687142492
  0.2132272497997441  0.5111271314822372  0.6988366625754568
  0.1636463420287331  0.5111235075761824  0.6988425882207565
  0.2081582801608498  0.5653345482367816  0.7372339399206790
  0.2329532914520356  0.5511221892524615  0.6967670012956300
  0.2329401308037245  0.5224553041901078  0.7372565382933578
  0.1884328839870087  0.5253403670583936  0.7393022724145932
  0.1884469103512267  0.5540058069640996  0.6988123365557876
  0.2577334645612826  0.5367114871053141  0.7715154304169952
  0.2081525567902715  0.5367078631992593  0.7715213560622949
  0.2526644949223881  0.5909189038598585  0.8099127077622176
  0.3022469835481887  0.5909228505502064  0.8099055001361318
  0.2774463455652632  0.5480396598131848  0.8099353061348961
  0.2329390987485471  0.5509247226814705  0.8119810402561316
  0.3022396793228211  0.5622958427283909  0.8441941982585338
  0.2526587715518103  0.5622922188223362  0.8442001239038335
  0.2971707096839264  0.6165032594829355  0.8825914756037559
  0.3219657209751124  0.6022909004986152  0.8421245369787069
  0.3467531983097272  0.6165072061732834  0.8825842679776702
  0.3219525603268015  0.5736240154362616  0.8826140739764347
  0.2774453135100856  0.5765090783045475  0.8846598080976704
  0.2774593398743037  0.6051745182102536  0.8441698722388645
  0.3467458940843594  0.5878801983514680  0.9168729661000723
  0.3664719357366509  0.6278752561216923  0.9148033048202455
  0.1191521015564253  0.5369993610715669  0.5534850525376794
  0.1636640396885420  0.5912104017321661  0.5918764042376020
  0.1884590509797279  0.5769980427478459  0.5514094656125530
  0.2132465283143426  0.5912143484225141  0.5918691966115164
  0.1884458903314169  0.5483311576854925  0.5918990026102811
  0.1439386435147011  0.5512162205537783  0.5939447367315165
  0.1439526698789191  0.5798816604594843  0.5534548008727108
  0.2132392240889746  0.5625873406006987  0.6261578947339183
  0.1636583163179638  0.5625837166946438  0.6261638203792179
  0.2081702544500806  0.6167947573552430  0.6645551720791406
  0.2329652657412663  0.6025823983709230  0.6240882334540916
  0.2329521050929554  0.5739155133085693  0.6645777704518194
  0.1884448582762395  0.5768005761768552  0.6666235045730549
  0.1884588846404575  0.6054660160825613  0.6261335687142492
  0.2577454388505133  0.5881716962237756  0.6988366625754568
  0.2081645310795023  0.5881680723177207  0.6988425882207565
  0.2526764692116191  0.6423791129783200  0.7372339399206790
  0.2774714805028048  0.6281667539939999  0.6967670012956300
  0.3022589578374196  0.6423830596686679  0.7372267322945933
  0.2774583198544939  0.5994998689316463  0.7372565382933578
  0.2329510730377780  0.6023849317999321  0.7393022724145932
  0.2329650994019958  0.6310503717056380  0.6988123365557876
  0.3022516536120516  0.6137560518468526  0.7715154304169952
  0.2971826839731574  0.6679634686013970  0.8099127077622176
  0.3219776952643433  0.6537511096170767  0.7694457691371686
  0.3467651725989581  0.6679674152917450  0.8099055001361318
  0.3219645346160326  0.6250842245547232  0.8099353061348961
  0.2774572877993163  0.6279692874230091  0.8119810402561316
  0.2774713141635345  0.6566347273287151  0.7714911043973262
  0.3467578683735903  0.6393404074699295  0.8441941982585338
  0.2971769606025793  0.6393367835638747  0.8442001239038335
  0.3416888987346959  0.6935478242244738  0.8825914756037559
  0.3664839100258818  0.6793354652401539  0.8421245369787069
  0.3912713873604964  0.6935517709148219  0.8825842679776702
  0.3664707493775705  0.6506685801778002  0.8826140739764347
  0.3219635025608548  0.6535536430460860  0.8846598080976704
  0.3219775289250729  0.6822190829517920  0.8441698722388645
  0.3912640831351286  0.6649247630930065  0.9168729661000723
  0.2132511983782057  0.6140475497191603  0.5534791268923799
  0.1636702906071946  0.6140439258131054  0.5534850525376794
  0.2081822287393112  0.6682549664737046  0.5918764042376020
  0.2329772400304972  0.6540426074893846  0.5514094656125530
  0.2577647173651118  0.6682589131640526  0.5918691966115164
  0.2329640793821861  0.6253757224270310  0.5918990026102811
  0.1884568325654702  0.6282607852953166  0.5939447367315165
  0.1884708589296881  0.6569262252010227  0.5534548008727108
  0.2577574131397442  0.6396319053422372  0.6261578947339183
  0.2081765053687331  0.6396282814361823  0.6261638203792179
  0.2526884435008498  0.6938393220967816  0.6645551720791406
  0.2774834547920355  0.6796269631124615  0.6240882334540916
  0.3022709321266503  0.6938432687871295  0.6645479644530550
  0.2774702941437246  0.6509600780501077  0.6645777704518194
  0.2329630473270087  0.6538451409183936  0.6666235045730549
  0.2329770736912267  0.6825105808240997  0.6261335687142492
  0.3022636279012825  0.6652162609653143  0.6988366625754568
  0.2526827201302717  0.6652126370592593  0.6988425882207565
  0.2971946582623883  0.7194236777198585  0.7372339399206790
  0.3219896695535740  0.7052113187355382  0.6967670012956300
  0.3467771468881888  0.7194276244102065  0.7372267322945933
  0.3219765089052631  0.6765444336731848  0.7372565382933578
  0.2774692620885473  0.6794294965414707  0.7393022724145932
  0.2774832884527653  0.7080949364471766  0.6988123365557876
  0.3467698426628210  0.6908006165883911  0.7715154304169952
  0.2971889348918099  0.6907969926823361  0.7715213560622949
  0.3417008730239268  0.7450080333429354  0.8099127077622176
  0.3664958843151125  0.7307956743586156  0.7694457691371686
  0.3912833616497273  0.7450119800332835  0.8099055001361318
  0.3664827236668015  0.7021287892962617  0.8099353061348961
  0.3219754768500858  0.7050138521645474  0.8119810402561316
  0.3219895032143038  0.7336792920702535  0.7714911043973262
  0.3912760574243595  0.7163849722114679  0.8441941982585338
  0.3416951496533485  0.7163813483054131  0.8442001239038335
  0.4110020990766508  0.7563800299816922  0.8421245369787069
  0.4109889384283397  0.7277131449193386  0.8826140739764347
  0.3664957179758421  0.7592636476933303  0.8441698722388645
  0.2577693874289749  0.6910921144606988  0.5534791268923799
  0.2081884796579638  0.6910884905546437  0.5534850525376794
  0.2527004177900805  0.7452995312152431  0.5918764042376020
  0.2774954290812664  0.7310871722309229  0.5514094656125530
  0.3022829064158812  0.7453034779055913  0.5918691966115164
  0.2774822684329555  0.7024202871685694  0.5918990026102811
  0.2329750216162394  0.7053053500368551  0.5939447367315165
  0.2329890479804574  0.7339707899425612  0.5534548008727108
  0.3022756021905134  0.7166764700837757  0.6261578947339183
  0.2526946944195023  0.7166728461777209  0.6261638203792179
  0.2972066325516190  0.7708838868383199  0.6645551720791406
  0.3220016438428047  0.7566715278540000  0.6240882334540916
  0.3467891211774197  0.7708878335286681  0.6645479644530550
  0.3219884831944941  0.7280046427916462  0.6645777704518194
  0.2774812363777779  0.7308897056599321  0.6666235045730549
  0.2774952627419960  0.7595551455656382  0.6261335687142492
  0.3467818169520517  0.7422608257068526  0.6988366625754568
  0.2972009091810409  0.7422572018007976  0.6988425882207565
  0.3417128473131575  0.7964682424613968  0.7372339399206790
  0.3665078586043432  0.7822558834770768  0.6967670012956300
  0.3912953359389580  0.7964721891517448  0.7372267322945933
  0.3664946979560323  0.7535889984147232  0.7372565382933578
  0.3219874511393165  0.7564740612830090  0.7393022724145932
  0.3220014775035345  0.7851395011887152  0.6988123365557876
  0.3912880317135900  0.7678451813299295  0.7715154304169952
  0.3417071239425792  0.7678415574238747  0.7715213560622949
  0.3862190620746958  0.8220525980844740  0.8099127077622176
  0.4110140733658817  0.8078402391001537  0.7694457691371686
  0.4358015507004965  0.8220565447748219  0.8099055001361318
  0.4110009127175709  0.7791733540378001  0.8099353061348961
  0.3664936659008547  0.7820584169060859  0.8119810402561316
  0.3665076922650730  0.8107238568117920  0.7714911043973262
  0.4357942464751288  0.7934295369530063  0.8441941982585338
  0.3022875764797439  0.7681366792022372  0.5534791268923799
  0.2527066687087330  0.7681330552961823  0.5534850525376794
  0.2972186068408497  0.8223440959567816  0.5918764042376020
  0.3220136181320357  0.8081317369724614  0.5514094656125530
  0.3468010954666502  0.8223480426471295  0.5918691966115164
  0.3220004574837245  0.7794648519101078  0.5918990026102811
  0.2774932106670087  0.7823499147783936  0.5939447367315165
  0.2775072370312267  0.8110153546840995  0.5534548008727108
  0.3467937912412826  0.7937210348253142  0.6261578947339183
  0.2972128834702716  0.7937174109192593  0.6261638203792179
  0.3417248216023882  0.8479284515798585  0.6645551720791406
  0.3665198328935739  0.8337160925955385  0.6240882334540916
  0.3913073102281889  0.8479323982702065  0.6645479644530550
  0.3665066722452631  0.8050492075331848  0.6645777704518194
  0.3219994254285471  0.8079342704014706  0.6666235045730549
  0.3220134517927652  0.8365997103071766  0.6261335687142492
  0.3913000060028209  0.8193053904483910  0.6988366625754568
  0.3417190982318101  0.8193017665423362  0.6988425882207565
  0.3862310363639267  0.8735128072029353  0.7372339399206790
  0.4110260476551125  0.8593004482186153  0.6967670012956300
  0.4358135249897273  0.8735167538932834  0.7372267322945933
  0.4110128870068016  0.8306335631562617  0.7372565382933578
  0.3665056401900857  0.8335186260245475  0.7393022724145932
  0.3665196665543035  0.8621840659302533  0.6988123365557876
  0.4358062207643592  0.8448897460714681  0.7715154304169952
  0.3862253129933484  0.8448861221654130  0.7715213560622949
  0.3468057655305133  0.8451812439437757  0.5534791268923799
  0.2972248577595022  0.8451776200377206  0.5534850525376794
  0.3417367958916189  0.8993886606983200  0.5918764042376020
  0.3665318071828049  0.8851763017139997  0.5514094656125530
  0.3913192845174197  0.8993926073886681  0.5918691966115164
  0.3665186465344938  0.8565094166516463  0.5918990026102811
  0.3220113997177779  0.8593944795199321  0.5939447367315165
  0.3220254260819961  0.8880599194256381  0.5534548008727108
  0.3913119802920518  0.8707655995668526  0.6261578947339183
  0.3417310725210408  0.8707619756607977  0.6261638203792179
  0.4110380219443431  0.9107606573370768  0.6240882334540916
  0.4358254992789582  0.9249769630117450  0.6645479644530550
  0.4110248612960323  0.8820937722747231  0.6645777704518194
  0.3665176144793164  0.8849788351430089  0.6666235045730549
  0.3665316408435344  0.9136442750487150  0.6261335687142492
  0.4358181950535904  0.8963499551899295  0.6988366625754568
  0.3862372872825793  0.8963463312838745  0.6988425882207565
  0.2132296512320517  0.4599584202360833  0.5534791268923799
  0.1636487434610408  0.4599547963300284  0.5534850525376794
  0.2081606815931574  0.5141658369906277  0.5918764042376020
  0.2329556928843433  0.4999534780063076  0.5514094656125530
  0.2577431702189579  0.5141697836809757  0.5918691966115164
  0.1884352854193163  0.4741716558122398  0.5939447367315165
  0.1884493117835343  0.5028370957179459  0.5534548008727108
  0.2577358659935901  0.4855427758591602  0.6261578947339183
  0.2526668963546961  0.5397501926137047  0.6645551720791406
  0.2774619076458816  0.5255378336293846  0.6240882334540916
  0.3022493849804964  0.5397541393040526  0.6645479644530550
  0.2774487469975707  0.4968709485670308  0.6645777704518194
  0.2329415001808549  0.4997560114353167  0.6666235045730549
  0.2329555265450728  0.5284214513410228  0.6261335687142492
  0.3022420807551288  0.5111271314822372  0.6988366625754568
  0.2526611729841178  0.5111235075761824  0.6988425882207565
  0.2971731111162342  0.5653345482367816  0.7372339399206790
  0.3219681224074203  0.5511221892524615  0.6967670012956300
  0.3467555997420350  0.5653384949271295  0.7372267322945933
  0.3219549617591093  0.5224553041901078  0.7372565382933578
  0.2774477149423931  0.5253403670583936  0.7393022724145932
  0.2774617413066114  0.5540058069640996  0.6988123365557876
  0.3467482955166671  0.5367114871053141  0.7715154304169952
  0.2971673877456563  0.5367078631992593  0.7715213560622949
  0.3416793258777727  0.5909189038598585  0.8099127077622176
  0.3664743371689584  0.5767065448755384  0.7694457691371686
  0.3912618145035734  0.5909228505502064  0.8099055001361318
  0.3219539297039317  0.5509247226814705  0.8119810402561316
  0.3219679560681499  0.5795901625871767  0.7714911043973262
  0.3416736025071948  0.5622922188223362  0.8442001239038335
  0.3861855406393112  0.6165032594829355  0.8825914756037559
  0.4109805519304972  0.6022909004986152  0.8421245369787069
  0.4357680292651118  0.6165072061732834  0.8825842679776702
  0.4109673912821861  0.5736240154362616  0.8826140739764347
  0.3664601444654702  0.5765090783045475  0.8846598080976704
  0.3664741708296884  0.6051745182102536  0.8441698722388645
  0.4357607250397442  0.5878801983514680  0.9168729661000723
  0.3861798172687331  0.5878765744454131  0.9168788917453718
  0.4554867666920355  0.6278752561216923  0.9148033048202455
  0.4109803855912267  0.6307588738333304  0.9168486400804030
  0.2577478402828210  0.5370029849776219  0.5534791268923799
  0.2081669325118098  0.5369993610715669  0.5534850525376794
  0.2526788706439266  0.5912104017321661  0.5918764042376020
  0.2774738819351125  0.5769980427478459  0.5514094656125530
  0.3022613592697271  0.5912143484225141  0.5918691966115164
  0.2774607212868017  0.5483311576854925  0.5918990026102811
  0.2329534744700855  0.5512162205537783  0.5939447367315165
  0.2329675008343036  0.5798816604594843  0.5534548008727108
  0.3022540550443593  0.5625873406006987  0.6261578947339183
  0.2526731472733484  0.5625837166946438  0.6261638203792179
  0.3219800966966506  0.6025823983709230  0.6240882334540916
  0.3467675740312656  0.6167987040455911  0.6645479644530550
  0.3219669360483400  0.5739155133085693  0.6645777704518194
  0.2774737155958423  0.6054660160825613  0.6261335687142492
  0.3467602698058978  0.5881716962237756  0.6988366625754568
  0.3416913001670034  0.6423791129783200  0.7372339399206790
  0.3664863114581893  0.6281667539939999  0.6967670012956300
  0.3664731508098785  0.5994998689316463  0.7372565382933578
  0.3219659039931628  0.6023849317999321  0.7393022724145932
  0.3219799303573806  0.6310503717056380  0.6988123365557876
  0.3912664845674361  0.6137560518468526  0.7715154304169952
  0.3416855767964255  0.6137524279407977  0.7715213560622949
  0.3861975149285419  0.6679634686013970  0.8099127077622176
  0.4109925262197279  0.6537511096170767  0.7694457691371686
  0.4357800035543427  0.6679674152917450  0.8099055001361318
  0.4109793655714170  0.6250842245547232  0.8099353061348961
  0.3664721187547009  0.6279692874230091  0.8119810402561316
  0.4357726993289751  0.6393404074699295  0.8441941982585338
  0.3861917915579638  0.6393367835638747  0.8442001239038335
  0.4307037296900806  0.6935478242244738  0.8825914756037559
  0.4554987409812664  0.6793354652401539  0.8421245369787069
  0.4802862183158810  0.6935517709148219  0.8825842679776702
  0.4554855803329555  0.6506685801778002  0.8826140739764347
  0.4109783335162394  0.6535536430460860  0.8846598080976704
  0.4109923598804576  0.6822190829517920  0.8441698722388645
  0.4802789140905134  0.6649247630930065  0.9168729661000723
  0.4306980063195023  0.6649211391869515  0.9168788917453718
  0.3022660293335904  0.6140475497191603  0.5534791268923799
  0.2526851215625794  0.6140439258131054  0.5534850525376794
  0.2971970596946958  0.6682549664737046  0.5918764042376020
  0.3219920709858817  0.6540426074893846  0.5514094656125530
  0.3467795483204963  0.6682589131640526  0.5918691966115164
  0.3219789103375709  0.6253757224270310  0.5918990026102811
  0.2774716635208548  0.6282607852953166  0.5939447367315165
  0.2774856898850728  0.6569262252010227  0.5534548008727108
  0.3467722440951287  0.6396319053422372  0.6261578947339183
  0.2971913363241177  0.6396282814361823  0.6261638203792179
  0.3417032744562343  0.6938393220967816  0.6645551720791406
  0.3664982857474198  0.6796269631124615  0.6240882334540916
  0.3912857630820348  0.6938432687871295  0.6645479644530550
  0.3664851250991094  0.6509600780501077  0.6645777704518194
  0.3219778782823933  0.6538451409183936  0.6666235045730549
  0.3219919046466115  0.6825105808240997  0.6261335687142492
  0.3912784588566673  0.6652162609653143  0.6988366625754568
  0.3416975510856564  0.6652126370592593  0.6988425882207565
  0.3862094892177726  0.7194236777198585  0.7372339399206790
  0.4110045005089586  0.7052113187355382  0.6967670012956300
  0.4357919778435734  0.7194276244102065  0.7372267322945933
  0.3664981194081498  0.7080949364471766  0.6988123365557876
  0.4357846736182056  0.6908006165883911  0.7715154304169952
  0.4307157039793114  0.7450080333429354  0.8099127077622176
  0.4555107152704971  0.7307956743586156  0.7694457691371686
  0.4802981926051121  0.7450119800332835  0.8099055001361318
  0.4554975546221862  0.7021287892962617  0.8099353061348961
  0.4109903078054701  0.7050138521645474  0.8119810402561316
  0.4110043341696883  0.7336792920702535  0.7714911043973262
  0.4802908883797443  0.7163849722114679  0.8441941982585338
  0.4307099806087332  0.7163813483054131  0.8442001239038335
  0.5000169300320356  0.7563800299816922  0.8421245369787069
  0.5000037693837245  0.7277131449193386  0.8826140739764347
  0.4554965225670086  0.7305982077876245  0.8846598080976704
  0.4555105489312264  0.7592636476933303  0.8441698722388645
  0.3467842183843597  0.6910921144606988  0.5534791268923799
  0.2972033106133484  0.6910884905546437  0.5534850525376794
  0.3417152487454651  0.7452995312152431  0.5918764042376020
  0.3665102600366510  0.7310871722309229  0.5514094656125530
  0.3912977373712658  0.7453034779055913  0.5918691966115164
  0.3664970993883401  0.7024202871685694  0.5918990026102811
  0.3219898525716242  0.7053053500368551  0.5939447367315165
  0.3220038789358422  0.7339707899425612  0.5534548008727108
  0.3912904331458977  0.7166764700837757  0.6261578947339183
  0.3417095253748871  0.7166728461777209  0.6261638203792179
  0.3862214635070035  0.7708838868383199  0.6645551720791406
  0.4110164747981895  0.7566715278540000  0.6240882334540916
  0.4358039521328043  0.7708878335286681  0.6645479644530550
  0.4110033141498784  0.7280046427916462  0.6645777704518194
  0.3664960673331625  0.7308897056599321  0.6666235045730549
  0.3665100936973805  0.7595551455656382  0.6261335687142492
  0.4357966479074365  0.7422608257068526  0.6988366625754568
  0.3862157401364252  0.7422572018007976  0.6988425882207565
  0.4307276782685419  0.7964682424613968  0.7372339399206790
  0.4555226895597278  0.7822558834770768  0.6967670012956300
  0.4803101668943426  0.7964721891517448  0.7372267322945933
  0.4555095289114169  0.7535889984147232  0.7372565382933578
  0.4110022820947010  0.7564740612830090  0.7393022724145932
  0.4110163084589190  0.7851395011887152  0.6988123365557876
  0.4803028626689748  0.7678451813299295  0.7715154304169952
  0.4307219548979639  0.7678415574238747  0.7715213560622949
  0.4752338930300806  0.8220525980844740  0.8099127077622176
  0.5000289043212666  0.8078402391001537  0.7694457691371686
  0.5248163816558811  0.8220565447748219  0.8099055001361318
  0.4555084968562396  0.7820584169060859  0.8119810402561316
  0.4555225232204578  0.8107238568117920  0.7714911043973262
  0.4752281696595024  0.7934259130469516  0.8442001239038335
  0.3913024074351287  0.7681366792022372  0.5534791268923799
  0.3417214996641178  0.7681330552961823  0.5534850525376794
  0.3862334377962343  0.8223440959567816  0.5918764042376020
  0.4110284490874200  0.8081317369724614  0.5514094656125530
  0.4358159264220350  0.8223480426471295  0.5918691966115164
  0.4110152884391093  0.7794648519101078  0.5918990026102811
  0.3665080416223932  0.7823499147783936  0.5939447367315165
  0.3665220679866112  0.8110153546840995  0.5534548008727108
  0.4358086221966670  0.7937210348253142  0.6261578947339183
  0.3862277144256561  0.7937174109192593  0.6261638203792179
  0.4307396525577725  0.8479284515798585  0.6645551720791406
  0.4555346638489585  0.8337160925955385  0.6240882334540916
  0.4803221411835733  0.8479323982702065  0.6645479644530550
  0.4555215032006476  0.8050492075331848  0.6645777704518194
  0.4110142563839317  0.8079342704014706  0.6666235045730549
  0.4110282827481500  0.8365997103071766  0.6261335687142492
  0.4803148369582055  0.8193053904483910  0.6988366625754568
  0.4307339291871946  0.8193017665423362  0.6988425882207565
  0.4752458673193113  0.8735128072029353  0.7372339399206790
  0.5000408786104970  0.8593004482186153  0.6967670012956300
  0.5248283559451118  0.8735167538932834  0.7372267322945933
  0.5000277179621864  0.8306335631562617  0.7372565382933578
  0.4555204711454702  0.8335186260245475  0.7393022724145932
  0.4555344975096883  0.8621840659302533  0.6988123365557876
  0.5248210517197440  0.8448897460714681  0.7715154304169952
  0.4752401439487329  0.8448861221654130  0.7715213560622949
  0.4358205964858979  0.8451812439437757  0.5534791268923799
  0.3862396887148871  0.8451776200377206  0.5534850525376794
  0.4307516268470037  0.8993886606983200  0.5918764042376020
  0.4555466381381892  0.8851763017139997  0.5514094656125530
  0.4803341154728042  0.8993926073886681  0.5918691966115164
  0.4555334774898783  0.8565094166516463  0.5918990026102811
  0.4110262306731626  0.8593944795199321  0.5939447367315165
  0.4110402570373805  0.8880599194256381  0.5534548008727108
  0.4803268112474362  0.8707655995668526  0.6261578947339183
  0.4307459034764256  0.8707619756607977  0.6261638203792179
  0.4752578416085420  0.9249730163213969  0.6645551720791406
  0.5000528528997275  0.9107606573370768  0.6240882334540916
  0.5248403302343427  0.9249769630117450  0.6645479644530550
  0.5000396922514169  0.8820937722747231  0.6645777704518194
  0.4555324454347009  0.8849788351430089  0.6666235045730549
  0.4555464717989189  0.9136442750487150  0.6261335687142492
  0.5248330260089750  0.8963499551899295  0.6988366625754568
  0.4752521182379639  0.8963463312838745  0.6988425882207565
  0.3022444821874363  0.4599584202360833  0.5534791268923799
  0.2526635744164253  0.4599547963300284  0.5534850525376794
  0.2971755125485421  0.5141658369906277  0.5918764042376020
  0.3219705238397276  0.4999534780063076  0.5514094656125530
  0.3467580011743427  0.5141697836809757  0.5918691966115164
  0.3219573631914168  0.4712865929439540  0.5918990026102811
  0.2774501163747011  0.4741716558122398  0.5939447367315165
  0.2774641427389191  0.5028370957179459  0.5534548008727108
  0.3467506969489749  0.4855427758591602  0.6261578947339183
  0.2971697891779638  0.4855391519531054  0.6261638203792179
  0.3416817273100807  0.5397501926137047  0.6645551720791406
  0.3664767386012662  0.5255378336293846  0.6240882334540916
  0.3912642159358812  0.5397541393040526  0.6645479644530550
  0.3664635779529553  0.4968709485670308  0.6645777704518194
  0.3219563311362392  0.4997560114353167  0.6666235045730549
  0.3219703575004574  0.5284214513410228  0.6261335687142492
  0.3912569117105132  0.5111271314822372  0.6988366625754568
  0.3416760039395023  0.5111235075761824  0.6988425882207565
  0.3861879420716189  0.5653345482367816  0.7372339399206790
  0.4109829533628047  0.5511221892524615  0.6967670012956300
  0.4357704306974195  0.5653384949271295  0.7372267322945933
  0.4109697927144938  0.5224553041901078  0.7372565382933578
  0.3664625458977779  0.5253403670583936  0.7393022724145932
  0.3664765722619959  0.5540058069640996  0.6988123365557876
  0.4357631264720519  0.5367114871053141  0.7715154304169952
  0.3861822187010410  0.5367078631992593  0.7715213560622949
  0.4306941568331575  0.5909189038598585  0.8099127077622176
  0.4554891681243432  0.5767065448755384  0.7694457691371686
  0.4802766454589580  0.5909228505502064  0.8099055001361318
  0.4554760074760326  0.5480396598131848  0.8099353061348961
  0.4109687606593164  0.5509247226814705  0.8119810402561316
  0.4109827870235347  0.5795901625871767  0.7714911043973262
  0.4802693412335902  0.5622958427283909  0.8441941982585338
  0.4306884334625793  0.5622922188223362  0.8442001239038335
  0.4752003715946960  0.6165032594829355  0.8825914756037559
  0.4999953828858817  0.6022909004986152  0.8421245369787069
  0.5247828602204965  0.6165072061732834  0.8825842679776702
  0.4999822222375706  0.5736240154362616  0.8826140739764347
  0.4554749754208550  0.5765090783045475  0.8846598080976704
  0.4554890017850727  0.6051745182102536  0.8441698722388645
  0.5247755559951287  0.5878801983514680  0.9168729661000723
  0.4751946482241177  0.5878765744454131  0.9168788917453718
  0.5445015976474200  0.6278752561216923  0.9148033048202455
  0.4999952165466115  0.6307588738333304  0.9168486400804030
  0.3467626712382056  0.5370029849776219  0.5534791268923799
  0.2971817634671945  0.5369993610715669  0.5534850525376794
  0.3416937015993113  0.5912104017321661  0.5918764042376020
  0.3912761902251119  0.5912143484225141  0.5918691966115164
  0.3664755522421860  0.5483311576854925  0.5918990026102811
  0.3219683054254703  0.5512162205537783  0.5939447367315165
  0.3912688859997439  0.5625873406006987  0.6261578947339183
  0.3416879782287330  0.5625837166946438  0.6261638203792179
  0.3861999163608499  0.6167947573552430  0.6645551720791406
  0.4109949276520354  0.6025823983709230  0.6240882334540916
  0.4357824049866504  0.6167987040455911  0.6645479644530550
  0.4109817670037245  0.5739155133085693  0.6645777704518194
  0.3664745201870088  0.5768005761768552  0.6666235045730549
  0.3664885465512269  0.6054660160825613  0.6261335687142492
  0.4357751007612826  0.5881716962237756  0.6988366625754568
  0.3861941929902715  0.5881680723177207  0.6988425882207565
  0.4307061311223881  0.6423791129783200  0.7372339399206790
  0.4555011424135741  0.6281667539939999  0.6967670012956300
  0.4802886197481887  0.6423830596686679  0.7372267322945933
  0.4554879817652632  0.5994998689316463  0.7372565382933578
  0.4109807349485471  0.6023849317999321  0.7393022724145932
  0.4109947613127649  0.6310503717056380  0.6988123365557876
  0.4802813155228209  0.6137560518468526  0.7715154304169952
  0.4307004077518098  0.6137524279407977  0.7715213560622949
  0.4752123458839267  0.6679634686013970  0.8099127077622176
  0.5000073571751125  0.6537511096170767  0.7694457691371686
  0.5247948345097272  0.6679674152917450  0.8099055001361318
  0.4999941965268018  0.6250842245547232  0.8099353061348961
  0.4554869497100856  0.6279692874230091  0.8119810402561316
  0.4555009760743037  0.6566347273287151  0.7714911043973262
  0.5247875302843594  0.6393404074699295  0.8441941982585338
  0.4752066225133486  0.6393367835638747  0.8442001239038335
  0.5445135719366512  0.6793354652401539  0.8421245369787069
  0.5693010492712659  0.6935517709148219  0.8825842679776702
  0.5445004112883400  0.6506685801778002  0.8826140739764347
  0.4999931644716242  0.6535536430460860  0.8846598080976704
  0.5000071908358420  0.6822190829517920  0.8441698722388645
  0.5692937450458977  0.6649247630930065  0.9168729661000723
  0.5197128372748868  0.6649211391869515  0.9168788917453718
  0.3912808602889750  0.6140475497191603  0.5534791268923799
  0.3862118906500806  0.6682549664737046  0.5918764042376020
  0.4110069019412661  0.6540426074893846  0.5514094656125530
  0.4357943792758811  0.6682589131640526  0.5918691966115164
  0.4109937412929554  0.6253757224270310  0.5918990026102811
  0.3664864944762395  0.6282607852953166  0.5939447367315165
  0.3665005208404575  0.6569262252010227  0.5534548008727108
  0.4357870750505133  0.6396319053422372  0.6261578947339183
  0.3862061672795022  0.6396282814361823  0.6261638203792179
  0.4307181054116191  0.6938393220967816  0.6645551720791406
  0.4555131167028046  0.6796269631124615  0.6240882334540916
  0.4803005940374196  0.6938432687871295  0.6645479644530550
  0.4554999560544939  0.6509600780501077  0.6645777704518194
  0.4109927092377780  0.6538451409183936  0.6666235045730549
  0.4110067356019959  0.6825105808240997  0.6261335687142492
  0.4802932898120516  0.6652162609653143  0.6988366625754568
  0.4307123820410407  0.6652126370592593  0.6988425882207565
  0.4752243201731574  0.7194236777198585  0.7372339399206790
  0.5000193314643433  0.7052113187355382  0.6967670012956300
  0.5248068087989579  0.7194276244102065  0.7372267322945933
  0.5000061708160323  0.6765444336731848  0.7372565382933578
  0.4554989239993166  0.6794294965414707  0.7393022724145932
  0.4555129503635341  0.7080949364471766  0.6988123365557876
  0.5247995045735904  0.6908006165883911  0.7715154304169952
  0.4752185968025793  0.6907969926823361  0.7715213560622949
  0.5445255462258817  0.7307956743586156  0.7694457691371686
  0.5693130235604966  0.7450119800332835  0.8099055001361318
  0.5445123855775705  0.7021287892962617  0.8099353061348961
  0.5000051387608548  0.7050138521645474  0.8119810402561316
  0.5000191651250728  0.7336792920702535  0.7714911043973262
  0.5693057193351286  0.7163849722114679  0.8441941982585338
  0.5197248115641178  0.7163813483054131  0.8442001239038335
  0.5890317609874202  0.7563800299816922  0.8421245369787069
  0.5890186003391092  0.7277131449193386  0.8826140739764347
  0.5445113535223934  0.7305982077876245  0.8846598080976704
  0.5445253798866112  0.7592636476933303  0.8441698722388645
  0.4357990493397440  0.6910921144606988  0.5534791268923799
  0.3862181415687329  0.6910884905546437  0.5534850525376794
  0.4307300797008498  0.7452995312152431  0.5918764042376020
  0.4555250909920355  0.7310871722309229  0.5514094656125530
  0.4803125683266503  0.7453034779055913  0.5918691966115164
  0.4110046835270085  0.7053053500368551  0.5939447367315165
  0.4110187098912267  0.7339707899425612  0.5534548008727108
  0.4307243563302715  0.7166728461777209  0.6261638203792179
  0.4752362944623883  0.7708838868383199  0.6645551720791406
  0.5000313057535740  0.7566715278540000  0.6240882334540916
  0.5248187830881889  0.7708878335286681  0.6645479644530550
  0.5000181451052630  0.7280046427916462  0.6645777704518194
  0.4555108982885473  0.7308897056599321  0.6666235045730549
  0.4555249246527653  0.7595551455656382  0.6261335687142492
  0.5248114788628209  0.7422608257068526  0.6988366625754568
  0.4752305710918100  0.7422572018007976  0.6988425882207565
  0.5197425092239266  0.7964682424613968  0.7372339399206790
  0.5445375205151125  0.7822558834770768  0.6967670012956300
  0.5693249978497271  0.7964721891517448  0.7372267322945933
  0.5445243598668015  0.7535889984147232  0.7372565382933578
  0.5000171130500856  0.7564740612830090  0.7393022724145932
  0.5000311394143035  0.7851395011887152  0.6988123365557876
  0.5693176936243594  0.7678451813299295  0.7715154304169952
  0.5197367858533483  0.7678415574238747  0.7715213560622949
  0.5642487239854651  0.8220525980844740  0.8099127077622176
  0.5890437352766509  0.8078402391001537  0.7694457691371686
  0.6138312126112658  0.8220565447748219  0.8099055001361318
  0.5890305746283397  0.7791733540378001  0.8099353061348961
  0.5445373541758421  0.8107238568117920  0.7714911043973262
  0.5642430006148870  0.7934259130469516  0.8442001239038335
  0.4803172383905132  0.7681366792022372  0.5534791268923799
  0.4307363306195026  0.7681330552961823  0.5534850525376794
  0.4752482687516190  0.8223440959567816  0.5918764042376020
  0.5000432800428047  0.8081317369724614  0.5514094656125530
  0.5248307573774196  0.8223480426471295  0.5918691966115164
  0.5000301193944938  0.7794648519101078  0.5918990026102811
  0.4555228725777777  0.7823499147783936  0.5939447367315165
  0.4555368989419960  0.8110153546840995  0.5534548008727108
  0.5248234531520517  0.7937210348253142  0.6261578947339183
  0.4752425453810409  0.7937174109192593  0.6261638203792179
  0.5197544835131576  0.8479284515798585  0.6645551720791406
  0.5445494948043432  0.8337160925955385  0.6240882334540916
  0.5693369721389581  0.8479323982702065  0.6645479644530550
  0.5445363341560324  0.8050492075331848  0.6645777704518194
  0.5000290873393165  0.8079342704014706  0.6666235045730549
  0.5000431137035343  0.8365997103071766  0.6261335687142492
  0.5693296679135901  0.8193053904483910  0.6988366625754568
  0.5197487601425792  0.8193017665423362  0.6988425882207565
  0.5642606982746958  0.8735128072029353  0.7372339399206790
  0.5890557095658816  0.8593004482186153  0.6967670012956300
  0.6138431869004963  0.8735167538932834  0.7372267322945933
  0.5890425489175707  0.8306335631562617  0.7372565382933578
  0.5445353021008548  0.8335186260245475  0.7393022724145932
  0.5445493284650728  0.8621840659302533  0.6988123365557876
  0.6138358826751286  0.8448897460714681  0.7715154304169952
  0.5642549749041177  0.8448861221654130  0.7715213560622949
  0.5248354274412826  0.8451812439437757  0.5534791268923799
  0.4752545196702716  0.8451776200377206  0.5534850525376794
  0.5197664578023883  0.8993886606983200  0.5918764042376020
  0.5445614690935739  0.8851763017139997  0.5514094656125530
  0.5693489464281890  0.8993926073886681  0.5918691966115164
  0.5445483084452629  0.8565094166516463  0.5918990026102811
  0.5000410616285472  0.8593944795199321  0.5939447367315165
  0.5000550879927652  0.8880599194256381  0.5534548008727108
  0.5693416422028209  0.8707655995668526  0.6261578947339183
  0.5197607344318101  0.8707619756607977  0.6261638203792179
  0.5642726725639268  0.9249730163213969  0.6645551720791406
  0.5890676838551122  0.9107606573370768  0.6240882334540916
  0.5890545232068014  0.8820937722747231  0.6645777704518194
  0.5445472763900857  0.8849788351430089  0.6666235045730549
  0.5445613027543037  0.9136442750487150  0.6261335687142492
  0.6138478569643595  0.8963499551899295  0.6988366625754568
  0.5642669491933484  0.8963463312838745  0.6988425882207565
  0.3912593131428211  0.4599584202360833  0.5534791268923799
  0.3416784053718100  0.4599547963300284  0.5534850525376794
  0.3861903435039267  0.5141658369906277  0.5918764042376020
  0.4109853547951124  0.4999534780063076  0.5514094656125530
  0.4357728321297272  0.5141697836809757  0.5918691966115164
  0.4109721941468015  0.4712865929439540  0.5918990026102811
  0.3664649473300857  0.4741716558122398  0.5939447367315165
  0.3664789736943039  0.5028370957179459  0.5534548008727108
  0.4357655279043594  0.4855427758591602  0.6261578947339183
  0.3861846201333486  0.4855391519531054  0.6261638203792179
  0.4306965582654652  0.5397501926137047  0.6645551720791406
  0.4554915695566509  0.5255378336293846  0.6240882334540916
  0.4802790468912657  0.5397541393040526  0.6645479644530550
  0.4554784089083401  0.4968709485670308  0.6645777704518194
  0.4109711620916239  0.4997560114353167  0.6666235045730549
  0.4109851884558422  0.5284214513410228  0.6261335687142492
  0.4802717426658979  0.5111271314822372  0.6988366625754568
  0.4306908348948871  0.5111235075761824  0.6988425882207565
  0.4752027730270035  0.5653345482367816  0.7372339399206790
  0.4999977843181893  0.5511221892524615  0.6967670012956300
  0.5247852616528040  0.5653384949271295  0.7372267322945933
  0.4999846236698786  0.5224553041901078  0.7372565382933578
  0.4554773768531627  0.5253403670583936  0.7393022724145932
  0.4554914032173805  0.5540058069640996  0.6988123365557876
  0.5247779574274365  0.5367114871053141  0.7715154304169952
  0.4751970496564254  0.5367078631992593  0.7715213560622949
  0.5197089877885420  0.5909189038598585  0.8099127077622176
  0.5445039990797280  0.5767065448755384  0.7694457691371686
  0.5692914764143425  0.5909228505502064  0.8099055001361318
  0.5444908384314169  0.5480396598131848  0.8099353061348961
  0.4999835916147010  0.5509247226814705  0.8119810402561316
  0.4999976179789190  0.5795901625871767  0.7714911043973262
  0.5692841721889748  0.5622958427283909  0.8441941982585338
  0.5197032644179641  0.5622922188223362  0.8442001239038335
  0.5642152025500807  0.6165032594829355  0.8825914756037559
  0.5890102138412663  0.6022909004986152  0.8421245369787069
  0.6137976911758811  0.6165072061732834  0.8825842679776702
  0.5889970531929551  0.5736240154362616  0.8826140739764347
  0.5444898063762393  0.5765090783045475  0.8846598080976704
  0.5445038327404575  0.6051745182102536  0.8441698722388645
  0.5642094791795024  0.5878765744454131  0.9168788917453718
  0.6335164286028045  0.6278752561216923  0.9148033048202455
  0.5890100475019960  0.6307588738333304  0.9168486400804030
  0.4357775021935903  0.5370029849776219  0.5534791268923799
  0.3861965944225793  0.5369993610715669  0.5534850525376794
  0.4307085325546959  0.5912104017321661  0.5918764042376020
  0.4555035438458817  0.5769980427478459  0.5514094656125530
  0.4802910211804964  0.5912143484225141  0.5918691966115164
  0.4554903831975707  0.5483311576854925  0.5918990026102811
  0.4109831363808549  0.5512162205537783  0.5939447367315165
  0.4109971627450731  0.5798816604594843  0.5534548008727108
  0.4802837169551288  0.5625873406006987  0.6261578947339183
  0.4307028091841178  0.5625837166946438  0.6261638203792179
  0.4752147473162342  0.6167947573552430  0.6645551720791406
  0.5000097586074201  0.6025823983709230  0.6240882334540916
  0.5247972359420348  0.6167987040455911  0.6645479644530550
  0.4999965979591093  0.5739155133085693  0.6645777704518194
  0.4554893511423932  0.5768005761768552  0.6666235045730549
  0.4555033775066114  0.6054660160825613  0.6261335687142492
  0.5247899317166671  0.5881716962237756  0.6988366625754568
  0.4752090239456563  0.5881680723177207  0.6988425882207565
  0.5197209620777727  0.6423791129783200  0.7372339399206790
  0.5445159733689584  0.6281667539939999  0.6967670012956300
  0.5693034507035735  0.6423830596686679  0.7372267322945933
  0.5445028127206478  0.5994998689316463  0.7372565382933578
  0.4999955659039319  0.6023849317999321  0.7393022724145932
  0.5000095922681497  0.6310503717056380  0.6988123365557876
  0.5692961464782055  0.6137560518468526  0.7715154304169952
  0.5197152387071946  0.6137524279407977  0.7715213560622949
  0.5642271768393112  0.6679634686013970  0.8099127077622176
  0.5890221881304972  0.6537511096170767  0.7694457691371686
  0.6138096654651117  0.6679674152917450  0.8099055001361318
  0.5890090274821861  0.6250842245547232  0.8099353061348961
  0.5445017806654702  0.6279692874230091  0.8119810402561316
  0.5445158070296884  0.6566347273287151  0.7714911043973262
  0.6138023612397442  0.6393404074699295  0.8441941982585338
  0.5642214534687333  0.6393367835638747  0.8442001239038335
  0.6087333916008497  0.6935478242244738  0.8825914756037559
  0.6335284028920355  0.6793354652401539  0.8421245369787069
  0.6583158802266501  0.6935517709148219  0.8825842679776702
  0.6335152422437244  0.6506685801778002  0.8826140739764347
  0.5890079954270085  0.6535536430460860  0.8846598080976704
  0.5890220217912268  0.6822190829517920  0.8441698722388645
  0.6087276682302716  0.6649211391869515  0.9168788917453718
  0.4802956912443596  0.6140475497191603  0.5534791268923799
  0.4307147834733485  0.6140439258131054  0.5534850525376794
  0.5000217328966509  0.6540426074893846  0.5514094656125530
  0.5248092102312657  0.6682589131640526  0.5918691966115164
  0.5000085722483399  0.6253757224270310  0.5918990026102811
  0.4555013254316241  0.6282607852953166  0.5939447367315165
  0.4555153517958421  0.6569262252010227  0.5534548008727108
  0.5248019060058978  0.6396319053422372  0.6261578947339183
  0.4752209982348870  0.6396282814361823  0.6261638203792179
  0.5197329363670035  0.6938393220967816  0.6645551720791406
  0.5445279476581893  0.6796269631124615  0.6240882334540916
  0.5693154249928040  0.6938432687871295  0.6645479644530550
  0.5445147870098788  0.6509600780501077  0.6645777704518194
  0.5000075401931624  0.6538451409183936  0.6666235045730549
  0.5693081207674364  0.6652162609653143  0.6988366625754568
  0.5197272129964253  0.6652126370592593  0.6988425882207565
  0.5642391511285419  0.7194236777198585  0.7372339399206790
  0.5890341624197276  0.7052113187355382  0.6967670012956300
  0.6138216397543427  0.7194276244102065  0.7372267322945933
  0.5890210017714170  0.6765444336731848  0.7372565382933578
  0.5445137549547011  0.6794294965414707  0.7393022724145932
  0.5445277813189189  0.7080949364471766  0.6988123365557876
  0.6138143355289747  0.6908006165883911  0.7715154304169952
  0.5642334277579638  0.6907969926823361  0.7715213560622949
  0.6087453658900804  0.7450080333429354  0.8099127077622176
  0.6335403771812664  0.7307956743586156  0.7694457691371686
  0.6583278545158809  0.7450119800332835  0.8099055001361318
  0.6335272165329553  0.7021287892962617  0.8099353061348961
  0.5890199697162394  0.7050138521645474  0.8119810402561316
  0.5890339960804575  0.7336792920702535  0.7714911043973262
  0.6583205502905134  0.7163849722114679  0.8441941982585338
  0.6087396425195025  0.7163813483054131  0.8442001239038335
  0.6335402108419957  0.7592636476933303  0.8441698722388645
  0.5248138802951288  0.6910921144606988  0.5534791268923799
  0.4752329725241177  0.6910884905546437  0.5534850525376794
  0.5197449106562343  0.7452995312152431  0.5918764042376020
  0.5445399219474203  0.7310871722309229  0.5514094656125530
  0.5693273992820351  0.7453034779055913  0.5918691966115164
  0.5445267612991092  0.7024202871685694  0.5918990026102811
  0.5000335408466116  0.7339707899425612  0.5534548008727108
  0.5693200950566673  0.7166764700837757  0.6261578947339183
  0.5197391872856565  0.7166728461777209  0.6261638203792179
  0.5642511254177729  0.7708838868383199  0.6645551720791406
  0.5890461367089586  0.7566715278540000  0.6240882334540916
  0.6138336140435734  0.7708878335286681  0.6645479644530550
  0.5890329760606478  0.7280046427916462  0.6645777704518194
  0.5445257292439316  0.7308897056599321  0.6666235045730549
  0.5445397556081498  0.7595551455656382  0.6261335687142492
  0.6138263098182056  0.7422608257068526  0.6988366625754568
  0.5642454020471948  0.7422572018007976  0.6988425882207565
  0.6087573401793112  0.7964682424613968  0.7372339399206790
  0.6335523514704974  0.7822558834770768  0.6967670012956300
  0.6583398288051119  0.7964721891517448  0.7372267322945933
  0.6335391908221862  0.7535889984147232  0.7372565382933578
  0.5890319440054703  0.7564740612830090  0.7393022724145932
  0.5890459703696883  0.7851395011887152  0.6988123365557876
  0.6583325245797439  0.7678451813299295  0.7715154304169952
  0.6087516168087332  0.7678415574238747  0.7715213560622949
  0.6780585662320356  0.8078402391001537  0.7694457691371686
  0.6780454055837245  0.7791733540378001  0.8099353061348961
  0.6335381587670087  0.7820584169060859  0.8119810402561316
  0.6335521851312269  0.8107238568117920  0.7714911043973262
  0.5693320693458980  0.7681366792022372  0.5534791268923799
  0.5197511615748869  0.7681330552961823  0.5534850525376794
  0.5642630997070036  0.8223440959567816  0.5918764042376020
  0.5890581109981895  0.8081317369724614  0.5514094656125530
  0.6138455883328041  0.8223480426471295  0.5918691966115164
  0.5890449503498786  0.7794648519101078  0.5918990026102811
  0.5445377035331626  0.7823499147783936  0.5939447367315165
  0.5445517298973808  0.8110153546840995  0.5534548008727108
  0.6138382841074365  0.7937210348253142  0.6261578947339183
  0.5642573763364257  0.7937174109192593  0.6261638203792179
  0.6087693144685419  0.8479284515798585  0.6645551720791406
  0.6335643257597278  0.8337160925955385  0.6240882334540916
  0.6583518030943426  0.8479323982702065  0.6645479644530550
  0.6335511651114172  0.8050492075331848  0.6645777704518194
  0.5890439182947013  0.8079342704014706  0.6666235045730549
  0.5890579446589190  0.8365997103071766  0.6261335687142492
  0.6583444988689748  0.8193053904483910  0.6988366625754568
  0.6087635910979640  0.8193017665423362  0.6988425882207565
  0.6780705405212666  0.8593004482186153  0.6967670012956300
  0.6780573798729554  0.8306335631562617  0.7372565382933578
  0.6335501330562395  0.8335186260245475  0.7393022724145932
  0.6335641594204574  0.8621840659302533  0.6988123365557876
  0.6138502583966672  0.8451812439437757  0.5534791268923799
  0.5642693506256562  0.8451776200377206  0.5534850525376794
  0.6087812887577730  0.8993886606983200  0.5918764042376020
  0.6335763000489587  0.8851763017139997  0.5514094656125530
  0.6583637773835738  0.8993926073886681  0.5918691966115164
  0.6335631394006477  0.8565094166516463  0.5918990026102811
  0.5890558925839320  0.8593944795199321  0.5939447367315165
  0.5890699189481500  0.8880599194256381  0.5534548008727108
  0.6583564731582058  0.8707655995668526  0.6261578947339183
  0.6087755653871949  0.8707619756607977  0.6261638203792179
  0.6780693541621862  0.8820937722747231  0.6645777704518194
  0.6335621073454705  0.8849788351430089  0.6666235045730549
  0.6335761337096880  0.9136442750487150  0.6261335687142492
  0.4802741440982057  0.4599584202360833  0.5534791268923799
  0.4306932363271946  0.4599547963300284  0.5534850525376794
  0.4752051744593113  0.5141658369906277  0.5918764042376020
  0.5000001857504970  0.4999534780063076  0.5514094656125530
  0.5247876630851118  0.5141697836809757  0.5918691966115164
  0.4999870251021861  0.4712865929439540  0.5918990026102811
  0.4554797782854702  0.4741716558122398  0.5939447367315165
  0.4554938046496882  0.5028370957179459  0.5534548008727108
  0.5247803588597439  0.4855427758591602  0.6261578947339183
  0.4751994510887331  0.4855391519531054  0.6261638203792179
  0.5197113892208498  0.5397501926137047  0.6645551720791406
  0.5445064005120357  0.5255378336293846  0.6240882334540916
  0.5692938778466503  0.5397541393040526  0.6645479644530550
  0.5444932398637247  0.4968709485670308  0.6645777704518194
  0.4999859930470087  0.4997560114353167  0.6666235045730549
  0.5000000194112267  0.5284214513410228  0.6261335687142492
  0.5692865736212824  0.5111271314822372  0.6988366625754568
  0.5197056658502717  0.5111235075761824  0.6988425882207565
  0.5642176039823883  0.5653345482367816  0.7372339399206790
  0.5890126152735740  0.5511221892524615  0.6967670012956300
  0.6138000926081888  0.5653384949271295  0.7372267322945933
  0.5889994546252629  0.5224553041901078  0.7372565382933578
  0.5444922078085470  0.5253403670583936  0.7393022724145932
  0.5445062341727652  0.5540058069640996  0.6988123365557876
  0.6137927883828210  0.5367114871053141  0.7715154304169952
  0.5642118806118102  0.5367078631992593  0.7715213560622949
  0.6087238187439266  0.5909189038598585  0.8099127077622176
  0.6335188300351126  0.5767065448755384  0.7694457691371686
  0.6583063073697273  0.5909228505502064  0.8099055001361318
  0.6335056693868016  0.5480396598131848  0.8099353061348961
  0.5889984225700855  0.5509247226814705  0.8119810402561316
  0.5890124489343036  0.5795901625871767  0.7714911043973262
  0.6582990031443593  0.5622958427283909  0.8441941982585338
  0.6087180953733484  0.5622922188223362  0.8442001239038335
  0.6532300335054650  0.6165032594829355  0.8825914756037559
  0.6780250447966510  0.6022909004986152  0.8421245369787069
  0.7028125221312657  0.6165072061732834  0.8825842679776702
  0.6780118841483399  0.5736240154362616  0.8826140739764347
  0.6335046373316241  0.5765090783045475  0.8846598080976704
  0.6335186636958419  0.6051745182102536  0.8441698722388645
  0.5247923331489749  0.5370029849776219  0.5534791268923799
  0.4752114253779638  0.5369993610715669  0.5534850525376794
  0.5197233635100804  0.5912104017321661  0.5918764042376020
  0.5445183748012662  0.5769980427478459  0.5514094656125530
  0.5693058521358810  0.5912143484225141  0.5918691966115164
  0.5445052141529555  0.5483311576854925  0.5918990026102811
  0.4999979673362394  0.5512162205537783  0.5939447367315165
  0.5000119937004575  0.5798816604594843  0.5534548008727108
  0.5692985479105132  0.5625873406006987  0.6261578947339183
  0.5197176401395024  0.5625837166946438  0.6261638203792179
  0.5642295782716190  0.6167947573552430  0.6645551720791406
  0.5890245895628049  0.6025823983709230  0.6240882334540916
  0.6138120668974195  0.6167987040455911  0.6645479644530550
  0.5890114289144939  0.5739155133085693  0.6645777704518194
  0.5445041820977780  0.5768005761768552  0.6666235045730549
  0.5445182084619957  0.6054660160825613  0.6261335687142492
  0.6138047626720520  0.5881716962237756  0.6988366625754568
  0.5642238549010409  0.5881680723177207  0.6988425882207565
  0.6087357930331573  0.6423791129783200  0.7372339399206790
  0.6335308043243432  0.6281667539939999  0.6967670012956300
  0.6583182816589582  0.6423830596686679  0.7372267322945933
  0.6335176436760326  0.5994998689316463  0.7372565382933578
  0.5890103968593162  0.6023849317999321  0.7393022724145932
  0.5890244232235344  0.6310503717056380  0.6988123365557876
  0.6583109774335902  0.6137560518468526  0.7715154304169952
  0.6087300696625794  0.6137524279407977  0.7715213560622949
  0.6532420077946960  0.6679634686013970  0.8099127077622176
  0.6780370190858818  0.6537511096170767  0.7694457691371686
  0.7028244964204963  0.6679674152917450  0.8099055001361318
  0.6780238584375708  0.6250842245547232  0.8099353061348961
  0.6335166116208547  0.6279692874230091  0.8119810402561316
  0.6335306379850728  0.6566347273287151  0.7714911043973262
  0.7028171921951287  0.6393404074699295  0.8441941982585338
  0.6532362844241176  0.6393367835638747  0.8442001239038335
  0.7225432338474200  0.6793354652401539  0.8421245369787069
  0.6780228263823931  0.6535536430460860  0.8846598080976704
  0.6780368527466111  0.6822190829517920  0.8441698722388645
  0.5693105221997441  0.6140475497191603  0.5534791268923799
  0.5197296144287330  0.6140439258131054  0.5534850525376794
  0.5642415525608495  0.6682549664737046  0.5918764042376020
  0.5890365638520354  0.6540426074893846  0.5514094656125530
  0.6138240411866502  0.6682589131640526  0.5918691966115164
  0.5890234032037247  0.6253757224270310  0.5918990026102811
  0.5445161563870085  0.6282607852953166  0.5939447367315165
  0.5445301827512267  0.6569262252010227  0.5534548008727108
  0.6138167369612826  0.6396319053422372  0.6261578947339183
  0.5642358291902716  0.6396282814361823  0.6261638203792179
  0.6087477673223882  0.6938393220967816  0.6645551720791406
  0.6335427786135741  0.6796269631124615  0.6240882334540916
  0.6583302559481887  0.6938432687871295  0.6645479644530550
  0.6335296179652631  0.6509600780501077  0.6645777704518194
  0.5890223711485472  0.6538451409183936  0.6666235045730549
  0.5890363975127652  0.6825105808240997  0.6261335687142492
  0.6583229517228210  0.6652162609653143  0.6988366625754568
  0.6087420439518101  0.6652126370592593  0.6988425882207565
  0.6532539820839265  0.7194236777198585  0.7372339399206790
  0.6780489933751125  0.7052113187355382  0.6967670012956300
  0.7028364707097272  0.7194276244102065  0.7372267322945933
  0.6780358327268016  0.6765444336731848  0.7372565382933578
  0.6335285859100857  0.6794294965414707  0.7393022724145932
  0.6335426122743034  0.7080949364471766  0.6988123365557876
  0.7028291664843594  0.6908006165883911  0.7715154304169952
  0.6532482587133486  0.6907969926823361  0.7715213560622949
  0.6977601968454652  0.7450080333429354  0.8099127077622176
  0.7225552081366512  0.7307956743586156  0.7694457691371686
  0.7225420474883401  0.7021287892962617  0.8099353061348961
  0.6780348006716240  0.7050138521645474  0.8119810402561316
  0.6780488270358420  0.7336792920702535  0.7714911043973262
  0.6977544734748871  0.7163813483054131  0.8442001239038335
  0.6138287112505133  0.6910921144606988  0.5534791268923799
  0.5642478034795020  0.6910884905546437  0.5534850525376794
  0.6087597416116192  0.7452995312152431  0.5918764042376020
  0.6335547529028046  0.7310871722309229  0.5514094656125530
  0.6583422302374197  0.7453034779055913  0.5918691966115164
  0.6335415922544940  0.7024202871685694  0.5918990026102811
  0.5890343454377781  0.7053053500368551  0.5939447367315165
  0.5890483718019959  0.7339707899425612  0.5534548008727108
  0.6583349260120518  0.7166764700837757  0.6261578947339183
  0.6087540182410408  0.7166728461777209  0.6261638203792179
  0.6532659563731574  0.7708838868383199  0.6645551720791406
  0.6780609676643433  0.7566715278540000  0.6240882334540916
  0.7028484449989579  0.7708878335286681  0.6645479644530550
  0.6780478070160323  0.7280046427916462  0.6645777704518194
  0.6335405601993164  0.7308897056599321  0.6666235045730549
  0.6335545865635341  0.7595551455656382  0.6261335687142492
  0.7028411407735904  0.7422608257068526  0.6988366625754568
  0.6532602330025791  0.7422572018007976  0.6988425882207565
  0.6977721711346957  0.7964682424613968  0.7372339399206790
  0.7225671824258817  0.7822558834770768  0.6967670012956300
  0.7473546597604962  0.7964721891517448  0.7372267322945933
  0.7225540217775708  0.7535889984147232  0.7372565382933578
  0.6780467749608549  0.7564740612830090  0.7393022724145932
  0.6780608013250727  0.7851395011887152  0.6988123365557876
  0.7473473555351287  0.7678451813299295  0.7715154304169952
  0.6977664477641178  0.7678415574238747  0.7715213560622949
  0.6583469003012825  0.7681366792022372  0.5534791268923799
  0.6087659925302715  0.7681330552961823  0.5534850525376794
  0.6532779306623882  0.8223440959567816  0.5918764042376020
  0.6780729419535740  0.8081317369724614  0.5514094656125530
  0.7028604192881887  0.8223480426471295  0.5918691966115164
  0.6780597813052632  0.7794648519101078  0.5918990026102811
  0.6335525344885473  0.7823499147783936  0.5939447367315165
  0.6335665608527653  0.8110153546840995  0.5534548008727108
  0.7028531150628209  0.7937210348253142  0.6261578947339183
  0.6532722072918100  0.7937174109192593  0.6261638203792179
  0.6977841454239266  0.8479284515798585  0.6645551720791406
  0.7225791567151122  0.8337160925955385  0.6240882334540916
  0.7473666340497271  0.8479323982702065  0.6645479644530550
  0.7225659960668015  0.8050492075331848  0.6645777704518194
  0.6780587492500856  0.8079342704014706  0.6666235045730549
  0.6780727756143036  0.8365997103071766  0.6261335687142492
  0.7473593298243596  0.8193053904483910  0.6988366625754568
  0.6977784220533485  0.8193017665423362  0.6988425882207565
  0.7028650893520517  0.8451812439437757  0.5534791268923799
  0.6532841815810407  0.8451776200377206  0.5534850525376794
  0.6977961197131576  0.8993886606983200  0.5918764042376020
  0.7225911310043430  0.8851763017139997  0.5514094656125530
  0.7225779703560324  0.8565094166516463  0.5918990026102811
  0.6780707235393165  0.8593944795199321  0.5939447367315165
  0.6780847499035343  0.8880599194256381  0.5534548008727108
  0.6977903963425792  0.8707619756607977  0.6261638203792179
  0.5692889750535900  0.4599584202360833  0.5534791268923799
  0.5197080672825791  0.4599547963300284  0.5534850525376794
  0.5642200054146962  0.5141658369906277  0.5918764042376020
  0.5890150167058817  0.4999534780063076  0.5514094656125530
  0.6138024940404968  0.5141697836809757  0.5918691966115164
  0.5890018560575708  0.4712865929439540  0.5918990026102811
  0.5444946092408548  0.4741716558122398  0.5939447367315165
  0.5445086356050730  0.5028370957179459  0.5534548008727108
  0.6137951898151287  0.4855427758591602  0.6261578947339183
  0.5642142820441177  0.4855391519531054  0.6261638203792179
  0.6087262201762346  0.5397501926137047  0.6645551720791406
  0.6335212314674200  0.5255378336293846  0.6240882334540916
  0.6583087088020351  0.5397541393040526  0.6645479644530550
  0.6335080708191094  0.4968709485670308  0.6645777704518194
  0.5890008240023933  0.4997560114353167  0.6666235045730549
  0.5890148503666113  0.5284214513410228  0.6261335687142492
  0.6583014045766671  0.5111271314822372  0.6988366625754568
  0.6087204968056562  0.5111235075761824  0.6988425882207565
  0.6532324349377728  0.5653345482367816  0.7372339399206790
  0.6780274462289587  0.5511221892524615  0.6967670012956300
  0.7028149235635736  0.5653384949271295  0.7372267322945933
  0.6780142855806477  0.5224553041901078  0.7372565382933578
  0.6335070387639318  0.5253403670583936  0.7393022724145932
  0.6335210651281495  0.5540058069640996  0.6988123365557876
  0.7028076193382053  0.5367114871053141  0.7715154304169952
  0.6532267115671947  0.5367078631992593  0.7715213560622949
  0.6977386496993115  0.5909189038598585  0.8099127077622176
  0.7225336609904971  0.5767065448755384  0.7694457691371686
  0.7473211383251120  0.5909228505502064  0.8099055001361318
  0.7225205003421864  0.5480396598131848  0.8099353061348961
  0.6780132535254700  0.5509247226814705  0.8119810402561316
  0.6780272798896884  0.5795901625871767  0.7714911043973262
  0.7473138340997441  0.5622958427283909  0.8441941982585338
  0.6977329263287332  0.5622922188223362  0.8442001239038335
  0.7670398757520354  0.6022909004986152  0.8421245369787069
  0.7225194682870086  0.5765090783045475  0.8846598080976704
  0.7225334946512266  0.6051745182102536  0.8441698722388645
  0.5642262563333483  0.5369993610715669  0.5534850525376794
  0.6087381944654651  0.5912104017321661  0.5918764042376020
  0.6583206830912660  0.5912143484225141  0.5918691966115164
  0.6335200451083400  0.5483311576854925  0.5918990026102811
  0.5890127982916240  0.5512162205537783  0.5939447367315165
  0.5890268246558422  0.5798816604594843  0.5534548008727108
  0.6583133788658979  0.5625873406006987  0.6261578947339183
  0.6087324710948869  0.5625837166946438  0.6261638203792179
  0.6532444092270036  0.6167947573552430  0.6645551720791406
  0.6780394205181892  0.6025823983709230  0.6240882334540916
  0.7028268978528043  0.6167987040455911  0.6645479644530550
  0.6780262598698782  0.5739155133085693  0.6645777704518194
  0.6335190130531625  0.5768005761768552  0.6666235045730549
  0.6335330394173800  0.6054660160825613  0.6261335687142492
  0.7028195936274363  0.5881716962237756  0.6988366625754568
  0.6532386858564254  0.5881680723177207  0.6988425882207565
  0.6977506239885420  0.6423791129783200  0.7372339399206790
  0.7225456352797280  0.6281667539939999  0.6967670012956300
  0.7225324746314165  0.5994998689316463  0.7372565382933578
  0.6780252278147010  0.6023849317999321  0.7393022724145932
  0.6780392541789187  0.6310503717056380  0.6988123365557876
  0.7473258083889746  0.6137560518468526  0.7715154304169952
  0.6977449006179637  0.6137524279407977  0.7715213560622949
  0.7422568387500803  0.6679634686013970  0.8099127077622176
  0.7670518500412663  0.6537511096170767  0.7694457691371686
  0.7918393273758814  0.6679674152917450  0.8099055001361318
  0.7670386893929554  0.6250842245547232  0.8099353061348961
  0.7225314425762394  0.6279692874230091  0.8119810402561316
  0.7225454689404576  0.6566347273287151  0.7714911043973262
  0.7422511153795024  0.6393367835638747  0.8442001239038335
  0.6583253531551286  0.6140475497191603  0.5534791268923799
  0.6087444453841175  0.6140439258131054  0.5534850525376794
  0.6532563835162343  0.6682549664737046  0.5918764042376020
  0.6780513948074197  0.6540426074893846  0.5514094656125530
  0.7028388721420352  0.6682589131640526  0.5918691966115164
  0.6780382341591091  0.6253757224270310  0.5918990026102811
  0.6335309873423932  0.6282607852953166  0.5939447367315165
  0.6335450137066114  0.6569262252010227  0.5534548008727108
  0.7028315679166671  0.6396319053422372  0.6261578947339183
  0.6532506601456561  0.6396282814361823  0.6261638203792179
  0.6977625982777725  0.6938393220967816  0.6645551720791406
  0.7225576095689584  0.6796269631124615  0.6240882334540916
  0.7473450869035735  0.6938432687871295  0.6645479644530550
  0.7225444489206474  0.6509600780501077  0.6645777704518194
  0.6780372021039317  0.6538451409183936  0.6666235045730549
  0.6780512284681492  0.6825105808240997  0.6261335687142492
  0.6977568749071946  0.6652126370592593  0.6988425882207565
  0.7422688130393110  0.7194236777198585  0.7372339399206790
  0.7670638243304972  0.7052113187355382  0.6967670012956300
  0.7918513016651120  0.7194276244102065  0.7372267322945933
  0.7225434168654702  0.6794294965414707  0.7393022724145932
  0.7225574432296881  0.7080949364471766  0.6988123365557876
  0.7918439974397440  0.6908006165883911  0.7715154304169952
  0.7422630896687329  0.6907969926823361  0.7715213560622949
  0.7670496316270086  0.7050138521645474  0.8119810402561316
  0.7670636579912268  0.7336792920702535  0.7714911043973262
  0.7028435422058976  0.6910921144606988  0.5534791268923799
  0.6532626344348869  0.6910884905546437  0.5534850525376794
  0.6977745725670035  0.7452995312152431  0.5918764042376020
  0.7225695838581894  0.7310871722309229  0.5514094656125530
  0.7473570611928044  0.7453034779055913  0.5918691966115164
  0.7225564232098783  0.7024202871685694  0.5918990026102811
  0.6780491763931624  0.7053053500368551  0.5939447367315165
  0.6780632027573806  0.7339707899425612  0.5534548008727108
  0.7473497569674364  0.7166764700837757  0.6261578947339183
  0.6977688491964256  0.7166728461777209  0.6261638203792179
  0.7422807873285417  0.7708838868383199  0.6645551720791406
  0.7670757986197277  0.7566715278540000  0.6240882334540916
  0.7918632759543425  0.7708878335286681  0.6645479644530550
  0.7670626379714168  0.7280046427916462  0.6645777704518194
  0.7225553911547009  0.7308897056599321  0.6666235045730549
  0.7225694175189189  0.7595551455656382  0.6261335687142492
  0.7918559717289747  0.7422608257068526  0.6988366625754568
  0.7422750639579638  0.7422572018007976  0.6988425882207565
  0.7670616059162394  0.7564740612830090  0.7393022724145932
  0.7670756322804575  0.7851395011887152  0.6988123365557876
  0.7473617312566673  0.7681366792022372  0.5534791268923799
  0.6977808234856561  0.7681330552961823  0.5534850525376794
  0.7422927616177727  0.8223440959567816  0.5918764042376020
  0.7670877729089590  0.8081317369724614  0.5514094656125530
  0.7918752502435736  0.8223480426471295  0.5918691966115164
  0.7670746122606480  0.7794648519101078  0.5918990026102811
  0.7225673654439316  0.7823499147783936  0.5939447367315165
  0.7225813918081498  0.8110153546840995  0.5534548008727108
  0.7918679460182056  0.7937210348253142  0.6261578947339183
  0.7422870382471948  0.7937174109192593  0.6261638203792179
  0.7670735802054706  0.8079342704014706  0.6666235045730549
  0.7670876065696886  0.8365997103071766  0.6261335687142492
  0.7918799203074364  0.8451812439437757  0.5534791268923799
  0.7422990125364253  0.8451776200377206  0.5534850525376794
  0.7670855544947008  0.8593944795199321  0.5939447367315165
  0.6583038060089748  0.4599584202360833  0.5534791268923799
  0.6087228982379639  0.4599547963300284  0.5534850525376794
  0.6532348363700806  0.5141658369906277  0.5918764042376020
  0.6780298476612663  0.4999534780063076  0.5514094656125530
  0.7028173249958813  0.5141697836809757  0.5918691966115164
  0.6780166870129554  0.4712865929439540  0.5918990026102811
  0.6335094401962396  0.4741716558122398  0.5939447367315165
  0.6335234665604573  0.5028370957179459  0.5534548008727108
  0.7028100207705135  0.4855427758591602  0.6261578947339183
  0.6532291129995023  0.4855391519531054  0.6261638203792179
  0.6977410511316189  0.5397501926137047  0.6645551720791406
  0.7225360624228048  0.5255378336293846  0.6240882334540916
  0.7473235397574196  0.5397541393040526  0.6645479644530550
  0.6780296813219960  0.5284214513410228  0.6261335687142492
  0.7473162355320518  0.5111271314822372  0.6988366625754568
  0.7422472658931574  0.5653345482367816  0.7372339399206790
  0.7670422771843431  0.5511221892524615  0.6967670012956300
  0.7918297545189581  0.5653384949271295  0.7372267322945933
  0.7670291165360325  0.5224553041901078  0.7372565382933578
  0.7225218697193165  0.5253403670583936  0.7393022724145932
  0.7225358960835343  0.5540058069640996  0.6988123365557876
  0.7918224502935901  0.5367114871053141  0.7715154304169952
  0.7422415425225792  0.5367078631992593  0.7715213560622949
  0.7867534806546959  0.5909189038598585  0.8099127077622176
  0.8115484919458819  0.5767065448755384  0.7694457691371686
  0.8115353312975709  0.5480396598131848  0.8099353061348961
  0.7670280844808549  0.5509247226814705  0.8119810402561316
  0.7670421108450729  0.5795901625871767  0.7714911043973262
  0.7867477572841177  0.5622922188223362  0.8442001239038335
  0.7028219950597440  0.5370029849776219  0.5534791268923799
  0.6977530254208498  0.5912104017321661  0.5918764042376020
  0.7225480367120357  0.5769980427478459  0.5514094656125530
  0.7473355140466506  0.5912143484225141  0.5918691966115164
  0.7225348760637247  0.5483311576854925  0.5918990026102811
  0.6780276292470088  0.5512162205537783  0.5939447367315165
  0.6780416556112268  0.5798816604594843  0.5534548008727108
  0.7473282098212823  0.5625873406006987  0.6261578947339183
  0.6977473020502715  0.5625837166946438  0.6261638203792179
  0.7422592401823881  0.6167947573552430  0.6645551720791406
  0.7670542514735740  0.6025823983709230  0.6240882334540916
  0.7918417288081888  0.6167987040455911  0.6645479644530550
  0.7670410908252632  0.5739155133085693  0.6645777704518194
  0.7225338440085475  0.5768005761768552  0.6666235045730549
  0.7225478703727652  0.6054660160825613  0.6261335687142492
  0.7918344245828211  0.5881716962237756  0.6988366625754568
  0.7422535168118102  0.5881680723177207  0.6988425882207565
  0.8115604662351126  0.6281667539939999  0.6967670012956300
  0.8363479435697273  0.6423830596686679  0.7372267322945933
  0.8115473055868014  0.5994998689316463  0.7372565382933578
  0.7670400587700857  0.6023849317999321  0.7393022724145932
  0.8363406393443593  0.6137560518468526  0.7715154304169952
  0.7867597315733484  0.6137524279407977  0.7715213560622949
  0.8115462735316241  0.6279692874230091  0.8119810402561316
  0.8115602998958423  0.6566347273287151  0.7714911043973262
  0.7473401841105134  0.6140475497191603  0.5534791268923799
  0.6977592763395024  0.6140439258131054  0.5534850525376794
  0.7422712144716190  0.6682549664737046  0.5918764042376020
  0.7670662257628047  0.6540426074893846  0.5514094656125530
  0.7918537030974198  0.6682589131640526  0.5918691966115164
  0.7670530651144939  0.6253757224270310  0.5918990026102811
  0.7225458182977780  0.6282607852953166  0.5939447367315165
  0.7225598446619957  0.6569262252010227  0.5534548008727108
  0.7918463988720520  0.6396319053422372  0.6261578947339183
  0.7422654911010407  0.6396282814361823  0.6261638203792179
  0.7867774292331575  0.6938393220967816  0.6645551720791406
  0.8115724405243433  0.6796269631124615  0.6240882334540916
  0.8363599178589578  0.6938432687871295  0.6645479644530550
  0.8115592798760324  0.6509600780501077  0.6645777704518194
  0.7670520330593165  0.6538451409183936  0.6666235045730549
  0.7670660594235345  0.6825105808240997  0.6261335687142492
  0.8363526136335903  0.6652162609653143  0.6988366625754568
  0.8560786552858818  0.7052113187355382  0.6967670012956300
  0.8115582478208549  0.6794294965414707  0.7393022724145932
  0.8115722741850728  0.7080949364471766  0.6988123365557876
  0.7422774653902716  0.6910884905546437  0.5534850525376794
  0.7867894035223880  0.7452995312152431  0.5918764042376020
  0.8363718921481887  0.7453034779055913  0.5918691966115164
  0.8115712541652633  0.7024202871685694  0.5918990026102811
  0.7670640073485472  0.7053053500368551  0.5939447367315165
  0.7670780337127654  0.7339707899425612  0.5534548008727108
  0.8363645879228212  0.7166764700837757  0.6261578947339183
  0.7867836801518103  0.7166728461777209  0.6261638203792179
  0.8312956182839265  0.7708838868383199  0.6645551720791406
  0.8560906295751125  0.7566715278540000  0.6240882334540916
  0.8560774689268018  0.7280046427916462  0.6645777704518194
  0.8115702221100857  0.7308897056599321  0.6666235045730549
  0.8115842484743037  0.7595551455656382  0.6261335687142492
  0.8312898949133486  0.7422572018007976  0.6988425882207565
  0.8363765622120517  0.7681366792022372  0.5534791268923799
  0.7867956544410408  0.7681330552961823  0.5534850525376794
  0.8115821963993164  0.7823499147783936  0.5939447367315165
  0.8115962227635342  0.8110153546840995  0.5534548008727108
  0.8313018692025793  0.7937174109192593  0.6261638203792179
  0.7422496673254654  0.5141658369906277  0.5918764042376020
  0.7670446786166508  0.4999534780063076  0.5514094656125530
  0.7918321559512659  0.5141697836809757  0.5918691966115164
  0.7670315179683402  0.4712865929439540  0.5918990026102811
  0.7225242711516243  0.4741716558122398  0.5939447367315165
  0.7225382975158421  0.5028370957179459  0.5534548008727108
  0.7918248517258979  0.4855427758591602  0.6261578947339183
  0.7422439439548870  0.4855391519531054  0.6261638203792179
  0.7867558820870036  0.5397501926137047  0.6645551720791406
  0.8115508933781893  0.5255378336293846  0.6240882334540916
  0.8363383707128044  0.5397541393040526  0.6645479644530550
  0.8115377327298785  0.4968709485670308  0.6645777704518194
  0.7670304859131626  0.4997560114353167  0.6666235045730549
  0.8363310664874366  0.5111271314822372  0.6988366625754568
  0.7867501587164253  0.5111235075761824  0.6988425882207565
  0.8312620968485419  0.5653345482367816  0.7372339399206790
  0.8560571081397281  0.5511221892524615  0.6967670012956300
  0.8808445854743429  0.5653384949271295  0.7372267322945933
  0.8560439474914172  0.5224553041901078  0.7372565382933578
  0.8115367006747011  0.5253403670583936  0.7393022724145932
  0.8115507270389190  0.5540058069640996  0.6988123365557876
  0.8312563734779640  0.5367078631992593  0.7715213560622949
  0.8560569418004574  0.5795901625871767  0.7714911043973262
  0.7918368260151287  0.5370029849776219  0.5534791268923799
  0.7422559182441175  0.5369993610715669  0.5534850525376794
  0.7867678563762346  0.5912104017321661  0.5918764042376020
  0.8115628676674200  0.5769980427478459  0.5514094656125530
  0.8363503450020351  0.5912143484225141  0.5918691966115164
  0.7670564865666113  0.5798816604594843  0.5534548008727108
  0.8363430407766671  0.5625873406006987  0.6261578947339183
  0.8312740711377729  0.6167947573552430  0.6645551720791406
  0.8560690824289584  0.6025823983709230  0.6240882334540916
  0.8808565597635736  0.6167987040455911  0.6645479644530550
  0.8560559217806477  0.5739155133085693  0.6645777704518194
  0.8115486749639322  0.5768005761768552  0.6666235045730549
  0.8115627013281500  0.6054660160825613  0.6261335687142492
  0.8808492555382054  0.5881716962237756  0.6988366625754568
  0.8312683477671945  0.5881680723177207  0.6988425882207565
  0.8560548897254701  0.6023849317999321  0.7393022724145932
  0.8560689160896882  0.6310503717056380  0.6988123365557876
  0.8363550150658984  0.6140475497191603  0.5534791268923799
  0.7867741072948869  0.6140439258131054  0.5534850525376794
  0.8312860454270038  0.6682549664737046  0.5918764042376020
  0.8560810567181892  0.6540426074893846  0.5514094656125530
  0.8808685340528043  0.6682589131640526  0.5918691966115164
  0.8560678960698787  0.6253757224270310  0.5918990026102811
  0.8115606492531623  0.6282607852953166  0.5939447367315165
  0.8115746756173805  0.6569262252010227  0.5534548008727108
  0.8808612298274368  0.6396319053422372  0.6261578947339183
  0.8312803220564254  0.6396282814361823  0.6261638203792179
  0.8757922601885421  0.6938393220967816  0.6645551720791406
  0.9005872714797276  0.6796269631124615  0.6240882334540916
  0.9005741108314169  0.6509600780501077  0.6645777704518194
  0.8560668640147010  0.6538451409183936  0.6666235045730549
  0.8560808903789192  0.6825105808240997  0.6261335687142492
  0.8757865368179639  0.6652126370592593  0.6988425882207565
  0.8808732041166675  0.6910921144606988  0.5534791268923799
  0.8758042344777728  0.7452995312152431  0.5918764042376020
  0.9005860851206479  0.7024202871685694  0.5918990026102811
  0.8560788383039317  0.7053053500368551  0.5939447367315165
  0.8560928646681502  0.7339707899425612  0.5534548008727108
  0.8757985111071946  0.7166728461777209  0.6261638203792179
  0.8363334679197438  0.4599584202360833  0.5534791268923799
  0.8312644982808497  0.5141658369906277  0.5918764042376020
  0.8560595095720356  0.4999534780063076  0.5514094656125530
  0.8808469869066502  0.5141697836809757  0.5918691966115164
  0.8560463489237246  0.4712865929439540  0.5918990026102811
  0.8115391021070089  0.4741716558122398  0.5939447367315165
  0.8115531284712266  0.5028370957179459  0.5534548008727108
  0.8808396826812827  0.4855427758591602  0.6261578947339183
  0.8312587749102716  0.4855391519531054  0.6261638203792179
  0.8757707130423882  0.5397501926137047  0.6645551720791406
  0.9005657243335740  0.5255378336293846  0.6240882334540916
  0.9253532016681889  0.5397541393040526  0.6645479644530550
  0.9005525636852633  0.4968709485670308  0.6645777704518194
  0.8560453168685471  0.4997560114353167  0.6666235045730549
  0.8560593432327651  0.5284214513410228  0.6261335687142492
  0.8757649896718100  0.5111235075761824  0.6988425882207565
  0.9005655579943035  0.5540058069640996  0.6988123365557876
  0.8808516569705130  0.5370029849776219  0.5534791268923799
  0.8312707491995023  0.5369993610715669  0.5534850525376794
  0.8757826873316189  0.5912104017321661  0.5918764042376020
  0.9005776986228048  0.5769980427478459  0.5514094656125530
  0.9253651759574198  0.5912143484225141  0.5918691966115164
  0.9005645379744938  0.5483311576854925  0.5918990026102811
  0.8560572911577781  0.5512162205537783  0.5939447367315165
  0.8560713175219961  0.5798816604594843  0.5534548008727108
  0.9253578717320519  0.5625873406006987  0.6261578947339183
  0.8757769639610410  0.5625837166946438  0.6261638203792179
  0.9005635059193166  0.5768005761768552  0.6666235045730549
  0.9005775322835344  0.6054660160825613  0.6261335687142492
  0.9253698460212828  0.6140475497191603  0.5534791268923799
  0.8757889382502715  0.6140439258131054  0.5534850525376794
  0.9005754802085471  0.6282607852953166  0.5939447367315165
  0.9005895065727653  0.6569262252010227  0.5534548008727108
  0.9202951530118102  0.6396282814361823  0.6261638203792179
  0.9253482988751286  0.4599584202360833  0.5534791268923799
  0.8757673911041174  0.4599547963300284  0.5534850525376794
  0.9202793292362345  0.5141658369906277  0.5918764042376020
  0.9450743405274201  0.4999534780063076  0.5514094656125530
  0.9450611798791093  0.4712865929439540  0.5918990026102811
  0.9005539330623934  0.4741716558122398  0.5939447367315165
  0.9005679594266114  0.5028370957179459  0.5534548008727108
  0.9202736058656561  0.4855391519531054  0.6261638203792179
  0.9202855801548870  0.5369993610715669  0.5534850525376794
  0.9450721221131626  0.5512162205537783  0.5939447367315165
  0.3913239545812826  0.9222258086853141  0.5534791268923799
  0.3417430468102717  0.9222221847792591  0.5534850525376794
  0.4110368355852632  0.9335539813931848  0.5918990026102811
  0.4803387855366673  0.9222258086853141  0.5534791268923799
  0.4307578777656563  0.9222221847792591  0.5534850525376794
  0.5000516665406477  0.9335539813931848  0.5918990026102811
  0.4555444197239318  0.9364390442614704  0.5939447367315165
  0.5693536164920519  0.9222258086853141  0.5534791268923799
  0.5197727087210408  0.9222221847792591  0.5534850525376794
  0.5890664974960326  0.9335539813931848  0.5918990026102811
  0.5445592506793164  0.9364390442614704  0.5939447367315165
  0.6583684474474366  0.9222258086853141  0.5534791268923799
  0.6087875396764254  0.9222221847792591  0.5534850525376794
  0.0796919611620349  0.3600806541978988  0.5918691966115164
  0.0994106985889585  0.3714487041463074  0.6240882334540916
  0.1241981759235734  0.3856650098209756  0.6645479644530550
  0.0993975379406476  0.3427818190839538  0.6645777704518194
  0.1241908716982056  0.3570380019991601  0.6988366625754568
  0.1191219020593111  0.4112454187537045  0.7372339399206790
  0.1439169133504972  0.3970330597693843  0.6967670012956300
  0.1687043906851119  0.4112493654440523  0.7372267322945933
  0.1439037527021862  0.3683661747070306  0.7372565382933578
  0.0994105322496881  0.3999166774810227  0.6988123365557876
  0.1686970864597438  0.3826223576222372  0.7715154304169952
  0.1884231281120354  0.4226174153924612  0.7694457691371686
  0.2132106054466505  0.4368337210671296  0.8099055001361318
  0.1884099674637246  0.3939505303301076  0.8099353061348961
  0.1439167470112267  0.4255010331040996  0.7714911043973262
  0.2132033012212823  0.4082067132453141  0.8441941982585338
  0.2329293428735739  0.4482017710155383  0.8421245369787069
  0.2577168202081888  0.4624180766902065  0.8825842679776702
  0.0796966312258980  0.3829138554945447  0.5534791268923799
  0.0746276615870036  0.4371212722490891  0.5918764042376020
  0.0994226728781894  0.4229089132647691  0.5514094656125530
  0.0994095122298785  0.3942420282024155  0.5918990026102811
  0.0549162917773805  0.4257925309764073  0.5534548008727108
  0.1242028459874364  0.4084982111176216  0.6261578947339183
  0.0746219382164254  0.4084945872115668  0.6261638203792179
  0.1191338763485420  0.4627056278721660  0.6645551720791406
  0.1439288876397278  0.4484932688878460  0.6240882334540916
  0.1687163649743426  0.4627095745625140  0.6645479644530550
  0.1439157269914169  0.4198263838254924  0.6645777704518194
  0.0994084801747010  0.4227114466937783  0.6666235045730549
  0.0994225065389189  0.4513768865994846  0.6261335687142492
  0.1687090607489750  0.4340825667406987  0.6988366625754568
  0.1191281529779639  0.4340789428346437  0.6988425882207565
  0.1636400911100804  0.4882899834952429  0.7372339399206790
  0.1884351024012663  0.4740776245109229  0.6967670012956300
  0.2132225797358813  0.4882939301855907  0.7372267322945933
  0.1884219417529552  0.4454107394485692  0.7372565382933578
  0.1439146949362395  0.4482958023168552  0.7393022724145932
  0.1439287213004573  0.4769612422225613  0.6988123365557876
  0.2132152755105134  0.4596669223637756  0.7715154304169952
  0.1636343677395023  0.4596632984577206  0.7715213560622949
  0.2081463058716188  0.5138743391183198  0.8099127077622176
  0.2329413171628049  0.4996619801339998  0.7694457691371686
  0.2577287944974195  0.5138782858086678  0.8099055001361318
  0.2329281565144938  0.4709950950716462  0.8099353061348961
  0.1884209096977779  0.4738801579399321  0.8119810402561316
  0.1884349360619959  0.5025455978456381  0.7714911043973262
  0.2577214902720521  0.4852512779868527  0.8441941982585338
  0.2081405825010408  0.4852476540807975  0.8442001239038335
  0.2526525206331572  0.5394586947413968  0.8825914756037559
  0.2774475319243432  0.5252463357570767  0.8421245369787069
  0.3022350092589580  0.5394626414317449  0.8825842679776702
  0.2774343712760323  0.4965794506947230  0.8826140739764347
  0.2329411508235344  0.5281299534687151  0.8441698722388645
  0.3022277050335902  0.5108356336099296  0.9168729661000723
  0.3219537466858817  0.5508306913801536  0.9148033048202455
  0.1241886030666502  0.2830360894563604  0.5918691966115164
  0.1191123292023882  0.3086164983890893  0.6645551720791406
  0.1439073404935741  0.2944041394047691  0.6240882334540916
  0.1686948178281888  0.3086204450794373  0.6645479644530550
  0.1438941798452632  0.2657372543424154  0.6645777704518194
  0.1686875136028209  0.2799934372576218  0.6988366625754568
  0.1636185439639266  0.3342008540121662  0.7372339399206790
  0.1884135552551125  0.3199884950278460  0.6967670012956300
  0.2132010325897273  0.3342048007025140  0.7372267322945933
  0.1884003946068017  0.2913216099654923  0.7372565382933578
  0.1439071741543035  0.3228721127394841  0.6988123365557876
  0.2131937283643593  0.3055777928806986  0.7715154304169952
  0.2081247587254650  0.3597852096352431  0.8099127077622176
  0.2329197700166510  0.3455728506509229  0.7694457691371686
  0.2577072473512658  0.3597891563255911  0.8099055001361318
  0.2329066093683401  0.3169059655885692  0.8099353061348961
  0.1884133889158422  0.3484564683625610  0.7714911043973262
  0.2576999431258980  0.3311621485037755  0.8441941982585338
  0.2774259847781895  0.3711572062740000  0.8421245369787069
  0.3022134621128041  0.3853735119486679  0.8825842679776702
  0.2329196036773805  0.3740408239856381  0.8441698722388645
  0.1241932731305134  0.3058692907530063  0.5534791268923799
  0.1191243034916189  0.3600767075075508  0.5918764042376020
  0.1687067921174196  0.3600806541978988  0.5918691966115164
  0.1439061541344939  0.3171974634608769  0.5918990026102811
  0.0993989073177779  0.3200825263291628  0.5939447367315165
  0.0994129336819959  0.3487479662348687  0.5534548008727108
  0.1686994878920518  0.3314536463760830  0.6261578947339183
  0.1191185801210408  0.3314500224700285  0.6261638203792179
  0.1636305182531570  0.3856610631306276  0.6645551720791406
  0.1884255295443429  0.3714487041463074  0.6240882334540916
  0.2132130068789580  0.3856650098209756  0.6645479644530550
  0.1884123688960323  0.3427818190839538  0.6645777704518194
  0.1439051220793163  0.3456668819522398  0.6666235045730549
  0.1439191484435345  0.3743323218579460  0.6261335687142492
  0.2132057026535902  0.3570380019991601  0.6988366625754568
  0.1636247948825791  0.3570343780931053  0.6988425882207565
  0.2081367330146957  0.4112454187537045  0.7372339399206790
  0.2329317443058817  0.3970330597693843  0.6967670012956300
  0.2577192216404965  0.4112493654440523  0.7372267322945933
  0.2329185836575708  0.3683661747070306  0.7372565382933578
  0.1884113368408548  0.3712512375753166  0.7393022724145932
  0.1884253632050728  0.3999166774810227  0.6988123365557876
  0.2577119174151287  0.3826223576222372  0.7715154304169952
  0.2081310096441177  0.3826187337161822  0.7715213560622949
  0.2526429477762345  0.4368297743767814  0.8099127077622176
  0.2774379590674202  0.4226174153924612  0.7694457691371686
  0.3022254364020350  0.4368337210671296  0.8099055001361318
  0.2774247984191091  0.3939505303301076  0.8099353061348961
  0.2329175516023932  0.3968355931983935  0.8119810402561316
  0.2329315779666112  0.4255010331040996  0.7714911043973262
  0.3022181321766670  0.4082067132453141  0.8441941982585338
  0.2526372244056561  0.4082030893392591  0.8442001239038335
  0.2971491625377728  0.4624141299998585  0.8825914756037559
  0.3219441738289585  0.4482017710155383  0.8421245369787069
  0.3219310131806474  0.4195348859531847  0.8826140739764347
  0.2774237663639317  0.4224199488214704  0.8846598080976704
  0.2774377927281498  0.4510853887271765  0.8441698722388645
  0.3467243469382057  0.4337910688683910  0.9168729661000723
  0.3664503885904970  0.4737861266386152  0.9148033048202455
  0.1687114621812826  0.3829138554945447  0.5534791268923799
  0.1191305544102714  0.3829102315884899  0.5534850525376794
  0.1884375038335739  0.4229089132647691  0.5514094656125530
  0.1884243431852629  0.3942420282024155  0.5918990026102811
  0.1439170963685472  0.3971270910707012  0.5939447367315165
  0.1439311227327652  0.4257925309764073  0.5534548008727108
  0.1636367691718099  0.4084945872115668  0.6261638203792179
  0.2081487073039266  0.4627056278721660  0.6645551720791406
  0.2329437185951122  0.4484932688878460  0.6240882334540916
  0.2577311959297272  0.4627095745625140  0.6645479644530550
  0.2329305579468015  0.4198263838254924  0.6645777704518194
  0.1884233111300856  0.4227114466937783  0.6666235045730549
  0.2577238917043596  0.4340825667406987  0.6988366625754568
  0.2081429839333483  0.4340789428346437  0.6988425882207565
  0.2526549220654650  0.4882899834952429  0.7372339399206790
  0.2774499333566509  0.4740776245109229  0.6967670012956300
  0.3022374106912659  0.4882939301855907  0.7372267322945933
  0.2774367727083398  0.4454107394485692  0.7372565382933578
  0.2329295258916239  0.4482958023168552  0.7393022724145932
  0.2329435522558422  0.4769612422225613  0.6988123365557876
  0.3022301064658979  0.4596669223637756  0.7715154304169952
  0.2526491986948868  0.4596632984577206  0.7715213560622949
  0.2971611368270035  0.5138743391183198  0.8099127077622176
  0.3219561481181894  0.4996619801339998  0.7694457691371686
  0.3467436254528042  0.5138782858086678  0.8099055001361318
  0.3219429874698785  0.4709950950716462  0.8099353061348961
  0.2774357406531627  0.4738801579399321  0.8119810402561316
  0.2774497670173807  0.5025455978456381  0.7714911043973262
  0.3467363212274362  0.4852512779868527  0.8441941982585338
  0.2971554134564254  0.4852476540807975  0.8442001239038335
  0.3416673515885420  0.5394586947413968  0.8825914756037559
  0.3664623628797279  0.5252463357570767  0.8421245369787069
  0.3912498402143425  0.5394626414317449  0.8825842679776702
  0.3664492022314166  0.4965794506947230  0.8826140739764347
  0.3219559817789185  0.5281299534687151  0.8441698722388645
  0.4109685776412663  0.5508306913801536  0.9148033048202455
  0.3664621965404575  0.5537143090917920  0.9168486400804030
  0.1686852449712657  0.2059915247148218  0.5918691966115164
  0.1636089711070036  0.2315719336475507  0.6645551720791406
  0.1884039823981894  0.2173595746632307  0.6240882334540916
  0.2131914597328041  0.2315758803378987  0.6645479644530550
  0.2131841555074363  0.2029488725160834  0.6988366625754568
  0.2081151858685420  0.2571562892706276  0.7372339399206790
  0.2329101971597282  0.2429439302863076  0.6967670012956300
  0.2576976744943426  0.2571602359609754  0.7372267322945933
  0.2328970365114167  0.2142770452239539  0.7372565382933578
  0.1884038160589187  0.2458275479979458  0.6988123365557876
  0.2576903702689748  0.2285332281391603  0.7715154304169952
  0.2526214006300804  0.2827406448937045  0.8099127077622176
  0.2774164119212663  0.2685282859093845  0.7694457691371686
  0.3022038892558812  0.2827445915840525  0.8099055001361318
  0.2329100308204576  0.2714119036210226  0.7714911043973262
  0.3219226266828049  0.2941126415324614  0.8421245369787069
  0.3467101040174196  0.3083289472071293  0.8825842679776702
  0.2774162455819956  0.2969962592440997  0.8441698722388645
  0.1686899150351284  0.2288247260114680  0.5534791268923799
  0.1636209453962344  0.2830321427660122  0.5918764042376020
  0.2132034340220350  0.2830360894563604  0.5918691966115164
  0.1884027960391093  0.2401528987193385  0.5918990026102811
  0.1438955492223933  0.2430379615876243  0.5939447367315165
  0.2131961297966671  0.2544090816345448  0.6261578947339183
  0.1636152220256560  0.2544054577284899  0.6261638203792179
  0.2081271601577729  0.3086164983890893  0.6645551720791406
  0.2329221714489585  0.2944041394047691  0.6240882334540916
  0.2577096487835736  0.3086204450794373  0.6645479644530550
  0.2329090108006476  0.2657372543424154  0.6645777704518194
  0.1884017639839319  0.2686223172107012  0.6666235045730549
  0.1884157903481499  0.2972877571164074  0.6261335687142492
  0.2577023445582055  0.2799934372576218  0.6988366625754568
  0.2081214367871944  0.2799898133515668  0.6988425882207565
  0.2526333749193113  0.3342008540121662  0.7372339399206790
  0.2774283862104970  0.3199884950278460  0.6967670012956300
  0.3022158635451118  0.3342048007025140  0.7372267322945933
  0.2774152255621862  0.2913216099654923  0.7372565382933578
  0.2329079787454703  0.2942066728337780  0.7393022724145932
  0.2329220051096881  0.3228721127394841  0.6988123365557876
  0.3022085593197436  0.3055777928806986  0.7715154304169952
  0.2526276515487330  0.3055741689746438  0.7715213560622949
  0.2971395896808498  0.3597852096352431  0.8099127077622176
  0.3219346009720355  0.3455728506509229  0.7694457691371686
  0.3467220783066504  0.3597891563255911  0.8099055001361318
  0.3219214403237244  0.3169059655885692  0.8099353061348961
  0.2774141935070086  0.3197910284568551  0.8119810402561316
  0.2774282198712270  0.3484564683625610  0.7714911043973262
  0.3467147740812825  0.3311621485037755  0.8441941982585338
  0.2971338663102714  0.3311585245977208  0.8442001239038335
  0.3416458044423883  0.3853695652583199  0.8825914756037559
  0.3664408157335741  0.3711572062740000  0.8421245369787069
  0.3912282930681891  0.3853735119486679  0.8825842679776702
  0.3664276550852632  0.3424903212116463  0.8826140739764347
  0.3219204082685468  0.3453753840799321  0.8846598080976704
  0.3219344346327651  0.3740408239856381  0.8441698722388645
  0.3912209888428209  0.3567465041268524  0.9168729661000723
  0.4109470304951123  0.3967415618970768  0.9148033048202455
  0.3664406493943036  0.3996251796087150  0.9168486400804030
  0.2132081040858979  0.3058692907530063  0.5534791268923799
  0.1636271963148868  0.3058656668469513  0.5534850525376794
  0.2081391344470035  0.3600767075075508  0.5918764042376020
  0.2329341457381892  0.3458643485232306  0.5514094656125530
  0.2577216230728042  0.3600806541978988  0.5918691966115164
  0.2329209850898785  0.3171974634608769  0.5918990026102811
  0.1884137382731623  0.3200825263291628  0.5939447367315165
  0.1884277646373807  0.3487479662348687  0.5534548008727108
  0.2577143188474365  0.3314536463760830  0.6261578947339183
  0.2081334110764252  0.3314500224700285  0.6261638203792179
  0.2526453492085422  0.3856610631306276  0.6645551720791406
  0.2774403604997277  0.3714487041463074  0.6240882334540916
  0.3022278378343430  0.3856650098209756  0.6645479644530550
  0.2774271998514171  0.3427818190839538  0.6645777704518194
  0.2329199530347009  0.3456668819522398  0.6666235045730549
  0.2329339793989192  0.3743323218579460  0.6261335687142492
  0.3022205336089747  0.3570380019991601  0.6988366625754568
  0.2526396258379639  0.3570343780931053  0.6988425882207565
  0.2971515639700805  0.4112454187537045  0.7372339399206790
  0.3219465752612662  0.3970330597693843  0.6967670012956300
  0.3467340525958810  0.4112493654440523  0.7372267322945933
  0.3219334146129554  0.3683661747070306  0.7372565382933578
  0.2774261677962395  0.3712512375753166  0.7393022724145932
  0.2774401941604575  0.3999166774810227  0.6988123365557876
  0.3467267483705133  0.3826223576222372  0.7715154304169952
  0.2971458405995022  0.3826187337161822  0.7715213560622949
  0.3416577787316190  0.4368297743767814  0.8099127077622176
  0.3664527900228050  0.4226174153924612  0.7694457691371686
  0.3912402673574196  0.4368337210671296  0.8099055001361318
  0.3664396293744941  0.3939505303301076  0.8099353061348961
  0.3219323825577780  0.3968355931983935  0.8119810402561316
  0.3219464089219960  0.4255010331040996  0.7714911043973262
  0.3912329631320517  0.4082067132453141  0.8441941982585338
  0.3416520553610412  0.4082030893392591  0.8442001239038335
  0.4109590047843431  0.4482017710155383  0.8421245369787069
  0.4357464821189581  0.4624180766902065  0.8825842679776702
  0.4109458441360324  0.4195348859531847  0.8826140739764347
  0.3664385973193158  0.4224199488214704  0.8846598080976704
  0.3664526236835343  0.4510853887271765  0.8441698722388645
  0.4357391778935901  0.4337910688683910  0.9168729661000723
  0.3861582701225792  0.4337874449623358  0.9168788917453718
  0.4306702082546959  0.4879984856229354  0.9552702434452945
  0.4554652195458818  0.4737861266386152  0.9148033048202455
  0.4802526968804966  0.4880024323132834  0.9552630358192086
  0.4554520588975709  0.4451192415762615  0.9552928418179730
  0.2577262931366671  0.3829138554945447  0.5534791268923799
  0.2081453853656562  0.3829102315884899  0.5534850525376794
  0.2526573234977729  0.4371212722490891  0.5918764042376020
  0.2774523347889586  0.4229089132647691  0.5514094656125530
  0.3022398121235732  0.4371252189394371  0.5918691966115164
  0.2774391741406476  0.3942420282024155  0.5918990026102811
  0.2329459536881499  0.4257925309764073  0.5534548008727108
  0.3022325078982057  0.4084982111176216  0.6261578947339183
  0.2971635382593114  0.4627056278721660  0.6645551720791406
  0.3219585495504970  0.4484932688878460  0.6240882334540916
  0.3467460268851122  0.4627095745625140  0.6645479644530550
  0.3219453889021863  0.4198263838254924  0.6645777704518194
  0.2774381420854704  0.4227114466937783  0.6666235045730549
  0.2774521684496884  0.4513768865994846  0.6261335687142492
  0.3467387226597439  0.4340825667406987  0.6988366625754568
  0.2971578148887331  0.4340789428346437  0.6988425882207565
  0.3416697530208497  0.4882899834952429  0.7372339399206790
  0.3664647643120355  0.4740776245109229  0.6967670012956300
  0.3912522416466503  0.4882939301855907  0.7372267322945933
  0.3664516036637246  0.4454107394485692  0.7372565382933578
  0.3219443568470087  0.4482958023168552  0.7393022724145932
  0.3219583832112267  0.4769612422225613  0.6988123365557876
  0.3912449374212825  0.4596669223637756  0.7715154304169952
  0.3416640296502714  0.4596632984577206  0.7715213560622949
  0.4109709790735742  0.4996619801339998  0.7694457691371686
  0.4357584564081888  0.5138782858086678  0.8099055001361318
  0.4109578184252629  0.4709950950716462  0.8099353061348961
  0.3664505716085468  0.4738801579399321  0.8119810402561316
  0.3664645979727652  0.5025455978456381  0.7714911043973262
  0.4357511521828210  0.4852512779868527  0.8441941982585338
  0.3861702444118097  0.4852476540807975  0.8442001239038335
  0.4306821825439268  0.5394586947413968  0.8825914756037559
  0.4554771938351123  0.5252463357570767  0.8421245369787069
  0.4802646711697271  0.5394626414317449  0.8825842679776702
  0.4554640331868012  0.4965794506947230  0.8826140739764347
  0.4802573669443593  0.5108356336099296  0.9168729661000723
  0.4306764591733484  0.5108320097038741  0.9168788917453718
  0.4751883973054653  0.5650430503644738  0.9552702434452945
  0.4999834085966510  0.5508306913801536  0.9148033048202455
  0.5247708859312659  0.5650469970548218  0.9552630358192086
  0.4999702479483397  0.5221638063177999  0.9552928418179730
  0.4554630011316242  0.5250488691860858  0.9573385759392088
  0.4554770274958422  0.5537143090917920  0.9168486400804030
  0.2576881016374194  0.1545313155963603  0.6645479644530550
  0.2774068390643432  0.1658993655447690  0.6967670012956300
  0.3021943163989582  0.1801156712194370  0.7372267322945933
  0.3219130538258816  0.1914837211678459  0.7694457691371686
  0.2131865569397441  0.1517801612699294  0.5534791268923799
  0.2081175873008497  0.2059875780244738  0.5918764042376020
  0.2329125985920353  0.1917752190401536  0.5514094656125530
  0.2577000759266503  0.2059915247148218  0.5918691966115164
  0.2328994379437247  0.1631083339778002  0.5918990026102811
  0.1884062174912267  0.1946588367517920  0.5534548008727108
  0.2576927717012825  0.1773645168930063  0.6261578947339183
  0.2081118639302716  0.1773608929869515  0.6261638203792179
  0.2526238020623883  0.2315719336475507  0.6645551720791406
  0.2774188133535740  0.2173595746632307  0.6240882334540916
  0.3022062906881889  0.2315758803378987  0.6645479644530550
  0.2774056527052632  0.1886926896008768  0.6645777704518194
  0.2328984058885471  0.1915777524691628  0.6666235045730549
  0.2329124322527653  0.2202431923748689  0.6261335687142492
  0.3021989864628211  0.2029488725160834  0.6988366625754568
  0.2526180786918102  0.2029452486100284  0.6988425882207565
  0.2971300168239266  0.2571562892706276  0.7372339399206790
  0.3219250281151124  0.2429439302863076  0.6967670012956300
  0.3467125054497271  0.2571602359609754  0.7372267322945933
  0.3219118674668013  0.2142770452239539  0.7372565382933578
  0.2774046206500856  0.2171621080922397  0.7393022724145932
  0.2774186470143034  0.2458275479979458  0.6988123365557876
  0.3467052012243594  0.2285332281391603  0.7715154304169952
  0.2971242934533485  0.2285296042331053  0.7715213560622949
  0.3416362315854654  0.2827406448937045  0.8099127077622176
  0.3664312428766511  0.2685282859093845  0.7694457691371686
  0.3912187202112657  0.2827445915840525  0.8099055001361318
  0.3219108354116241  0.2427464637153166  0.8119810402561316
  0.3219248617758421  0.2714119036210226  0.7714911043973262
  0.3912114159858979  0.2541175837622369  0.8441941982585338
  0.3416305082148870  0.2541139598561822  0.8442001239038335
  0.3861424463470035  0.3083250005167814  0.8825914756037559
  0.4109374576381894  0.2941126415324614  0.8421245369787069
  0.4357249349728040  0.3083289472071293  0.8825842679776702
  0.4109242969898783  0.2654457564701077  0.8826140739764347
  0.3664310765373802  0.2969962592440997  0.8441698722388645
  0.4554436723997277  0.3196969971555383  0.9148033048202455
  0.2577047459905132  0.2288247260114680  0.5534791268923799
  0.2081238382195021  0.2288211021054130  0.5534850525376794
  0.2526357763516188  0.2830321427660122  0.5918764042376020
  0.2774307876428048  0.2688197837816920  0.5514094656125530
  0.3022182649774195  0.2830360894563604  0.5918691966115164
  0.2774176269944941  0.2401528987193385  0.5918990026102811
  0.2329103801777780  0.2430379615876243  0.5939447367315165
  0.2329244065419960  0.2717034014933303  0.5534548008727108
  0.3022109607520518  0.2544090816345448  0.6261578947339183
  0.2526300529810409  0.2544054577284899  0.6261638203792179
  0.2971419911131573  0.3086164983890893  0.6645551720791406
  0.3219370024043433  0.2944041394047691  0.6240882334540916
  0.3467244797389581  0.3086204450794373  0.6645479644530550
  0.3219238417560324  0.2657372543424154  0.6645777704518194
  0.2774165949393163  0.2686223172107012  0.6666235045730549
  0.2774306213035347  0.2972877571164074  0.6261335687142492
  0.3467171755135903  0.2799934372576218  0.6988366625754568
  0.2971362677425795  0.2799898133515668  0.6988425882207565
  0.3416482058746959  0.3342008540121662  0.7372339399206790
  0.3664432171658818  0.3199884950278460  0.6967670012956300
  0.3912306945004966  0.3342048007025140  0.7372267322945933
  0.3664300565175709  0.2913216099654923  0.7372565382933578
  0.3219228097008552  0.2942066728337780  0.7393022724145932
  0.3219368360650728  0.3228721127394841  0.6988123365557876
  0.3912233902751286  0.3055777928806986  0.7715154304169952
  0.3416424825041179  0.3055741689746438  0.7715213560622949
  0.3861544206362343  0.3597852096352431  0.8099127077622176
  0.4109494319274203  0.3455728506509229  0.7694457691371686
  0.4357369092620349  0.3597891563255911  0.8099055001361318
  0.4109362712791094  0.3169059655885692  0.8099353061348961
  0.3664290244623933  0.3197910284568551  0.8119810402561316
  0.3664430508266113  0.3484564683625610  0.7714911043973262
  0.4357296050366671  0.3311621485037755  0.8441941982585338
  0.3861486972656560  0.3311585245977208  0.8442001239038335
  0.4306606353977727  0.3853695652583199  0.8825914756037559
  0.4554556466889586  0.3711572062740000  0.8421245369787069
  0.4802431240235732  0.3853735119486679  0.8825842679776702
  0.4554424860406475  0.3424903212116463  0.8826140739764347
  0.4109352392239316  0.3453753840799321  0.8846598080976704
  0.4109492655881496  0.3740408239856381  0.8441698722388645
  0.4802358197982056  0.3567465041268524  0.9168729661000723
  0.4306549120271947  0.3567428802207974  0.9168788917453718
  0.4999618614504969  0.3967415618970768  0.9148033048202455
  0.4554554803496881  0.3996251796087150  0.9168486400804030
  0.3022229350412824  0.3058692907530063  0.5534791268923799
  0.2526420272702716  0.3058656668469513  0.5534850525376794
  0.2971539654023883  0.3600767075075508  0.5918764042376020
  0.3219489766935740  0.3458643485232306  0.5514094656125530
  0.3467364540281888  0.3600806541978988  0.5918691966115164
  0.3219358160452631  0.3171974634608769  0.5918990026102811
  0.2774285692285472  0.3200825263291628  0.5939447367315165
  0.2774425955927652  0.3487479662348687  0.5534548008727108
  0.3467291498028210  0.3314536463760830  0.6261578947339183
  0.2971482420318101  0.3314500224700285  0.6261638203792179
  0.3416601801639266  0.3856610631306276  0.6645551720791406
  0.3664551914551125  0.3714487041463074  0.6240882334540916
  0.3912426687897273  0.3856650098209756  0.6645479644530550
  0.3664420308068014  0.3427818190839538  0.6645777704518194
  0.3219347839900853  0.3456668819522398  0.6666235045730549
  0.3219488103543037  0.3743323218579460  0.6261335687142492
  0.3912353645643595  0.3570380019991601  0.6988366625754568
  0.3416544567933487  0.3570343780931053  0.6988425882207565
  0.3861663949254651  0.4112454187537045  0.7372339399206790
  0.4109614062166510  0.3970330597693843  0.6967670012956300
  0.4357488835512658  0.4112493654440523  0.7372267322945933
  0.4109482455683401  0.3683661747070306  0.7372565382933578
  0.3664409987516242  0.3712512375753166  0.7393022724145932
  0.3664550251158420  0.3999166774810227  0.6988123365557876
  0.4357415793258978  0.3826223576222372  0.7715154304169952
  0.3861606715548871  0.3826187337161822  0.7715213560622949
  0.4306726096870036  0.4368297743767814  0.8099127077622176
  0.4554676209781895  0.4226174153924612  0.7694457691371686
  0.4802550983128041  0.4368337210671296  0.8099055001361318
  0.4554544603298785  0.3939505303301076  0.8099353061348961
  0.4109472135131625  0.3968355931983935  0.8119810402561316
  0.4109612398773805  0.4255010331040996  0.7714911043973262
  0.4802477940874365  0.4082067132453141  0.8441941982585338
  0.4306668863164255  0.4082030893392591  0.8442001239038335
  0.4751788244485419  0.4624141299998585  0.8825914756037559
  0.4999738357397278  0.4482017710155383  0.8421245369787069
  0.5247613130743424  0.4624180766902065  0.8825842679776702
  0.4999606750914167  0.4195348859531847  0.8826140739764347
  0.4554534282747009  0.4224199488214704  0.8846598080976704
  0.4554674546389189  0.4510853887271765  0.8441698722388645
  0.5247540088489748  0.4337910688683910  0.9168729661000723
  0.4751731010779640  0.4337874449623358  0.9168788917453718
  0.5196850392100806  0.4879984856229354  0.9552702434452945
  0.5444800505012661  0.4737861266386152  0.9148033048202455
  0.5692675278358812  0.4880024323132834  0.9552630358192086
  0.5444668898529552  0.4451192415762615  0.9552928418179730
  0.4999596430362398  0.4480043044445473  0.9573385759392088
  0.4999736694004574  0.4766697443502534  0.9168486400804030
  0.3467411240920517  0.3829138554945447  0.5534791268923799
  0.2971602163210408  0.3829102315884899  0.5534850525376794
  0.3416721544531575  0.4371212722490891  0.5918764042376020
  0.3664671657443432  0.4229089132647691  0.5514094656125530
  0.3912546430789580  0.4371252189394371  0.5918691966115164
  0.3664540050960323  0.3942420282024155  0.5918990026102811
  0.3219467582793165  0.3971270910707012  0.5939447367315165
  0.3219607846435344  0.4257925309764073  0.5534548008727108
  0.3912473388535902  0.4084982111176216  0.6261578947339183
  0.3416664310825791  0.4084945872115668  0.6261638203792179
  0.3861783692146958  0.4627056278721660  0.6645551720791406
  0.4109733805058817  0.4484932688878460  0.6240882334540916
  0.4357608578404967  0.4627095745625140  0.6645479644530550
  0.4109602198575706  0.4198263838254924  0.6645777704518194
  0.3664529730408545  0.4227114466937783  0.6666235045730549
  0.3664669994050728  0.4513768865994846  0.6261335687142492
  0.4357535536151287  0.4340825667406987  0.6988366625754568
  0.3861726458441179  0.4340789428346437  0.6988425882207565
  0.4306845839762347  0.4882899834952429  0.7372339399206790
  0.4554795952674202  0.4740776245109229  0.6967670012956300
  0.4802670726020351  0.4882939301855907  0.7372267322945933
  0.4554664346191094  0.4454107394485692  0.7372565382933578
  0.4109591878023935  0.4482958023168552  0.7393022724145932
  0.4109732141666113  0.4769612422225613  0.6988123365557876
  0.4802597683766670  0.4596669223637756  0.7715154304169952
  0.4306788606056564  0.4596632984577206  0.7715213560622949
  0.4751907987377728  0.5138743391183198  0.8099127077622176
  0.4999858100289588  0.4996619801339998  0.7694457691371686
  0.5247732873635733  0.5138782858086678  0.8099055001361318
  0.4999726493806477  0.4709950950716462  0.8099353061348961
  0.4554654025639318  0.4738801579399321  0.8119810402561316
  0.4554794289281498  0.5025455978456381  0.7714911043973262
  0.5247659831382058  0.4852512779868527  0.8441941982585338
  0.4751850753671945  0.4852476540807975  0.8442001239038335
  0.5196970134993111  0.5394586947413968  0.8825914756037559
  0.5444920247904971  0.5252463357570767  0.8421245369787069
  0.5692795021251116  0.5394626414317449  0.8825842679776702
  0.5444788641421859  0.4965794506947230  0.8826140739764347
  0.4999716173254699  0.4994645135630090  0.8846598080976704
  0.4999856436896881  0.5281299534687151  0.8441698722388645
  0.5692721978997440  0.5108356336099296  0.9168729661000723
  0.5196912901287332  0.5108320097038741  0.9168788917453718
  0.5889982395520353  0.5508306913801536  0.9148033048202455
  0.5444778320870091  0.5250488691860858  0.9573385759392088
  0.5444918584512266  0.5537143090917920  0.9168486400804030
  0.2526142292054649  0.1289430132829352  0.5918764042376020
  0.2774092404966509  0.1147306542986152  0.5514094656125530
  0.3021967178312657  0.1289469599732832  0.5918691966115164
  0.2971204439670037  0.1545273689060121  0.6645551720791406
  0.3219154552581894  0.1403150099216921  0.6240882334540916
  0.3467029325928044  0.1545313155963603  0.6645479644530550
  0.3219022946098785  0.1116481248593385  0.6645777704518194
  0.2774090741573806  0.1431986276333307  0.6261335687142492
  0.3466956283674364  0.1259043077745448  0.6988366625754568
  0.3416266587285420  0.1801117245290892  0.7372339399206790
  0.3664216700197279  0.1658993655447690  0.6967670012956300
  0.3912091473543429  0.1801156712194370  0.7372267322945933
  0.3664085093714168  0.1372324804824153  0.7372565382933578
  0.3219152889189191  0.1687829832564072  0.6988123365557876
  0.3912018431289749  0.1514886633976217  0.7715154304169952
  0.4109278847812664  0.1914837211678459  0.7694457691371686
  0.4357153621158810  0.2057000268425141  0.8099055001361318
  0.4554340995428045  0.2170680767909230  0.8421245369787069
  0.4109277184419958  0.2199516945025612  0.8441698722388645
  0.3022013878951288  0.1517801612699294  0.5534791268923799
  0.2526204801241177  0.1517765373638744  0.5534850525376794
  0.2971324182562342  0.2059875780244738  0.5918764042376020
  0.3219274295474201  0.1917752190401536  0.5514094656125530
  0.3467149068820347  0.2059915247148218  0.5918691966115164
  0.3219142688991092  0.1631083339778002  0.5918990026102811
  0.2774070220823931  0.1659933968460859  0.5939447367315165
  0.2774210484466114  0.1946588367517920  0.5534548008727108
  0.3467076026566671  0.1773645168930063  0.6261578947339183
  0.2971266948856562  0.1773608929869515  0.6261638203792179
  0.3416386330177729  0.2315719336475507  0.6645551720791406
  0.3664336443089586  0.2173595746632307  0.6240882334540916
  0.3912211216435736  0.2315758803378987  0.6645479644530550
  0.3664204836606477  0.1886926896008768  0.6645777704518194
  0.3219132368439316  0.1915777524691628  0.6666235045730549
  0.3219272632081501  0.2202431923748689  0.6261335687142492
  0.3912138174182056  0.2029488725160834  0.6988366625754568
  0.3416329096471946  0.2029452486100284  0.6988425882207565
  0.3861448477793112  0.2571562892706276  0.7372339399206790
  0.4109398590704971  0.2429439302863076  0.6967670012956300
  0.4357273364051119  0.2571602359609754  0.7372267322945933
  0.4109266984221860  0.2142770452239539  0.7372565382933578
  0.3664194516054701  0.2171621080922397  0.7393022724145932
  0.3664334779696884  0.2458275479979458  0.6988123365557876
  0.4357200321797441  0.2285332281391603  0.7715154304169952
  0.4306510625408497  0.2827406448937045  0.8099127077622176
  0.4554460738320357  0.2685282859093845  0.7694457691371686
  0.4802335511666502  0.2827445915840525  0.8099055001361318
  0.4554329131837248  0.2398614008470308  0.8099353061348961
  0.4109256663670089  0.2427464637153166  0.8119810402561316
  0.4109396927312267  0.2714119036210226  0.7714911043973262
  0.4802262469412824  0.2541175837622369  0.8441941982585338
  0.4306453391702716  0.2541139598561822  0.8442001239038335
  0.4751572773023882  0.3083250005167814  0.8825914756037559
  0.4999522885935739  0.2941126415324614  0.8421245369787069
  0.5247397659281887  0.3083289472071293  0.8825842679776702
  0.4999391279452631  0.2654457564701077  0.8826140739764347
  0.4554318811285472  0.2683308193383937  0.8846598080976704
  0.4554459074927652  0.2969962592440997  0.8441698722388645
  0.5444585033551125  0.3196969971555383  0.9148033048202455
  0.4999521222543037  0.3225806148671767  0.9168486400804030
  0.3467195769458980  0.2288247260114680  0.5534791268923799
  0.2971386691748870  0.2288211021054130  0.5534850525376794
  0.3416506073070036  0.2830321427660122  0.5918764042376020
  0.3664456185981893  0.2688197837816920  0.5514094656125530
  0.3912330959328043  0.2830360894563604  0.5918691966115164
  0.3664324579498784  0.2401528987193385  0.5918990026102811
  0.3219252111331625  0.2430379615876243  0.5939447367315165
  0.3219392374973806  0.2717034014933303  0.5534548008727108
  0.3912257917074363  0.2544090816345448  0.6261578947339183
  0.3416448839364254  0.2544054577284899  0.6261638203792179
  0.3861568220685419  0.3086164983890893  0.6645551720791406
  0.4109518333597276  0.2944041394047691  0.6240882334540916
  0.4357393106943429  0.3086204450794373  0.6645479644530550
  0.4109386727114169  0.2657372543424154  0.6645777704518194
  0.3664314258947008  0.2686223172107012  0.6666235045730549
  0.3664454522589191  0.2972877571164074  0.6261335687142492
  0.4357320064689746  0.2799934372576218  0.6988366625754568
  0.3861510986979638  0.2799898133515668  0.6988425882207565
  0.4306630368300806  0.3342008540121662  0.7372339399206790
  0.4554580481212663  0.3199884950278460  0.6967670012956300
  0.4802455254558810  0.3342048007025140  0.7372267322945933
  0.4554448874729553  0.2913216099654923  0.7372565382933578
  0.4109376406562394  0.2942066728337780  0.7393022724145932
  0.4109516670204576  0.3228721127394841  0.6988123365557876
  0.4802382212305134  0.3055777928806986  0.7715154304169952
  0.4306573134595027  0.3055741689746438  0.7715213560622949
  0.4751692515916189  0.3597852096352431  0.8099127077622176
  0.4999642628828049  0.3455728506509229  0.7694457691371686
  0.5247517402174197  0.3597891563255911  0.8099055001361318
  0.4999511022344940  0.3169059655885692  0.8099353061348961
  0.4554438554177781  0.3197910284568551  0.8119810402561316
  0.4554578817819959  0.3484564683625610  0.7714911043973262
  0.5247444359920517  0.3311621485037755  0.8441941982585338
  0.4751635282210408  0.3311585245977208  0.8442001239038335
  0.5196754663531574  0.3853695652583199  0.8825914756037559
  0.5444704776443434  0.3711572062740000  0.8421245369787069
  0.5692579549789579  0.3853735119486679  0.8825842679776702
  0.5444573169960323  0.3424903212116463  0.8826140739764347
  0.4999500701793164  0.3453753840799321  0.8846598080976704
  0.4999640965435342  0.3740408239856381  0.8441698722388645
  0.5692506507535902  0.3567465041268524  0.9168729661000723
  0.5196697429825791  0.3567428802207974  0.9168788917453718
  0.5889766924058819  0.3967415618970768  0.9148033048202455
  0.5444703113050730  0.3996251796087150  0.9168486400804030
  0.3912377659966672  0.3058692907530063  0.5534791268923799
  0.3416568582256562  0.3058656668469513  0.5534850525376794
  0.3861687963577726  0.3600767075075508  0.5918764042376020
  0.4109638076489585  0.3458643485232306  0.5514094656125530
  0.4357512849835734  0.3600806541978988  0.5918691966115164
  0.4109506470006477  0.3171974634608769  0.5918990026102811
  0.3664434001839318  0.3200825263291628  0.5939447367315165
  0.3664574265481496  0.3487479662348687  0.5534548008727108
  0.4357439807582055  0.3314536463760830  0.6261578947339183
  0.3861630729871947  0.3314500224700285  0.6261638203792179
  0.4306750111193111  0.3856610631306276  0.6645551720791406
  0.4554700224104971  0.3714487041463074  0.6240882334540916
  0.4802574997451121  0.3856650098209756  0.6645479644530550
  0.4554568617621862  0.3427818190839538  0.6645777704518194
  0.4109496149454701  0.3456668819522398  0.6666235045730549
  0.4109636413096883  0.3743323218579460  0.6261335687142492
  0.4802501955197438  0.3570380019991601  0.6988366625754568
  0.4306692877487330  0.3570343780931053  0.6988425882207565
  0.4751812258808496  0.4112454187537045  0.7372339399206790
  0.4999762371720355  0.3970330597693843  0.6967670012956300
  0.5247637145066504  0.4112493654440523  0.7372267322945933
  0.4999630765237245  0.3683661747070306  0.7372565382933578
  0.4554558297070086  0.3712512375753166  0.7393022724145932
  0.4554698560712268  0.3999166774810227  0.6988123365557876
  0.5247564102812826  0.3826223576222372  0.7715154304169952
  0.4751755025102721  0.3826187337161822  0.7715213560622949
  0.5196874406423879  0.4368297743767814  0.8099127077622176
  0.5444824519335740  0.4226174153924612  0.7694457691371686
  0.5692699292681889  0.4368337210671296  0.8099055001361318
  0.5444692912852632  0.3939505303301076  0.8099353061348961
  0.4999620444685473  0.3968355931983935  0.8119810402561316
  0.4999760708327649  0.4255010331040996  0.7714911043973262
  0.5692626250428209  0.4082067132453141  0.8441941982585338
  0.5196817172718100  0.4082030893392591  0.8442001239038335
  0.5641936554039266  0.4624141299998585  0.8825914756037559
  0.5889886666951124  0.4482017710155383  0.8421245369787069
  0.6137761440297271  0.4624180766902065  0.8825842679776702
  0.5889755060468015  0.4195348859531847  0.8826140739764347
  0.5444682592300853  0.4224199488214704  0.8846598080976704
  0.5444822855943035  0.4510853887271765  0.8441698722388645
  0.6137688398043594  0.4337910688683910  0.9168729661000723
  0.5641879320333483  0.4337874449623358  0.9168788917453718
  0.6334948814566509  0.4737861266386152  0.9148033048202455
  0.5889885003558422  0.4766697443502534  0.9168486400804030
  0.4357559550474365  0.3829138554945447  0.5534791268923799
  0.3861750472764254  0.3829102315884899  0.5534850525376794
  0.4306869854085420  0.4371212722490891  0.5918764042376020
  0.4554819966997279  0.4229089132647691  0.5514094656125530
  0.4802694740343428  0.4371252189394371  0.5918691966115164
  0.4554688360514169  0.3942420282024155  0.5918990026102811
  0.4109615892347010  0.3971270910707012  0.5939447367315165
  0.4109756155989188  0.4257925309764073  0.5534548008727108
  0.4802621698089747  0.4084982111176216  0.6261578947339183
  0.4306812620379639  0.4084945872115668  0.6261638203792179
  0.4751932001700803  0.4627056278721660  0.6645551720791406
  0.4999882114612660  0.4484932688878460  0.6240882334540916
  0.5247756887958813  0.4627095745625140  0.6645479644530550
  0.4999750508129554  0.4198263838254924  0.6645777704518194
  0.4554678039962393  0.4227114466937783  0.6666235045730549
  0.4554818303604575  0.4513768865994846  0.6261335687142492
  0.5247683845705132  0.4340825667406987  0.6988366625754568
  0.4751874767995022  0.4340789428346437  0.6988425882207565
  0.5196994149316189  0.4882899834952429  0.7372339399206790
  0.5444944262228048  0.4740776245109229  0.6967670012956300
  0.5692819035574198  0.4882939301855907  0.7372267322945933
  0.5444812655744937  0.4454107394485692  0.7372565382933578
  0.4999740187577778  0.4482958023168552  0.7393022724145932
  0.4999880451219960  0.4769612422225613  0.6988123365557876
  0.5692745993320518  0.4596669223637756  0.7715154304169952
  0.5196936915610407  0.4596632984577206  0.7715213560622949
  0.5642056296931574  0.5138743391183198  0.8099127077622176
  0.5890006409843433  0.4996619801339998  0.7694457691371686
  0.6137881183189579  0.5138782858086678  0.8099055001361318
  0.5889874803360324  0.4709950950716462  0.8099353061348961
  0.5444802335193163  0.4738801579399321  0.8119810402561316
  0.5444942598835341  0.5025455978456381  0.7714911043973262
  0.6137808140935901  0.4852512779868527  0.8441941982585338
  0.5641999063225792  0.4852476540807975  0.8442001239038335
  0.6087118444546958  0.5394586947413968  0.8825914756037559
  0.6335068557458816  0.5252463357570767  0.8421245369787069
  0.6582943330804965  0.5394626414317449  0.8825842679776702
  0.6334936950975707  0.4965794506947230  0.8826140739764347
  0.5889864482808548  0.4994645135630090  0.8846598080976704
  0.5890004746450727  0.5281299534687151  0.8441698722388645
  0.6582870288551286  0.5108356336099296  0.9168729661000723
  0.6087061210841175  0.5108320097038741  0.9168788917453718
  0.6780130705074201  0.5508306913801536  0.9148033048202455
  0.3466980297997439  0.0747355965283910  0.5534791268923799
  0.3416290601608499  0.1289430132829352  0.5918764042376020
  0.3664240714520352  0.1147306542986152  0.5514094656125530
  0.3664109108037246  0.0860637692362616  0.5918990026102811
  0.3219036639870084  0.0889488321045473  0.5939447367315165
  0.3219176903512269  0.1176142720102534  0.5534548008727108
  0.3912042445612824  0.1003199521514677  0.6261578947339183
  0.3416233367902713  0.1003163282454129  0.6261638203792179
  0.3861352749223880  0.1545273689060121  0.6645551720791406
  0.4357177635481890  0.1545313155963603  0.6645479644530550
  0.4109171255652628  0.1116481248593385  0.6645777704518194
  0.3664098787485467  0.1145331877276242  0.6666235045730549
  0.4357104593228209  0.1259043077745448  0.6988366625754568
  0.3861295515518101  0.1259006838684900  0.6988425882207565
  0.4306414896839265  0.1801117245290892  0.7372339399206790
  0.4554365009751125  0.1658993655447690  0.6967670012956300
  0.4802239783097275  0.1801156712194370  0.7372267322945933
  0.4554233403268009  0.1372324804824153  0.7372565382933578
  0.4109160935100857  0.1401175433507013  0.7393022724145932
  0.4109301198743035  0.1687829832564072  0.6988123365557876
  0.4802166740843595  0.1514886633976217  0.7715154304169952
  0.4306357663133486  0.1514850394915669  0.7715213560622949
  0.4751477044454648  0.2056960801521661  0.8099127077622176
  0.4999427157366512  0.1914837211678459  0.7694457691371686
  0.5247301930712660  0.2057000268425141  0.8099055001361318
  0.4999295550883399  0.1628168361054922  0.8099353061348961
  0.4554223082716240  0.1657018989737782  0.8119810402561316
  0.4554363346358424  0.1943673388794843  0.7714911043973262
  0.5444489304981891  0.2170680767909230  0.8421245369787069
  0.4999425493973808  0.2199516945025612  0.8441698722388645
  0.3912162188505131  0.1517801612699294  0.5534791268923799
  0.3416353110795023  0.1517765373638744  0.5534850525376794
  0.3861472492116191  0.2059875780244738  0.5918764042376020
  0.4109422605028044  0.1917752190401536  0.5514094656125530
  0.4357297378374195  0.2059915247148218  0.5918691966115164
  0.3664218530377779  0.1659933968460859  0.5939447367315165
  0.3664358794019959  0.1946588367517920  0.5534548008727108
  0.4357224336120517  0.1773645168930063  0.6261578947339183
  0.4306534639731572  0.2315719336475507  0.6645551720791406
  0.4554484752643432  0.2173595746632307  0.6240882334540916
  0.4802359525989582  0.2315758803378987  0.6645479644530550
  0.4554353146160323  0.1886926896008768  0.6645777704518194
  0.4109280677993160  0.1915777524691628  0.6666235045730549
  0.4109420941635342  0.2202431923748689  0.6261335687142492
  0.4802286483735901  0.2029488725160834  0.6988366625754568
  0.4306477406025793  0.2029452486100284  0.6988425882207565
  0.4751596787346959  0.2571562892706276  0.7372339399206790
  0.5247421673604965  0.2571602359609754  0.7372267322945933
  0.4999415293775708  0.2142770452239539  0.7372565382933578
  0.4554342825608551  0.2171621080922397  0.7393022724145932
  0.4554483089250727  0.2458275479979458  0.6988123365557876
  0.5247348631351284  0.2285332281391603  0.7715154304169952
  0.4751539553641178  0.2285296042331053  0.7715213560622949
  0.5196658934962343  0.2827406448937045  0.8099127077622176
  0.5444609047874206  0.2685282859093845  0.7694457691371686
  0.5692483821220350  0.2827445915840525  0.8099055001361318
  0.5444477441391091  0.2398614008470308  0.8099353061348961
  0.4999404973223932  0.2427464637153166  0.8119810402561316
  0.4999545236866114  0.2714119036210226  0.7714911043973262
  0.5692410778966672  0.2541175837622369  0.8441941982585338
  0.5196601701256561  0.2541139598561822  0.8442001239038335
  0.5641721082577725  0.3083250005167814  0.8825914756037559
  0.5889671195489585  0.2941126415324614  0.8421245369787069
  0.6137545968835735  0.3083289472071293  0.8825842679776702
  0.5444467120839317  0.2683308193383937  0.8846598080976704
  0.5444607384481496  0.2969962592440997  0.8441698722388645
  0.4357344079012824  0.2288247260114680  0.5534791268923799
  0.3861535001302715  0.2288211021054130  0.5534850525376794
  0.4306654382623883  0.2830321427660122  0.5918764042376020
  0.4554604495535738  0.2688197837816920  0.5514094656125530
  0.4802479268881889  0.2830360894563604  0.5918691966115164
  0.4554472889052632  0.2401528987193385  0.5918990026102811
  0.4109400420885471  0.2430379615876243  0.5939447367315165
  0.4109540684527651  0.2717034014933303  0.5534548008727108
  0.4802406226628211  0.2544090816345448  0.6261578947339183
  0.4306597148918098  0.2544054577284899  0.6261638203792179
  0.4751716530239264  0.3086164983890893  0.6645551720791406
  0.4999666643151124  0.2944041394047691  0.6240882334540916
  0.5247541416497274  0.3086204450794373  0.6645479644530550
  0.4554462568500852  0.2686223172107012  0.6666235045730549
  0.4554602832143037  0.2972877571164074  0.6261335687142492
  0.4751659296533485  0.2799898133515668  0.6988425882207565
  0.5196778677854652  0.3342008540121662  0.7372339399206790
  0.5444728790766509  0.3199884950278460  0.6967670012956300
  0.5692603564112659  0.3342048007025140  0.7372267322945933
  0.5444597184283401  0.2913216099654923  0.7372565382933578
  0.4999524716116241  0.2942066728337780  0.7393022724145932
  0.4999664979758419  0.3228721127394841  0.6988123365557876
  0.5692530521858979  0.3055777928806986  0.7715154304169952
  0.5196721444148871  0.3055741689746438  0.7715213560622949
  0.5641840825470037  0.3597852096352431  0.8099127077622176
  0.5889790938381896  0.3455728506509229  0.7694457691371686
  0.6137665711728044  0.3597891563255911  0.8099055001361318
  0.5889659331898786  0.3169059655885692  0.8099353061348961
  0.5444586863731624  0.3197910284568551  0.8119810402561316
  0.5444727127373806  0.3484564683625610  0.7714911043973262
  0.6137592669474364  0.3311621485037755  0.8441941982585338
  0.5641783591764253  0.3311585245977208  0.8442001239038335
  0.6086902973085422  0.3853695652583199  0.8825914756037559
  0.6334853085997277  0.3711572062740000  0.8421245369787069
  0.6582727859343429  0.3853735119486679  0.8825842679776702
  0.6334721479514168  0.3424903212116463  0.8826140739764347
  0.5889649011347009  0.3453753840799321  0.8846598080976704
  0.5889789274989190  0.3740408239856381  0.8441698722388645
  0.6086845739379638  0.3567428802207974  0.9168788917453718
  0.6334851422604573  0.3996251796087150  0.9168486400804030
  0.4802525969520520  0.3058692907530063  0.5534791268923799
  0.4306716891810407  0.3058656668469513  0.5534850525376794
  0.4751836273131573  0.3600767075075508  0.5918764042376020
  0.4999786386043433  0.3458643485232306  0.5514094656125530
  0.5247661159389583  0.3600806541978988  0.5918691966115164
  0.4999654779560322  0.3171974634608769  0.5918990026102811
  0.4554582311393163  0.3200825263291628  0.5939447367315165
  0.4554722575035345  0.3487479662348687  0.5534548008727108
  0.5247588117135903  0.3314536463760830  0.6261578947339183
  0.4751779039425792  0.3314500224700285  0.6261638203792179
  0.5196898420746960  0.3856610631306276  0.6645551720791406
  0.5444848533658816  0.3714487041463074  0.6240882334540916
  0.5692723307004969  0.3856650098209756  0.6645479644530550
  0.5444716927175709  0.3427818190839538  0.6645777704518194
  0.4999644459008550  0.3456668819522398  0.6666235045730549
  0.4999784722650731  0.3743323218579460  0.6261335687142492
  0.5692650264751288  0.3570380019991601  0.6988366625754568
  0.5196841187041178  0.3570343780931053  0.6988425882207565
  0.5641960568362344  0.4112454187537045  0.7372339399206790
  0.5889910681274201  0.3970330597693843  0.6967670012956300
  0.6137785454620349  0.4112493654440523  0.7372267322945933
  0.5889779074791093  0.3683661747070306  0.7372565382933578
  0.5444706606623936  0.3712512375753166  0.7393022724145932
  0.5444846870266116  0.3999166774810227  0.6988123365557876
  0.6137712412366669  0.3826223576222372  0.7715154304169952
  0.5641903334656563  0.3826187337161822  0.7715213560622949
  0.6087022715977729  0.4368297743767814  0.8099127077622176
  0.6334972828889589  0.4226174153924612  0.7694457691371686
  0.6582847602235736  0.4368337210671296  0.8099055001361318
  0.6334841222406475  0.3939505303301076  0.8099353061348961
  0.5889768754239316  0.3968355931983935  0.8119810402561316
  0.5889909017881498  0.4255010331040996  0.7714911043973262
  0.6582774559982054  0.4082067132453141  0.8441941982585338
  0.6086965482271948  0.4082030893392591  0.8442001239038335
  0.6532084863593112  0.4624141299998585  0.8825914756037559
  0.6780034976504967  0.4482017710155383  0.8421245369787069
  0.7027909749851122  0.4624180766902065  0.8825842679776702
  0.6779903370021862  0.4195348859531847  0.8826140739764347
  0.6334830901854700  0.4224199488214704  0.8846598080976704
  0.6334971165496882  0.4510853887271765  0.8441698722388645
  0.6532027629887330  0.4337874449623358  0.9168788917453718
  0.6780033313112269  0.4766697443502534  0.9168486400804030
  0.5247707860028210  0.3829138554945447  0.5534791268923799
  0.4751898782318099  0.3829102315884899  0.5534850525376794
  0.5197018163639268  0.4371212722490891  0.5918764042376020
  0.5444968276551125  0.4229089132647691  0.5514094656125530
  0.5692843049897274  0.4371252189394371  0.5918691966115164
  0.5444836670068014  0.3942420282024155  0.5918990026102811
  0.4999764201900855  0.3971270910707012  0.5939447367315165
  0.4999904465543037  0.4257925309764073  0.5534548008727108
  0.5692770007643595  0.4084982111176216  0.6261578947339183
  0.5196960929933486  0.4084945872115668  0.6261638203792179
  0.5642080311254649  0.4627056278721660  0.6645551720791406
  0.5890030424166512  0.4484932688878460  0.6240882334540916
  0.6137905197512661  0.4627095745625140  0.6645479644530550
  0.5889898817683402  0.4198263838254924  0.6645777704518194
  0.5444826349516239  0.4227114466937783  0.6666235045730549
  0.5444966613158423  0.4513768865994846  0.6261335687142492
  0.6137832155258978  0.4340825667406987  0.6988366625754568
  0.5642023077548870  0.4340789428346437  0.6988425882207565
  0.6087142458870036  0.4882899834952429  0.7372339399206790
  0.6335092571781893  0.4740776245109229  0.6967670012956300
  0.6582967345128043  0.4882939301855907  0.7372267322945933
  0.6334960965298785  0.4454107394485692  0.7372565382933578
  0.5889888497131623  0.4482958023168552  0.7393022724145932
  0.5890028760773808  0.4769612422225613  0.6988123365557876
  0.6582894302874364  0.4596669223637756  0.7715154304169952
  0.6087085225164255  0.4596632984577206  0.7715213560622949
  0.6532204606485421  0.5138743391183198  0.8099127077622176
  0.6780154719397283  0.4996619801339998  0.7694457691371686
  0.7028029492743428  0.5138782858086678  0.8099055001361318
  0.6780023112914167  0.4709950950716462  0.8099353061348961
  0.6334950644747008  0.4738801579399321  0.8119810402561316
  0.6335090908389192  0.5025455978456381  0.7714911043973262
  0.7027956450489748  0.4852512779868527  0.8441941982585338
  0.6532147372779638  0.4852476540807975  0.8442001239038335
  0.6977266754100806  0.5394586947413968  0.8825914756037559
  0.7225216867012662  0.5252463357570767  0.8421245369787069
  0.7473091640358812  0.5394626414317449  0.8825842679776702
  0.7225085260529555  0.4965794506947230  0.8826140739764347
  0.6780012792362392  0.4994645135630090  0.8846598080976704
  0.6780153056004574  0.5281299534687151  0.8441698722388645
  0.6977209520395024  0.5108320097038741  0.9168788917453718
  0.4306319168270034  0.0774828041644738  0.6645551720791406
  0.4554269281181893  0.0632704451801538  0.6240882334540916
  0.4802144054528045  0.0774867508548217  0.6645479644530550
  0.4109205470173807  0.0661540628917921  0.6261335687142492
  0.4554267617789191  0.0917384185148688  0.6988123365557876
  0.3861319529841176  0.0747319726223360  0.5534850525376794
  0.4306438911162345  0.1289430132829352  0.5918764042376020
  0.4554389024074202  0.1147306542986152  0.5514094656125530
  0.4802263797420352  0.1289469599732832  0.5918691966115164
  0.4109184949423934  0.0889488321045473  0.5939447367315165
  0.4109325213066115  0.1176142720102534  0.5534548008727108
  0.4802190755166670  0.1003199521514677  0.6261578947339183
  0.4306381677456561  0.1003163282454129  0.6261638203792179
  0.4751501058777726  0.1545273689060121  0.6645551720791406
  0.4999451171689587  0.1403150099216921  0.6240882334540916
  0.5247325945035738  0.1545313155963603  0.6645479644530550
  0.4999319565206476  0.1116481248593385  0.6645777704518194
  0.4554247097039315  0.1145331877276242  0.6666235045730549
  0.4554387360681502  0.1431986276333307  0.6261335687142492
  0.4751443825071947  0.1259006838684900  0.6988425882207565
  0.5196563206393113  0.1801117245290892  0.7372339399206790
  0.5444513319304970  0.1658993655447690  0.6967670012956300
  0.5692388092651121  0.1801156712194370  0.7372267322945933
  0.5444381712821862  0.1372324804824153  0.7372565382933578
  0.4999309244654703  0.1401175433507013  0.7393022724145932
  0.4999449508296883  0.1687829832564072  0.6988123365557876
  0.5692315050397440  0.1514886633976217  0.7715154304169952
  0.5196505972687334  0.1514850394915669  0.7715213560622949
  0.5641625354008498  0.2056960801521661  0.8099127077622176
  0.5889575466920357  0.1914837211678459  0.7694457691371686
  0.6137450240266505  0.2057000268425141  0.8099055001361318
  0.5444371392270088  0.1657018989737782  0.8119810402561316
  0.5444511655912267  0.1943673388794843  0.7714911043973262
  0.5889573803527653  0.2199516945025612  0.8441698722388645
  0.4802310498058979  0.1517801612699294  0.5534791268923799
  0.4306501420348868  0.1517765373638744  0.5534850525376794
  0.4751620801670037  0.2059875780244738  0.5918764042376020
  0.4999570914581894  0.1917752190401536  0.5514094656125530
  0.5247445687928040  0.2059915247148218  0.5918691966115164
  0.4999439308098785  0.1631083339778002  0.5918990026102811
  0.4554366839931627  0.1659933968460859  0.5939447367315165
  0.4554507103573804  0.1946588367517920  0.5534548008727108
  0.5247372645674364  0.1773645168930063  0.6261578947339183
  0.4751563567964254  0.1773608929869515  0.6261638203792179
  0.5444633062197279  0.2173595746632307  0.6240882334540916
  0.5692507835543426  0.2315758803378987  0.6645479644530550
  0.5444501455714168  0.1886926896008768  0.6645777704518194
  0.4999428987547009  0.1915777524691628  0.6666235045730549
  0.4999569251189192  0.2202431923748689  0.6261335687142492
  0.5692434793289749  0.2029488725160834  0.6988366625754568
  0.5196625715579639  0.2029452486100284  0.6988425882207565
  0.5641745096900808  0.2571562892706276  0.7372339399206790
  0.5889695209812664  0.2429439302863076  0.6967670012956300
  0.6137569983158813  0.2571602359609754  0.7372267322945933
  0.5889563603329554  0.2142770452239539  0.7372565382933578
  0.5444491135162395  0.2171621080922397  0.7393022724145932
  0.5444631398804575  0.2458275479979458  0.6988123365557876
  0.6137496940905133  0.2285332281391603  0.7715154304169952
  0.5641687863195026  0.2285296042331053  0.7715213560622949
  0.6086807244516192  0.2827406448937045  0.8099127077622176
  0.6334757357428049  0.2685282859093845  0.7694457691371686
  0.6582632130774195  0.2827445915840525  0.8099055001361318
  0.6334625750944939  0.2398614008470308  0.8099353061348961
  0.5889553282777782  0.2427464637153166  0.8119810402561316
  0.5889693546419960  0.2714119036210226  0.7714911043973262
  0.6582559088520518  0.2541175837622369  0.8441941982585338
  0.6086750010810407  0.2541139598561822  0.8442001239038335
  0.6531869392131573  0.3083250005167814  0.8825914756037559
  0.6779819505043433  0.2941126415324614  0.8421245369787069
  0.6334755694035346  0.2969962592440997  0.8441698722388645
  0.5247492388566674  0.2288247260114680  0.5534791268923799
  0.4751683310856563  0.2288211021054130  0.5534850525376794
  0.5196802692177729  0.2830321427660122  0.5918764042376020
  0.5444752805089587  0.2688197837816920  0.5514094656125530
  0.5692627578435733  0.2830360894563604  0.5918691966115164
  0.5444621198606477  0.2401528987193385  0.5918990026102811
  0.4999548730439319  0.2430379615876243  0.5939447367315165
  0.4999688994081499  0.2717034014933303  0.5534548008727108
  0.5692554536182058  0.2544090816345448  0.6261578947339183
  0.5196745458471945  0.2544054577284899  0.6261638203792179
  0.5641864839793113  0.3086164983890893  0.6645551720791406
  0.5889814952704971  0.2944041394047691  0.6240882334540916
  0.6137689726051122  0.3086204450794373  0.6645479644530550
  0.5889683346221860  0.2657372543424154  0.6645777704518194
  0.5444751141696886  0.2972877571164074  0.6261335687142492
  0.6137616683797439  0.2799934372576218  0.6988366625754568
  0.5641807606087331  0.2799898133515668  0.6988425882207565
  0.6086926987408497  0.3342008540121662  0.7372339399206790
  0.6334877100320356  0.3199884950278460  0.6967670012956300
  0.6582751873666507  0.3342048007025140  0.7372267322945933
  0.6334745493837250  0.2913216099654923  0.7372565382933578
  0.5889673025670087  0.2942066728337780  0.7393022724145932
  0.5889813289312267  0.3228721127394841  0.6988123365557876
  0.6582678831412825  0.3055777928806986  0.7715154304169952
  0.6086869753702718  0.3055741689746438  0.7715213560622949
  0.6531989135023882  0.3597852096352431  0.8099127077622176
  0.6779939247935742  0.3455728506509229  0.7694457691371686
  0.7027814021281887  0.3597891563255911  0.8099055001361318
  0.6779807641452631  0.3169059655885692  0.8099353061348961
  0.6334735173285472  0.3197910284568551  0.8119810402561316
  0.6334875436927654  0.3484564683625610  0.7714911043973262
  0.7027740979028212  0.3311621485037755  0.8441941982585338
  0.6531931901318101  0.3311585245977208  0.8442001239038335
  0.6977051282639267  0.3853695652583199  0.8825914756037559
  0.7225001395551125  0.3711572062740000  0.8421245369787069
  0.6779937584543038  0.3740408239856381  0.8441698722388645
  0.5692674279074363  0.3058692907530063  0.5534791268923799
  0.5196865201364255  0.3058656668469513  0.5534850525376794
  0.5641984582685421  0.3600767075075508  0.5918764042376020
  0.5889934695597279  0.3458643485232306  0.5514094656125530
  0.6137809468943427  0.3600806541978988  0.5918691966115164
  0.5889803089114169  0.3171974634608769  0.5918990026102811
  0.5444730620947011  0.3200825263291628  0.5939447367315165
  0.5444870884589191  0.3487479662348687  0.5534548008727108
  0.6137736426689748  0.3314536463760830  0.6261578947339183
  0.5641927348979637  0.3314500224700285  0.6261638203792179
  0.6087046730300805  0.3856610631306276  0.6645551720791406
  0.6334996843212661  0.3714487041463074  0.6240882334540916
  0.6582871616558816  0.3856650098209756  0.6645479644530550
  0.6334865236729553  0.3427818190839538  0.6645777704518194
  0.5889792768562392  0.3456668819522398  0.6666235045730549
  0.5889933032204578  0.3743323218579460  0.6261335687142492
  0.6582798574305133  0.3570380019991601  0.6988366625754568
  0.6086989496595023  0.3570343780931053  0.6988425882207565
  0.6532108877916190  0.4112454187537045  0.7372339399206790
  0.6780058990828048  0.3970330597693843  0.6967670012956300
  0.7027933764174197  0.4112493654440523  0.7372267322945933
  0.6779927384344940  0.3683661747070306  0.7372565382933578
  0.6334854916177779  0.3712512375753166  0.7393022724145932
  0.6334995179819959  0.3999166774810227  0.6988123365557876
  0.7027860721920517  0.3826223576222372  0.7715154304169952
  0.6532051644210410  0.3826187337161822  0.7715213560622949
  0.6977171025531574  0.4368297743767814  0.8099127077622176
  0.7225121138443434  0.4226174153924612  0.7694457691371686
  0.7472995911789579  0.4368337210671296  0.8099055001361318
  0.7224989531960323  0.3939505303301076  0.8099353061348961
  0.6779917063793164  0.3968355931983935  0.8119810402561316
  0.6780057327435345  0.4255010331040996  0.7714911043973262
  0.7472922869535904  0.4082067132453141  0.8441941982585338
  0.6977113791825793  0.4082030893392591  0.8442001239038335
  0.7422233173146957  0.4624141299998585  0.8825914756037559
  0.7224979211408548  0.4224199488214704  0.8846598080976704
  0.7225119475050727  0.4510853887271765  0.8441698722388645
  0.6137856169582055  0.3829138554945447  0.5534791268923799
  0.5642047091871947  0.3829102315884899  0.5534850525376794
  0.6087166473193113  0.4371212722490891  0.5918764042376020
  0.6335116586104971  0.4229089132647691  0.5514094656125530
  0.6582991359451117  0.4371252189394371  0.5918691966115164
  0.6334984979621862  0.3942420282024155  0.5918990026102811
  0.5889912511454704  0.3971270910707012  0.5939447367315165
  0.5890052775096883  0.4257925309764073  0.5534548008727108
  0.6582918317197440  0.4084982111176216  0.6261578947339183
  0.6087109239487331  0.4084945872115668  0.6261638203792179
  0.6532228620808497  0.4627056278721660  0.6645551720791406
  0.6780178733720356  0.4484932688878460  0.6240882334540916
  0.6780047127237245  0.4198263838254924  0.6645777704518194
  0.6334974659070084  0.4227114466937783  0.6666235045730549
  0.6335114922712271  0.4513768865994846  0.6261335687142492
  0.7027980464812826  0.4340825667406987  0.6988366625754568
  0.6532171387102718  0.4340789428346437  0.6988425882207565
  0.6977290768423882  0.4882899834952429  0.7372339399206790
  0.7473115654681889  0.4882939301855907  0.7372267322945933
  0.7225109274852630  0.4454107394485692  0.7372565382933578
  0.6780036806685473  0.4482958023168552  0.7393022724145932
  0.7473042612428211  0.4596669223637756  0.7715154304169952
  0.6977233534718102  0.4596632984577206  0.7715213560622949
  0.7422352916039267  0.5138743391183198  0.8099127077622176
  0.7670303028951126  0.4996619801339998  0.7694457691371686
  0.7918177802297274  0.5138782858086678  0.8099055001361318
  0.7670171422468015  0.4709950950716462  0.8099353061348961
  0.7225098954300856  0.4738801579399321  0.8119810402561316
  0.7225239217943037  0.5025455978456381  0.7714911043973262
  0.7422295682333485  0.4852476540807975  0.8442001239038335
  0.7670301365558422  0.5281299534687151  0.8441698722388645
  0.5444417590735738  0.0632704451801538  0.6240882334540916
  0.5692292364081891  0.0774867508548217  0.6645479644530550
  0.4999353779727655  0.0661540628917921  0.6261335687142492
  0.5444415927343038  0.0917384185148688  0.6988123365557876
  0.5247276917105133  0.0747355965283910  0.5534791268923799
  0.4751467839395026  0.0747319726223360  0.5534850525376794
  0.5196587220716190  0.1289430132829352  0.5918764042376020
  0.5444537333628048  0.1147306542986152  0.5514094656125530
  0.5692412106974197  0.1289469599732832  0.5918691966115164
  0.4999333258977780  0.0889488321045473  0.5939447367315165
  0.4999473522619960  0.1176142720102534  0.5534548008727108
  0.5692339064720515  0.1003199521514677  0.6261578947339183
  0.5196529987010406  0.1003163282454129  0.6261638203792179
  0.5641649368331573  0.1545273689060121  0.6645551720791406
  0.5889599481243430  0.1403150099216921  0.6240882334540916
  0.6137474254589583  0.1545313155963603  0.6645479644530550
  0.5889467874760324  0.1116481248593385  0.6645777704518194
  0.5444535670235350  0.1431986276333307  0.6261335687142492
  0.5641592134625792  0.1259006838684900  0.6988425882207565
  0.6086711515946959  0.1801117245290892  0.7372339399206790
  0.6334661628858820  0.1658993655447690  0.6967670012956300
  0.6582536402204966  0.1801156712194370  0.7372267322945933
  0.6334530022375707  0.1372324804824153  0.7372565382933578
  0.5889457554208548  0.1401175433507013  0.7393022724145932
  0.5889597817850728  0.1687829832564072  0.6988123365557876
  0.6086654282241177  0.1514850394915669  0.7715213560622949
  0.6531773663562344  0.2056960801521661  0.8099127077622176
  0.6779723776474205  0.1914837211678459  0.7694457691371686
  0.6334659965466115  0.1943673388794843  0.7714911043973262
  0.5692458807612829  0.1517801612699294  0.5534791268923799
  0.5196649729902716  0.1517765373638744  0.5534850525376794
  0.5641769111223884  0.2059875780244738  0.5918764042376020
  0.5889719224135740  0.1917752190401536  0.5514094656125530
  0.6137593997481889  0.2059915247148218  0.5918691966115164
  0.5889587617652631  0.1631083339778002  0.5918990026102811
  0.5444515149485469  0.1659933968460859  0.5939447367315165
  0.5444655413127650  0.1946588367517920  0.5534548008727108
  0.6137520955228214  0.1773645168930063  0.6261578947339183
  0.5641711877518101  0.1773608929869515  0.6261638203792179
  0.6086831258839268  0.2315719336475507  0.6645551720791406
  0.6334781371751123  0.2173595746632307  0.6240882334540916
  0.6582656145097275  0.2315758803378987  0.6645479644530550
  0.6334649765268016  0.1886926896008768  0.6645777704518194
  0.5889577297100853  0.1915777524691628  0.6666235045730549
  0.5889717560743040  0.2202431923748689  0.6261335687142492
  0.6582583102843599  0.2029488725160834  0.6988366625754568
  0.6086774025133482  0.2029452486100284  0.6988425882207565
  0.6531893406454653  0.2571562892706276  0.7372339399206790
  0.7027718292712656  0.2571602359609754  0.7372267322945933
  0.6779711912883402  0.2142770452239539  0.7372565382933578
  0.6334639444716238  0.2171621080922397  0.7393022724145932
  0.6334779708358422  0.2458275479979458  0.6988123365557876
  0.7027645250458983  0.2285332281391603  0.7715154304169952
  0.6531836172748867  0.2285296042331053  0.7715213560622949
  0.6976955554070036  0.2827406448937045  0.8099127077622176
  0.7224905666981896  0.2685282859093845  0.7694457691371686
  0.7472780440328043  0.2827445915840525  0.8099055001361318
  0.6779701592331623  0.2427464637153166  0.8119810402561316
  0.6779841855973805  0.2714119036210226  0.7714911043973262
  0.7224904003589189  0.2969962592440997  0.8441698722388645
  0.6137640698120519  0.2288247260114680  0.5534791268923799
  0.5641831620410408  0.2288211021054130  0.5534850525376794
  0.6086951001731574  0.2830321427660122  0.5918764042376020
  0.6582775887989583  0.2830360894563604  0.5918691966115164
  0.6334769508160325  0.2401528987193385  0.5918990026102811
  0.5889697039993165  0.2430379615876243  0.5939447367315165
  0.6582702845735902  0.2544090816345448  0.6261578947339183
  0.6086893768025793  0.2544054577284899  0.6261638203792179
  0.6532013149346960  0.3086164983890893  0.6645551720791406
  0.6779963262258817  0.2944041394047691  0.6240882334540916
  0.7027838035604967  0.3086204450794373  0.6645479644530550
  0.6334759187608547  0.2686223172107012  0.6666235045730549
  0.6334899451250734  0.2972877571164074  0.6261335687142492
  0.6531955915641174  0.2799898133515668  0.6988425882207565
  0.6977075296962343  0.3342008540121662  0.7372339399206790
  0.7225025409874202  0.3199884950278460  0.6967670012956300
  0.7472900183220352  0.3342048007025140  0.7372267322945933
  0.7224893803391094  0.2913216099654923  0.7372565382933578
  0.6779821335223932  0.2942066728337780  0.7393022724145932
  0.6779961598866114  0.3228721127394841  0.6988123365557876
  0.7472827140966672  0.3055777928806986  0.7715154304169952
  0.6977018063256561  0.3055741689746438  0.7715213560622949
  0.7422137444577728  0.3597852096352431  0.8099127077622176
  0.7670087557489590  0.3455728506509229  0.7694457691371686
  0.7917962330835737  0.3597891563255911  0.8099055001361318
  0.7669955951006479  0.3169059655885692  0.8099353061348961
  0.7224883482839317  0.3197910284568551  0.8119810402561316
  0.7225023746481500  0.3484564683625610  0.7714911043973262
  0.7422080210871946  0.3311585245977208  0.8442001239038335
  0.7670085894096883  0.3740408239856381  0.8441698722388645
  0.6582822588628211  0.3058692907530063  0.5534791268923799
  0.6532132892239266  0.3600767075075508  0.5918764042376020
  0.6780083005151124  0.3458643485232306  0.5514094656125530
  0.7027957778497277  0.3600806541978988  0.5918691966115164
  0.6779951398668017  0.3171974634608769  0.5918990026102811
  0.6334878930500855  0.3200825263291628  0.5939447367315165
  0.6335019194143037  0.3487479662348687  0.5534548008727108
  0.7027884736243594  0.3314536463760830  0.6261578947339183
  0.6532075658533488  0.3314500224700285  0.6261638203792179
  0.6977195039854646  0.3856610631306276  0.6645551720791406
  0.7225145152766507  0.3714487041463074  0.6240882334540916
  0.7473019926112662  0.3856650098209756  0.6645479644530550
  0.7225013546283401  0.3427818190839538  0.6645777704518194
  0.6779941078116237  0.3456668819522398  0.6666235045730549
  0.6780081341758426  0.3743323218579460  0.6261335687142492
  0.7472946883858980  0.3570380019991601  0.6988366625754568
  0.6977137806148869  0.3570343780931053  0.6988425882207565
  0.7422257187470035  0.4112454187537045  0.7372339399206790
  0.7670207300381896  0.3970330597693843  0.6967670012956300
  0.7918082073728042  0.4112493654440523  0.7372267322945933
  0.7670075693898786  0.3683661747070306  0.7372565382933578
  0.7225003225731622  0.3712512375753166  0.7393022724145932
  0.7225143489373806  0.3999166774810227  0.6988123365557876
  0.7918009031474365  0.3826223576222372  0.7715154304169952
  0.7422199953764254  0.3826187337161822  0.7715213560622949
  0.8115269447997282  0.4226174153924612  0.7694457691371686
  0.8115137841514171  0.3939505303301076  0.8099353061348961
  0.7670065373347007  0.3968355931983935  0.8119810402561316
  0.7670205636989190  0.4255010331040996  0.7714911043973262
  0.7867262101379641  0.4082030893392591  0.8442001239038335
  0.7028004479135905  0.3829138554945447  0.5534791268923799
  0.6532195401425792  0.3829102315884899  0.5534850525376794
  0.6977314782746962  0.4371212722490891  0.5918764042376020
  0.7473139669004965  0.4371252189394371  0.5918691966115164
  0.7225133289175707  0.3942420282024155  0.5918990026102811
  0.6780060821008549  0.3971270910707012  0.5939447367315165
  0.7473066626751286  0.4084982111176216  0.6261578947339183
  0.6977257549041178  0.4084945872115668  0.6261638203792179
  0.7422376930362344  0.4627056278721660  0.6645551720791406
  0.7670327043274199  0.4484932688878460  0.6240882334540916
  0.7918201816620352  0.4627095745625140  0.6645479644530550
  0.7670195436791093  0.4198263838254924  0.6645777704518194
  0.7225122968623932  0.4227114466937783  0.6666235045730549
  0.7225263232266116  0.4513768865994846  0.6261335687142492
  0.7918128774366672  0.4340825667406987  0.6988366625754568
  0.7422319696656559  0.4340789428346437  0.6988425882207565
  0.7867439077977729  0.4882899834952429  0.7372339399206790
  0.8115389190889587  0.4740776245109229  0.6967670012956300
  0.8363263964235734  0.4882939301855907  0.7372267322945933
  0.8115257584406476  0.4454107394485692  0.7372565382933578
  0.7670185116239316  0.4482958023168552  0.7393022724145932
  0.7670325379881499  0.4769612422225613  0.6988123365557876
  0.8363190921982059  0.4596669223637756  0.7715154304169952
  0.7867381844271943  0.4596632984577206  0.7715213560622949
  0.8312501225593112  0.5138743391183198  0.8099127077622176
  0.8560451338504972  0.4996619801339998  0.7694457691371686
  0.8115387527496885  0.5025455978456381  0.7714911043973262
  0.5889502089281501  0.0661540628917921  0.6261335687142492
  0.6137425226658978  0.0747355965283910  0.5534791268923799
  0.5641616148948871  0.0747319726223360  0.5534850525376794
  0.6086735530270035  0.1289430132829352  0.5918764042376020
  0.6334685643181895  0.1147306542986152  0.5514094656125530
  0.6582560416528045  0.1289469599732832  0.5918691966115164
  0.6334554036698782  0.0860637692362616  0.5918990026102811
  0.5889481568531625  0.0889488321045473  0.5939447367315165
  0.5889621832173806  0.1176142720102534  0.5534548008727108
  0.6582487374274363  0.1003199521514677  0.6261578947339183
  0.6086678296564256  0.1003163282454129  0.6261638203792179
  0.6779747790797276  0.1403150099216921  0.6240882334540916
  0.7027622564143431  0.1545313155963603  0.6645479644530550
  0.6779616184314166  0.1116481248593385  0.6645777704518194
  0.6334683979789193  0.1431986276333307  0.6261335687142492
  0.6976859825500806  0.1801117245290892  0.7372339399206790
  0.7224809938412665  0.1658993655447690  0.6967670012956300
  0.6779746127404573  0.1687829832564072  0.6988123365557876
  0.6582607117166672  0.1517801612699294  0.5534791268923799
  0.6086798039456561  0.1517765373638744  0.5534850525376794
  0.6531917420777728  0.2059875780244738  0.5918764042376020
  0.6779867533689585  0.1917752190401536  0.5514094656125530
  0.7027742307035736  0.2059915247148218  0.5918691966115164
  0.6779735927206476  0.1631083339778002  0.5918990026102811
  0.6334663459039318  0.1659933968460859  0.5939447367315165
  0.6334803722681500  0.1946588367517920  0.5534548008727108
  0.7027669264782057  0.1773645168930063  0.6261578947339183
  0.6531860187071946  0.1773608929869515  0.6261638203792179
  0.7224929681304970  0.2173595746632307  0.6240882334540916
  0.7224798074821860  0.1886926896008768  0.6645777704518194
  0.6779725606654701  0.1915777524691628  0.6666235045730549
  0.6779865870296883  0.2202431923748689  0.6261335687142492
  0.7472731412397441  0.2029488725160834  0.6988366625754568
  0.6976922334687330  0.2029452486100284  0.6988425882207565
  0.7422041716008501  0.2571562892706276  0.7372339399206790
  0.7917866602266503  0.2571602359609754  0.7372267322945933
  0.7224787754270088  0.2171621080922397  0.7393022724145932
  0.7224928017912265  0.2458275479979458  0.6988123365557876
  0.7421984482302717  0.2285296042331053  0.7715213560622949
  0.7669990165527651  0.2714119036210226  0.7714911043973262
  0.7027789007674364  0.2288247260114680  0.5534791268923799
  0.6531979929964253  0.2288211021054130  0.5534850525376794
  0.6977099311285420  0.2830321427660122  0.5918764042376020
  0.7225049424197277  0.2688197837816920  0.5514094656125530
  0.7472924197543428  0.2830360894563604  0.5918691966115164
  0.7224917817714168  0.2401528987193385  0.5918990026102811
  0.6779845349547010  0.2430379615876243  0.5939447367315165
  0.6779985613189192  0.2717034014933303  0.5534548008727108
  0.7472851155289749  0.2544090816345448  0.6261578947339183
  0.6977042077579637  0.2544054577284899  0.6261638203792179
  0.7422161458900806  0.3086164983890893  0.6645551720791406
  0.7670111571812662  0.2944041394047691  0.6240882334540916
  0.7917986345158815  0.3086204450794373  0.6645479644530550
  0.7224907497162393  0.2686223172107012  0.6666235045730549
  0.7225047760804577  0.2972877571164074  0.6261335687142492
  0.7917913302905133  0.2799934372576218  0.6988366625754568
  0.7867223606516193  0.3342008540121662  0.7372339399206790
  0.8115173719428048  0.3199884950278460  0.6967670012956300
  0.8363048492774195  0.3342048007025140  0.7372267322945933
  0.8115042112944939  0.2913216099654923  0.7372565382933578
  0.7669969644777782  0.2942066728337780  0.7393022724145932
  0.7670109908419958  0.3228721127394841  0.6988123365557876
  0.7867166372810409  0.3055741689746438  0.7715213560622949
  0.8115172056035346  0.3484564683625610  0.7714911043973262
  0.7472970898182054  0.3058692907530063  0.5534791268923799
  0.6977161820471948  0.3058656668469513  0.5534850525376794
  0.7422281201793111  0.3600767075075508  0.5918764042376020
  0.7670231314704969  0.3458643485232306  0.5514094656125530
  0.7918106088051120  0.3600806541978988  0.5918691966115164
  0.7670099708221862  0.3171974634608769  0.5918990026102811
  0.7225027240054702  0.3200825263291628  0.5939447367315165
  0.7225167503696884  0.3487479662348687  0.5534548008727108
  0.7918033045797441  0.3314536463760830  0.6261578947339183
  0.7422223968087334  0.3314500224700285  0.6261638203792179
  0.7867343349408495  0.3856610631306276  0.6645551720791406
  0.8115293462320354  0.3714487041463074  0.6240882334540916
  0.8363168235666507  0.3856650098209756  0.6645479644530550
  0.8115161855837248  0.3427818190839538  0.6645777704518194
  0.7670089387670085  0.3456668819522398  0.6666235045730549
  0.7670229651312269  0.3743323218579460  0.6261335687142492
  0.8363095193412825  0.3570380019991601  0.6988366625754568
  0.7867286115702719  0.3570343780931053  0.6988425882207565
  0.8312405497023883  0.4112454187537045  0.7372339399206790
  0.8560355609935740  0.3970330597693843  0.6967670012956300
  0.8808230383281885  0.4112493654440523  0.7372267322945933
  0.8560224003452631  0.3683661747070306  0.7372565382933578
  0.8115151535285472  0.3712512375753166  0.7393022724145932
  0.8115291798927652  0.3999166774810227  0.6988123365557876
  0.8312348263318103  0.3826187337161822  0.7715213560622949
  0.8560353946543038  0.4255010331040996  0.7714911043973262
  0.7918152788689748  0.3829138554945447  0.5534791268923799
  0.7422343710979640  0.3829102315884899  0.5534850525376794
  0.7867463092300805  0.4371212722490891  0.5918764042376020
  0.8115413205212664  0.4229089132647691  0.5514094656125530
  0.8363287978558812  0.4371252189394371  0.5918691966115164
  0.8115281598729553  0.3942420282024155  0.5918990026102811
  0.7670209130562394  0.3971270910707012  0.5939447367315165
  0.7670349394204576  0.4257925309764073  0.5534548008727108
  0.8363214936305134  0.4084982111176216  0.6261578947339183
  0.7867405858595024  0.4084945872115668  0.6261638203792179
  0.8312525239916190  0.4627056278721660  0.6645551720791406
  0.8560475352828046  0.4484932688878460  0.6240882334540916
  0.8808350126174199  0.4627095745625140  0.6645479644530550
  0.8560343746344941  0.4198263838254924  0.6645777704518194
  0.8115271278177779  0.4227114466937783  0.6666235045730549
  0.8115411541819961  0.4513768865994846  0.6261335687142492
  0.8808277083920517  0.4340825667406987  0.6988366625754568
  0.8312468006210408  0.4340789428346437  0.6988425882207565
  0.8757587387531577  0.4882899834952429  0.7372339399206790
  0.9005537500443432  0.4740776245109229  0.6967670012956300
  0.8560333425793164  0.4482958023168552  0.7393022724145932
  0.8560473689435345  0.4769612422225613  0.6988123365557876
  0.6531764458502717  0.0747319726223360  0.5534850525376794
  0.6976883839823881  0.1289430132829352  0.5918764042376020
  0.7224833952735739  0.1147306542986152  0.5514094656125530
  0.7472708726081891  0.1289469599732832  0.5918691966115164
  0.6779629878085474  0.0889488321045473  0.5939447367315165
  0.6779770141727653  0.1176142720102534  0.5534548008727108
  0.7421945987439267  0.1545273689060121  0.6645551720791406
  0.7224832289343041  0.1431986276333307  0.6261335687142492
  0.7472755426720518  0.1517801612699294  0.5534791268923799
  0.6976946349010409  0.1517765373638744  0.5534850525376794
  0.7422065730331573  0.2059875780244738  0.5918764042376020
  0.7670015843243433  0.1917752190401536  0.5514094656125530
  0.7917890616589581  0.2059915247148218  0.5918691966115164
  0.7669884236760324  0.1631083339778002  0.5918990026102811
  0.7224811768593163  0.1659933968460859  0.5939447367315165
  0.7224952032235346  0.1946588367517920  0.5534548008727108
  0.7917817574335902  0.1773645168930063  0.6261578947339183
  0.7422008496625793  0.1773608929869515  0.6261638203792179
  0.7867127877946959  0.2315719336475507  0.6645551720791406
  0.8115077990858818  0.2173595746632307  0.6240882334540916
  0.8362952764204966  0.2315758803378987  0.6645479644530550
  0.7669873916208546  0.1915777524691628  0.6666235045730549
  0.7670014179850733  0.2202431923748689  0.6261335687142492
  0.7867070644241178  0.2029452486100284  0.6988425882207565
  0.8115076327466113  0.2458275479979458  0.6988123365557876
  0.7917937317228210  0.2288247260114680  0.5534791268923799
  0.7422128239518099  0.2288211021054130  0.5534850525376794
  0.7867247620839266  0.2830321427660122  0.5918764042376020
  0.8115197733751125  0.2688197837816920  0.5514094656125530
  0.8363072507097273  0.2830360894563604  0.5918691966115164
  0.8115066127268018  0.2401528987193385  0.5918990026102811
  0.7669993659100858  0.2430379615876243  0.5939447367315165
  0.7670133922743038  0.2717034014933303  0.5534548008727108
  0.8362999464843595  0.2544090816345448  0.6261578947339183
  0.7867190387133485  0.2544054577284899  0.6261638203792179
  0.8312309768454651  0.3086164983890893  0.6645551720791406
  0.8560259881366510  0.2944041394047691  0.6240882334540916
  0.8808134654712658  0.3086204450794373  0.6645479644530550
  0.8560128274883402  0.2657372543424154  0.6645777704518194
  0.8115055806716238  0.2686223172107012  0.6666235045730549
  0.8115196070358425  0.2972877571164074  0.6261335687142492
  0.8312252534748870  0.2799898133515668  0.6988425882207565
  0.8560258217973806  0.3228721127394841  0.6988123365557876
  0.8363119207735902  0.3058692907530063  0.5534791268923799
  0.7867310130025793  0.3058656668469513  0.5534850525376794
  0.8312429511346960  0.3600767075075508  0.5918764042376020
  0.8560379624258817  0.3458643485232306  0.5514094656125530
  0.8808254397604965  0.3600806541978988  0.5918691966115164
  0.8560248017775709  0.3171974634608769  0.5918990026102811
  0.8115175549608550  0.3200825263291628  0.5939447367315165
  0.8115315813250730  0.3487479662348687  0.5534548008727108
  0.8808181355351288  0.3314536463760830  0.6261578947339183
  0.8312372277641177  0.3314500224700285  0.6261638203792179
  0.8757491658962343  0.3856610631306276  0.6645551720791406
  0.9005441771874202  0.3714487041463074  0.6240882334540916
  0.9005310165391092  0.3427818190839538  0.6645777704518194
  0.8560237697223930  0.3456668819522398  0.6666235045730549
  0.8560377960866115  0.3743323218579460  0.6261335687142492
  0.8757434425256564  0.3570343780931053  0.6988425882207565
  0.9005440108481498  0.3999166774810227  0.6988123365557876
  0.8808301098243594  0.3829138554945447  0.5534791268923799
  0.8312492020533486  0.3829102315884899  0.5534850525376794
  0.8757611401854652  0.4371212722490891  0.5918764042376020
  0.9005561514766509  0.4229089132647691  0.5514094656125530
  0.9253436288112658  0.4371252189394371  0.5918691966115164
  0.9005429908283401  0.3942420282024155  0.5918990026102811
  0.8560357440116242  0.3971270910707012  0.5939447367315165
  0.8560497703758422  0.4257925309764073  0.5534548008727108
  0.9253363245858980  0.4084982111176216  0.6261578947339183
  0.8757554168148869  0.4084945872115668  0.6261638203792179
  0.9202673549470035  0.4627056278721660  0.6645551720791406
  0.9005419587731622  0.4227114466937783  0.6666235045730549
  0.9005559851373804  0.4513768865994846  0.6261335687142492
  0.7867094658564254  0.1517765373638744  0.5534850525376794
  0.8312214039885419  0.2059875780244738  0.5918764042376020
  0.8115100341789191  0.1946588367517920  0.5534548008727108
  0.8312276549071947  0.2288211021054130  0.5534850525376794
  0.8757395930393114  0.2830321427660122  0.5918764042376020
  0.8560141968654705  0.2430379615876243  0.5939447367315165
  0.8560282232296885  0.2717034014933303  0.5534548008727108
  0.8757458439579640  0.3058656668469513  0.5534850525376794
  0.9202577820900804  0.3600767075075508  0.5918764042376020
  0.9005323859162395  0.3200825263291628  0.5939447367315165
  0.9005464122804575  0.3487479662348687  0.5534548008727108
  0.9202640330087332  0.3829102315884899  0.5534850525376794
  0.9450646013312267  0.4257925309764073  0.5534548008727108
  0.3219352592760590  0.1407625976191622  0.2728775001963649
  0.4999768954760590  0.1922228067376236  0.2001987323548264
  0.5889797521422124  0.1407625976191622  0.2728775001963649
  0.5889809502483073  0.1920041852301331  0.3637259627600812
  0.4999505454652894  0.1404710997468545  0.4909138037209803
  0.4999625197545203  0.1919313088653161  0.4182350358794417
  0.6779718326252308  0.0890837669932101  0.5090834984431581
  0.1439403169067690  0.3975535238316718  0.2910471949185428
  0.1439522911959999  0.4490137329501334  0.2183684270770040
  0.0994400754637512  0.4745252122083929  0.3455562680379033
  0.0994532478590768  0.5772270089378255  0.3637259627600812
  0.4554922278606743  0.3207275805976239  0.1275199645132879
  0.4110075602452893  0.4492323544576238  0.0548411966717495
  0.4110171331022127  0.5518612748222393  0.1275199645132879
  0.3664690221544618  0.2693402478439794  0.1456896592354657
  0.2774817116637514  0.5259854213268547  0.2728775001963649
  0.4109596630883665  0.2433915179837776  0.3455562680379033
  0.2329706940375974  0.6027384881960853  0.4909138037209803
  0.4554993992852898  0.4745252122083929  0.3455562680379033
  0.3219771502421540  0.5513511554424411  0.5090834984431581
  0.1884764535652896  0.6286143416914699  0.3455562680379033
  0.2775032588099051  0.6800745508099316  0.2728775001963649
  0.2775128316668281  0.7827034711745470  0.3455562680379033
  0.1439678373714434  0.6541986973145469  0.4182350358794417
  0.3665192878713843  0.7313161384209025  0.3637259627600812
  0.3665396369114435  0.8341636802930085  0.2728775001963649
  0.3665168864390768  0.7824848496670563  0.5090834984431581
  0.4110338773837511  0.8082878267976238  0.4182350358794417
  0.5000140164498462  0.3978450217039796  0.0730108913939274
  0.5000355635960001  0.5519341511870562  0.0730108913939274
  0.5445202312113846  0.4234293773270565  0.1456896592354657
  0.6335194883391360  0.3718962918437778  0.2728775001963649
  0.4999756921498458  0.2946331055947485  0.4364047306016193
  0.5889785488160001  0.2431728964762871  0.5090834984431581
  0.5889869235668278  0.2945602292299314  0.4909138037209803
  0.6335087121559997  0.3716776703362871  0.4364047306016193
  0.5890264459729231  0.4490137329501334  0.2183684270770040
  0.5445178297790766  0.4745980885732103  0.2910471949185428
  0.6780496516791359  0.5004010657037776  0.2001987323548264
  0.5890479931190772  0.6031028624332102  0.2183684270770040
  0.6780388754959998  0.5001824441962872  0.3637259627600812
  0.6780233016683666  0.4486493587130085  0.4909138037209803
  0.5890324192914436  0.5515697769499315  0.3455562680379033
  0.6335386340529821  0.5771541325730084  0.4182350358794417
  0.8560589645498462  0.3975535238316718  0.2910471949185428
  0.7225199435729823  0.3716047939714698  0.4909138037209803
  0.7670776550298463  0.6031028624332102  0.2183684270770040
  0.8115587231068280  0.4745252122083929  0.3455562680379033
  0.7225450902575387  0.5257667998193640  0.4364047306016193
  0.8115563216745205  0.5256939234545468  0.4909138037209803
  0.8115682959637512  0.5771541325730084  0.4182350358794417
  0.9450893416806745  0.6027384881960853  0.4909138037209803
  0.6780843712206156  0.7571919919162871  0.2183684270770040
  0.5890539664375977  0.7056589064330085  0.3455562680379033
  0.7225774135868283  0.6800745508099316  0.2728775001963649
  0.7670836283483665  0.7056589064330085  0.3455562680379033
  0.1884393273713848  0.5766440131932102  0.7997985698093120
  0.2329563183160588  0.6024469903237777  0.7089501072455958
  0.2774661326159999  0.6281042223116717  0.7271198019677734
  0.2774864816560589  0.7309517641837777  0.6362713394040574
  0.3220082702452308  0.8080692052901334  0.5817622662846967
  0.3665108854683664  0.8335806845483930  0.7089501072455958
  0.1884405306975973  0.4742337143360854  0.5635925715625189
  0.4109871783329230  0.6536885779347488  0.7997985698093120
  0.5000115821452308  0.7563174982993641  0.8724773376508503
  0.5000475050129231  0.9106981256547486  0.6544410341262351
  0.4109740059375974  0.5509867812053161  0.7816288750871342
  0.4555077688160000  0.6795644314301333  0.6544410341262351
  0.5445165988006742  0.7306602663114700  0.8543076429286726
  0.4555137421345203  0.7821204754299316  0.7816288750871342
  0.5445321726283077  0.7821933517947486  0.7271198019677734
  0.5000343326175974  0.8079963289253163  0.6362713394040574
  0.7670393307298460  0.4998909463239795  0.5817622662846967
  0.8115455454913847  0.5254753019470565  0.6544410341262351
  0.8560721092929819  0.6539071994422392  0.6362713394040574
  0.9005723507359999  0.5769355110655179  0.5817622662846967
  0.2774206368913846  0.3710946745916717  0.8724773376508503
  0.1439223416468279  0.3971891495945469  0.5635925715625189
  0.2329383707083075  0.4484307372055180  0.6544410341262351
  0.2774445854698461  0.4740150928285947  0.7271198019677734
  0.3664570149929233  0.5251838040747486  0.8724773376508503
  0.1884189835514433  0.3201445848530083  0.5635925715625189
  0.2774314130745204  0.3713132960991621  0.7089501072455958
  0.3219160806899051  0.2428085222391622  0.7816288750871342
  0.3664270983160590  0.1660554553699314  0.5635925715625189
  0.2329048492729232  0.2428813986039791  0.7271198019677734
  0.2774469869021538  0.4228463815824409  0.5817622662846967
  0.7224947916683079  0.3710946745916717  0.8724773376508503
  0.6779969516575975  0.3968976517222392  0.7816288750871342
  0.7670249550083080  0.4995994484516718  0.7997985698093120
  0.4999385711760589  0.0890108906283930  0.5635925715625189
  0.5889546002375384  0.1402524782393641  0.6544410341262351
  0.6334608149990769  0.1658368338624408  0.7271198019677734
  0.5889534021314432  0.0890108906283930  0.5635925715625189
  0.7224959949945204  0.2686843757345468  0.6362713394040574
  0.4999397692821539  0.1402524782393641  0.6544410341262351
  0.5444543587945204  0.2172241666160853  0.7089501072455958
  0.7225091673898461  0.3713861724639794  0.6544410341262351
  0.7224840207052895  0.2172241666160853  0.7089501072455958
